Cu   C    O    H 
   1.00000000000000     
   5.1119999886000000   0.0000000000000000   0.0000000000000000
  -0.0000088492000000   5.1119999885000000   0.0000000000000000
  -0.0000266965000000  -0.0000266965000000  15.4221000671000006
Cu   C    O    H 
16  1  1  1  
Selective dynamics
Direct
  0.0000300000000024  0.0013300000000029  0.1797900050000010 F F F
  0.0003782885159822  0.0042384421373569  0.4123217578189160 T T T
  0.2500000000000000  0.2500000000000000  0.0648399960000035 F F F
  0.2541226960259310  0.2506267237412560  0.2977556065956430 T T T
  0.5000100139999970  0.0004199999999983  0.1793099940000000 F F F
  0.4987089731373400  0.0006399326563766  0.4228924243774230 T T T
  0.7500000000000000  0.2500000000000000  0.0648399960000035 F F F
  0.7418659832747920  0.2507410100340410  0.3005079344419390 T T T
  0.0000199999999992  0.4999800029999970  0.1809100059999980 F F F
  0.0003117405270530  0.4978802553144850  0.4148212820905570 T T T
  0.2500000000000000  0.7500000000000000  0.0648399960000035 F F F
  0.2522310001007850  0.7503222886906400  0.2983027361235880 T T T
  0.5000200269999980  0.5008000139999990  0.1798200010000030 F F F
  0.4989924998035350  0.4963060317123150  0.4249270381611370 T T T
  0.7500000000000000  0.7500000000000000  0.0648399960000035 F F F
  0.7488225300399450  0.7505600063448270  0.2998801352728580 T T T
  0.5078673858835000  0.7013229141703260  0.5306873520547700 T T T
  0.5099664533010970  0.8119964340336669  0.5804955426591150 T T T
  0.3562209992245760  0.3584191990333780  0.5152510426801130 T T T
