1:P2_1(4)                               
   1.00000000000000     
     7.7670768717702581    0.0000000000000000    0.0722852556059584
     0.0000000000000000    8.3452494366291443    0.0000000000000000
    -0.0787156901972670    0.0000000000000000    9.2207317262326285
   Mg   N 
     4    40
Direct
  0.2502330756130220  0.3472905440858577  0.1140481481270570
  0.7497669243869779  0.8472905440858578  0.8859518518729429
  0.2502182505071546  0.8471535293445468  0.6141018445120991
  0.7497817494928453  0.3471535293445467  0.3858981554879010
  0.3561188301734061  0.1916781198809393  0.9410480686330681
  0.2783409623777659  0.1303417608687005  0.8255922614212292
  0.3693163234987540  0.0062742069090807  0.7837024026758320
  0.5058479510070715  0.9922795874271834  0.8728437993458551
  0.4964349443478316  0.1072296748494788  0.9692014006771347
  0.6438811698265940  0.6916781198809391  0.0589519313669317
  0.7216590376222342  0.6303417608687004  0.1744077385787707
  0.6306836765012461  0.5062742069090809  0.2162975973241678
  0.4941520489929283  0.4922795874271835  0.1271562006541447
  0.5035650556521685  0.6072296748494789  0.0307985993228654
  0.3559417060174166  0.0029470350069672  0.4411652351558586
  0.4961940034399565  0.0874593866849375  0.4693706911408381
  0.5057231387613090  0.2022885761497606  0.3729126335202722
  0.3692972404548680  0.1881584273978748  0.2836400728146184
  0.2782925631076262  0.0641314000301854  0.3255791245685783
  0.6440582939825834  0.5029470350069672  0.5588347648441413
  0.5038059965600433  0.5874593866849376  0.5306293088591620
  0.4942768612386907  0.7022885761497608  0.6270873664797278
  0.6307027595451320  0.6881584273978747  0.7163599271853813
  0.7217074368923737  0.5641314000301855  0.6744208754314216
  0.0061379313665078  0.9917370465156855  0.6262853983820699
  0.9963907040716249  0.1063269870012191  0.5295885227644699
  0.8555339489382405  0.1901949180056307  0.5574473673204063
  0.7777764947933318  0.1288708369160845  0.6730044129180301
  0.8692940253693988  0.0053888419034895  0.7153122522806922
  0.9938620686334921  0.4917370465156854  0.3737146016179301
  0.0036092959283753  0.6063269870012189  0.4704114772355300
  0.1444660510617594  0.6901949180056305  0.4425526326795938
  0.2222235052066685  0.6288708369160843  0.3269955870819697
  0.1307059746306012  0.5053888419034895  0.2846877477193078
  0.0062588939435614  0.2025559006875249  0.1263143236476141
  0.8693117527299886  0.1890156472634147  0.2152884316594824
  0.7778172046820913  0.0655114523573255  0.1730348172052261
  0.8556530344565084  0.0040777600598591  0.0575483357013677
  0.9965596895095320  0.0878883606542290  0.0297083516429938
  0.9937411060564387  0.7025559006875248  0.8736856763523858
  0.1306882472700113  0.6890156472634148  0.7847115683405179
  0.2221827953179087  0.5655114523573326  0.8269651827947737
  0.1443469655434986  0.5040777600598590  0.9424516642986324
  0.0034403104904680  0.5878883606542290  0.9702916483570063
 
  0.00000000E+00  0.00000000E+00  0.00000000E+00
  0.00000000E+00  0.00000000E+00  0.00000000E+00
  0.00000000E+00  0.00000000E+00  0.00000000E+00
  0.00000000E+00  0.00000000E+00  0.00000000E+00
  0.00000000E+00  0.00000000E+00  0.00000000E+00
  0.00000000E+00  0.00000000E+00  0.00000000E+00
  0.00000000E+00  0.00000000E+00  0.00000000E+00
  0.00000000E+00  0.00000000E+00  0.00000000E+00
  0.00000000E+00  0.00000000E+00  0.00000000E+00
  0.00000000E+00  0.00000000E+00  0.00000000E+00
  0.00000000E+00  0.00000000E+00  0.00000000E+00
  0.00000000E+00  0.00000000E+00  0.00000000E+00
  0.00000000E+00  0.00000000E+00  0.00000000E+00
  0.00000000E+00  0.00000000E+00  0.00000000E+00
  0.00000000E+00  0.00000000E+00  0.00000000E+00
  0.00000000E+00  0.00000000E+00  0.00000000E+00
  0.00000000E+00  0.00000000E+00  0.00000000E+00
  0.00000000E+00  0.00000000E+00  0.00000000E+00
  0.00000000E+00  0.00000000E+00  0.00000000E+00
  0.00000000E+00  0.00000000E+00  0.00000000E+00
  0.00000000E+00  0.00000000E+00  0.00000000E+00
  0.00000000E+00  0.00000000E+00  0.00000000E+00
  0.00000000E+00  0.00000000E+00  0.00000000E+00
  0.00000000E+00  0.00000000E+00  0.00000000E+00
  0.00000000E+00  0.00000000E+00  0.00000000E+00
  0.00000000E+00  0.00000000E+00  0.00000000E+00
  0.00000000E+00  0.00000000E+00  0.00000000E+00
  0.00000000E+00  0.00000000E+00  0.00000000E+00
  0.00000000E+00  0.00000000E+00  0.00000000E+00
  0.00000000E+00  0.00000000E+00  0.00000000E+00
  0.00000000E+00  0.00000000E+00  0.00000000E+00
  0.00000000E+00  0.00000000E+00  0.00000000E+00
  0.00000000E+00  0.00000000E+00  0.00000000E+00
  0.00000000E+00  0.00000000E+00  0.00000000E+00
  0.00000000E+00  0.00000000E+00  0.00000000E+00
  0.00000000E+00  0.00000000E+00  0.00000000E+00
  0.00000000E+00  0.00000000E+00  0.00000000E+00
  0.00000000E+00  0.00000000E+00  0.00000000E+00
  0.00000000E+00  0.00000000E+00  0.00000000E+00
  0.00000000E+00  0.00000000E+00  0.00000000E+00
  0.00000000E+00  0.00000000E+00  0.00000000E+00
  0.00000000E+00  0.00000000E+00  0.00000000E+00
  0.00000000E+00  0.00000000E+00  0.00000000E+00
  0.00000000E+00  0.00000000E+00  0.00000000E+00
