1:P2_1(4)                               
   1.00000000000000     
     7.7776854687645995    0.0000000000000000    0.0791465219859144
     0.0000000000000000    8.3668547653661918    0.0000000000000000
    -0.0702664276843423    0.0000000000000000    9.1763121150453664
   Mg   N 
     4    40
Direct
  0.2503271631316304  0.3473931047149562  0.1139515720253987
  0.7496728368683697  0.8473931047149562  0.8860484279746016
  0.2503624123899149  0.8471322418275190  0.6140043649834345
  0.7496375876100859  0.3471322418275190  0.3859956350165658
  0.3565284365745378  0.1920054931954563  0.9406937208611882
  0.2786479024033467  0.1301827716975925  0.8251989613472509
  0.3692921003494046  0.0060814746783386  0.7835707299910176
  0.5056895629273221  0.9924418833466733  0.8729657761221986
  0.4965782205232506  0.1077494752532414  0.9691514023750291
  0.6434715634254624  0.6920054931954566  0.0593062791388118
  0.7213520975966539  0.6301827716975923  0.1748010386527491
  0.6307078996505953  0.5060814746783383  0.2164292700089821
  0.4943104370726782  0.4924418833466732  0.1270342238778016
  0.5034217794767500  0.6077494752532415  0.0308485976249707
  0.3562579981259311  0.0027330085070661  0.4408672440430535
  0.4961972257531433  0.0871024292211964  0.4694370128373284
  0.5054925576082172  0.2022060387481155  0.3730520326378789
  0.3692842729188233  0.1883814340189081  0.2834987127756869
  0.2786133726833357  0.0642995072246993  0.3251487236723991
  0.6437420018740684  0.5027330085070664  0.5591327559569461
  0.5038027742468567  0.5871024292211962  0.5305629871626716
  0.4945074423917828  0.7022060387481156  0.6269479673621218
  0.6307157270811768  0.6883814340189082  0.7165012872243133
  0.7213866273166647  0.5642995072246992  0.6748512763276008
  0.0060465496168921  0.9918374659630290  0.6259512129005251
 -0.0034359904315780  0.1065808877443293  0.5292463437172646
  0.8557740406110248  0.1900949743802806  0.5574721604188919
  0.7777854768709908  0.1283823589549498  0.6732548381466753
  0.8690512188090216  0.0050066905208736  0.7153079608167560
  0.9939534503831075  0.4918374659630294  0.3740487870994748
  0.0034359904315780  0.6065808877443291  0.4707536562827351
  0.1442259593889751  0.6900949743802803  0.4425278395811078
  0.2222145231290097  0.6283823589549495  0.3267451618533245
  0.1309487811909783  0.5050066905208738  0.2846920391832444
  0.0061471399842142  0.2024069090099260  0.1260062588874045
  0.8691563951879512  0.1892838078498545  0.2153399546123197
  0.7778668159746104  0.0658892161204283  0.1733321468809729
  0.8559664125955245  0.0040577110587306  0.0576535750455171
 -0.0032422982111154  0.0875511159638246  0.0293867630798824
  0.9938528600157858  0.7024069090099260  0.8739937411125949
  0.1308436048120486  0.6892838078498545  0.7846600453876803
  0.2221331840253898  0.5658892161204286  0.8266678531190274
  0.1440335874044756  0.5040577110587304  0.9423464249544832
  0.0032422982111153  0.5875511159638251  0.9706132369201180
 
  0.00000000E+00  0.00000000E+00  0.00000000E+00
  0.00000000E+00  0.00000000E+00  0.00000000E+00
  0.00000000E+00  0.00000000E+00  0.00000000E+00
  0.00000000E+00  0.00000000E+00  0.00000000E+00
  0.00000000E+00  0.00000000E+00  0.00000000E+00
  0.00000000E+00  0.00000000E+00  0.00000000E+00
  0.00000000E+00  0.00000000E+00  0.00000000E+00
  0.00000000E+00  0.00000000E+00  0.00000000E+00
  0.00000000E+00  0.00000000E+00  0.00000000E+00
  0.00000000E+00  0.00000000E+00  0.00000000E+00
  0.00000000E+00  0.00000000E+00  0.00000000E+00
  0.00000000E+00  0.00000000E+00  0.00000000E+00
  0.00000000E+00  0.00000000E+00  0.00000000E+00
  0.00000000E+00  0.00000000E+00  0.00000000E+00
  0.00000000E+00  0.00000000E+00  0.00000000E+00
  0.00000000E+00  0.00000000E+00  0.00000000E+00
  0.00000000E+00  0.00000000E+00  0.00000000E+00
  0.00000000E+00  0.00000000E+00  0.00000000E+00
  0.00000000E+00  0.00000000E+00  0.00000000E+00
  0.00000000E+00  0.00000000E+00  0.00000000E+00
  0.00000000E+00  0.00000000E+00  0.00000000E+00
  0.00000000E+00  0.00000000E+00  0.00000000E+00
  0.00000000E+00  0.00000000E+00  0.00000000E+00
  0.00000000E+00  0.00000000E+00  0.00000000E+00
  0.00000000E+00  0.00000000E+00  0.00000000E+00
  0.00000000E+00  0.00000000E+00  0.00000000E+00
  0.00000000E+00  0.00000000E+00  0.00000000E+00
  0.00000000E+00  0.00000000E+00  0.00000000E+00
  0.00000000E+00  0.00000000E+00  0.00000000E+00
  0.00000000E+00  0.00000000E+00  0.00000000E+00
  0.00000000E+00  0.00000000E+00  0.00000000E+00
  0.00000000E+00  0.00000000E+00  0.00000000E+00
  0.00000000E+00  0.00000000E+00  0.00000000E+00
  0.00000000E+00  0.00000000E+00  0.00000000E+00
  0.00000000E+00  0.00000000E+00  0.00000000E+00
  0.00000000E+00  0.00000000E+00  0.00000000E+00
  0.00000000E+00  0.00000000E+00  0.00000000E+00
  0.00000000E+00  0.00000000E+00  0.00000000E+00
  0.00000000E+00  0.00000000E+00  0.00000000E+00
  0.00000000E+00  0.00000000E+00  0.00000000E+00
  0.00000000E+00  0.00000000E+00  0.00000000E+00
  0.00000000E+00  0.00000000E+00  0.00000000E+00
  0.00000000E+00  0.00000000E+00  0.00000000E+00
  0.00000000E+00  0.00000000E+00  0.00000000E+00
