<?xml version="1.0" encoding="UTF-8"?>
<modeling>
    <generator>
        <i name="program" type="string">vasp</i>
        <i name="version" type="string">5.4.1</i>
        <i name="platform" type="string">LinuxGNU</i>
        <i name="date" type="string">2025 12 30</i>
        <i name="time" type="string">00:20:22</i>
    </generator>
    <incar>
        <i type="string" name="SYSTEM">qvasp</i>
        <i type="string" name="PREC">normal</i>
        <i type="int" name="ISPIN">1</i>
        <i type="int" name="ICHARG">2</i>
        <i type="int" name="NELM">100</i>
        <i type="int" name="NELMIN">5</i>
        <i type="int" name="IBRION">-1</i>
        <i name="EDIFF">0.00001000</i>
        <i type="int" name="NSW">0</i>
        <i name="ENCUT">400.00000000</i>
        <i type="logical" name="LREAL">F</i>
        <i type="int" name="ISMEAR">-5</i>
        <i name="SIGMA">0.20000000</i>
        <i type="logical" name="LWAVE">F</i>
        <i type="logical" name="LCHARG">T</i>
    </incar>
    <parameters>
        <i type="int" name="IBRION">-1</i>
        <i type="int" name="NELM">100</i>
        <i type="logical" name="LCHIMAG">F</i>
    </parameters>
    <calculation>
        <scstep>
            <energy>
                <i name="e_fr_energy">-10.000000</i>
                <i name="e_0_energy">-10.000000</i>
                <i name="e_wo_entrp">-10.000000</i>
            </energy>
        </scstep>
        <energy>
            <i name="e_fr_energy">-10.000000</i>
            <i name="e_0_energy">-10.000000</i>
            <i name="e_wo_entrp">-10.000000</i>
        </energy>
        <varray name="stress">
            <v> -0.10 0.00 0.00 </v>
            <v> 0.00 -0.12 0.00 </v>
            <v> 0.00 0.00 -0.11 </v>
        </varray>
        <dos>
            <i name="efermi">5.1235</i>
            <total>
                <array>
                    <set>
                        <set comment="spin 1">
                            <r>0.0 1.0 2.0</r>
                        </set>
                    </set>
                </array>
            </total>
        </dos>
    </calculation>
</modeling>
