deta\(2)                                
   1.00000000000000     
     5.2802711175096668    0.1164747544929273   -0.0000053729001311
     0.1065187643648324    5.6089501671354833   -0.0000002702239398
     0.0000034175935091   -0.0000078725866515   21.2582714171985963
   P    In
     6     2
Direct
  0.9524688949771232  0.2669909438019218  0.5497546103166826
  0.0060250936422221  0.6938638390556306  0.4292112852209087
  0.4524686168182797  0.2669911151711091  0.4502502633560823
  0.5060248320299294  0.6938638266244155  0.5707937068494928
  0.5308087329275608  0.3038043876984915  0.5532028154882411
  0.0308083877838854  0.3038040356858431  0.4468023116321262
  0.5106977224813676  0.7901609088585317  0.4461316019683323
  0.0106977303396363  0.7901608561040376  0.5538734311681353
 
  0.00000000E+00  0.00000000E+00  0.00000000E+00
  0.00000000E+00  0.00000000E+00  0.00000000E+00
  0.00000000E+00  0.00000000E+00  0.00000000E+00
  0.00000000E+00  0.00000000E+00  0.00000000E+00
  0.00000000E+00  0.00000000E+00  0.00000000E+00
  0.00000000E+00  0.00000000E+00  0.00000000E+00
  0.00000000E+00  0.00000000E+00  0.00000000E+00
  0.00000000E+00  0.00000000E+00  0.00000000E+00
