    8    8    1    1
  0.7866722E+02  0.5281556E-09  0.5609962E-09  0.2125827E-08  0.5000000E-15
  1.000000000000000E-004
  CAR 
 AlN 0001 surface 2x2 Ga_T4              
     36    150     24
 
  0.0000000E+00  0.0000000E+00  0.0000000E+00  0.6666667E-02
    1      -16.013242   1.000000
    2      -13.800529   1.000000
    3      -12.158426   1.000000
    4      -12.067361   1.000000
    5      -10.212883   1.000000
    6       -9.219784   1.000000
    7       -7.572838   1.000000
    8       -7.181624   1.000000
    9       -6.810166   1.000000
   10       -6.159269   1.000000
   11       -5.447950   1.000000
   12       -4.901512   1.000000
   13       -4.443778   1.000000
   14       -4.376059   1.000000
   15       -4.349721   1.000000
   16       -3.349945   1.000000
   17       -3.188898   1.000000
   18       -2.914521   1.000000
   19       -1.820262   0.000000
   20       -1.517649   0.000000
   21        0.004228   0.000000
   22        0.642611   0.000000
   23        1.098517   0.000000
   24        1.688607   0.000000
 
  0.0000000E+00  0.1724138E-01  0.0000000E+00  0.6666667E-02
    1      -16.012743   1.000000
    2      -13.800075   1.000000
    3      -12.158385   1.000000
    4      -12.070482   1.000000
    5      -10.214506   1.000000
    6       -9.216703   1.000000
    7       -7.573631   1.000000
    8       -7.181369   1.000000
    9       -6.807957   1.000000
   10       -6.156052   1.000000
   11       -5.446880   1.000000
   12       -4.913461   1.000000
   13       -4.486252   1.000000
   14       -4.380744   1.000000
   15       -4.293710   1.000000
   16       -3.348866   1.000000
   17       -3.193522   1.000000
   18       -2.911563   1.000000
   19       -1.816262   0.000000
   20       -1.517035   0.000000
   21        0.003259   0.000000
   22        0.646725   0.000000
   23        1.101673   0.000000
   24        1.689309   0.000000
 
  0.0000000E+00  0.3448276E-01  0.0000000E+00  0.6666667E-02
    1      -16.011248   1.000000
    2      -13.798719   1.000000
    3      -12.158260   1.000000
    4      -12.079769   1.000000
    5      -10.219354   1.000000
    6       -9.207536   1.000000
    7       -7.575940   1.000000
    8       -7.180607   1.000000
    9       -6.801353   1.000000
   10       -6.146640   1.000000
   11       -5.443678   1.000000
   12       -4.947654   1.000000
   13       -4.542882   1.000000
   14       -4.394540   1.000000
   15       -4.197988   1.000000
   16       -3.345614   1.000000
   17       -3.206591   1.000000
   18       -2.903821   1.000000
   19       -1.804111   0.000000
   20       -1.515178   0.000000
   21        0.000373   0.000000
   22        0.659011   0.000000
   23        1.111005   0.000000
   24        1.691229   0.000000
 
  0.0000000E+00  0.5172414E-01  0.0000000E+00  0.6666667E-02
    1      -16.008768   1.000000
    2      -13.796471   1.000000
    3      -12.158056   1.000000
    4      -12.095007   1.000000
    5      -10.227358   1.000000
    6       -9.192512   1.000000
    7       -7.579562   1.000000
    8       -7.179341   1.000000
    9       -6.790439   1.000000
   10       -6.131772   1.000000
   11       -5.438368   1.000000
   12       -4.999119   1.000000
   13       -4.590065   1.000000
   14       -4.416698   1.000000
   15       -4.090740   1.000000
   16       -3.340131   1.000000
   17       -3.226286   1.000000
   18       -2.894005   1.000000
   19       -1.783414   0.000000
   20       -1.512029   0.000000
   21       -0.004359   0.000000
   22        0.679304   0.000000
   23        1.126182   0.000000
   24        1.694544   0.000000
 
  0.0000000E+00  0.6896552E-01  0.0000000E+00  0.6666667E-02
    1      -16.005324   1.000000
    2      -13.793351   1.000000
    3      -12.157784   1.000000
    4      -12.115851   1.000000
    5      -10.238405   1.000000
    6       -9.171992   1.000000
    7       -7.584191   1.000000
    8       -7.177585   1.000000
    9       -6.775353   1.000000
   10       -6.112700   1.000000
   11       -5.430992   1.000000
   12       -5.060794   1.000000
   13       -4.629235   1.000000
   14       -4.446080   1.000000
   15       -3.976925   1.000000
   16       -3.332293   1.000000
   17       -3.250772   1.000000
   18       -2.885168   1.000000
   19       -1.753696   0.000000
   20       -1.507502   0.000000
   21       -0.010817   0.000000
   22        0.707309   0.000000
   23        1.146583   0.000000
   24        1.699076   0.000000
 
  0.0000000E+00  0.8620690E-01  0.0000000E+00  0.6666667E-02
    1      -16.000942   1.000000
    2      -13.789384   1.000000
    3      -12.157449   1.000000
    4      -12.141848   1.000000
    5      -10.252337   1.000000
    6       -9.146448   1.000000
    7       -7.589449   1.000000
    8       -7.175352   1.000000
    9       -6.756291   1.000000
   10       -6.091255   1.000000
   11       -5.421614   1.000000
   12       -5.125718   1.000000
   13       -4.663871   1.000000
   14       -4.481274   1.000000
   15       -3.859057   1.000000
   16       -3.321831   1.000000
   17       -3.278693   1.000000
   18       -2.879875   1.000000
   19       -1.714618   0.000000
   20       -1.501467   0.000000
   21       -0.018820   0.000000
   22        0.742592   0.000000
   23        1.171296   0.000000
   24        1.704546   0.000000
 
  0.0000000E+00  0.1034483E+00  0.0000000E+00  0.6666667E-02
    1      -15.995659   1.000000
    2      -13.784601   1.000000
    3      -12.172463   1.000000
    4      -12.157065   1.000000
    5      -10.268959   1.000000
    6       -9.116430   1.000000
    7       -7.594932   1.000000
    8       -7.172669   1.000000
    9       -6.733514   1.000000
   10       -6.069908   1.000000
   11       -5.410329   1.000000
   12       -5.188086   1.000000
   13       -4.696520   1.000000
   14       -4.520715   1.000000
   15       -3.739232   1.000000
   16       -3.309185   1.000000
   17       -3.308151   1.000000
   18       -2.879913   1.000000
   19       -1.666186   0.000000
   20       -1.493745   0.000000
   21       -0.028129   0.000000
   22        0.784549   0.000000
   23        1.198989   0.000000
   24        1.711352   0.000000
 
  0.0000000E+00  0.1206897E+00  0.0000000E+00  0.6666667E-02
    1      -15.989518   1.000000
    2      -13.779045   1.000000
    3      -12.207110   1.000000
    4      -12.156645   1.000000
    5      -10.288039   1.000000
    6       -9.082547   1.000000
    7       -7.600248   1.000000
    8       -7.169575   1.000000
    9       -6.707348   1.000000
   10       -6.051797   1.000000
   11       -5.397274   1.000000
   12       -5.243083   1.000000
   13       -4.728476   1.000000
   14       -4.562774   1.000000
   15       -3.620063   1.000000
   16       -3.341715   1.000000
   17       -3.289844   1.000000
   18       -2.886245   1.000000
   19       -1.608890   0.000000
   20       -1.484092   0.000000
   21       -0.038452   0.000000
   22        0.832383   0.000000
   23        1.227694   0.000000
   24        1.719050   0.000000
 
  0.0000000E+00  0.1379310E+00  0.0000000E+00  0.6666667E-02
    1      -15.982572   1.000000
    2      -13.772764   1.000000
    3      -12.245169   1.000000
    4      -12.156207   1.000000
    5      -10.309318   1.000000
    6       -9.045431   1.000000
    7       -7.605036   1.000000
    8       -7.166120   1.000000
    9       -6.678204   1.000000
   10       -6.040537   1.000000
   11       -5.382637   1.000000
   12       -5.286616   1.000000
   13       -4.760060   1.000000
   14       -4.605806   1.000000
   15       -3.506314   1.000000
   16       -3.375933   1.000000
   17       -3.263231   1.000000
   18       -2.899120   1.000000
   19       -1.543726   0.000000
   20       -1.472187   0.000000
   21       -0.049450   0.000000
   22        0.885059   0.000000
   23        1.254449   0.000000
   24        1.727535   0.000000
 
  0.0000000E+00  0.1551724E+00  0.0000000E+00  0.6666667E-02
    1      -15.974880   1.000000
    2      -13.765812   1.000000
    3      -12.286010   1.000000
    4      -12.155767   1.000000
    5      -10.332507   1.000000
    6       -9.005715   1.000000
    7       -7.608991   1.000000
    8       -7.162366   1.000000
    9       -6.646571   1.000000
   10       -6.039555   1.000000
   11       -5.366680   1.000000
   12       -5.315629   1.000000
   13       -4.790858   1.000000
   14       -4.648168   1.000000
   15       -3.411571   1.000000
   16       -3.408509   1.000000
   17       -3.218860   1.000000
   18       -2.918243   1.000000
   19       -1.472152   0.000000
   20       -1.457617   0.000000
   21       -0.060748   0.000000
   22        0.941238   0.000000
   23        1.274565   0.000000
   24        1.736889   0.000000
 
  0.0000000E+00  0.1724138E+00  0.0000000E+00  0.6666667E-02
    1      -15.966511   1.000000
    2      -13.758254   1.000000
    3      -12.329010   1.000000
    4      -12.155342   1.000000
    5      -10.357297   1.000000
    6       -8.964017   1.000000
    7       -7.611876   1.000000
    8       -7.158388   1.000000
    9       -6.613026   1.000000
   10       -6.050998   1.000000
   11       -5.349756   1.000000
   12       -5.329076   1.000000
   13       -4.819798   1.000000
   14       -4.688220   1.000000
   15       -3.448389   1.000000
   16       -3.340848   1.000000
   17       -3.143652   1.000000
   18       -2.942968   1.000000
   19       -1.439860   0.000000
   20       -1.396015   0.000000
   21       -0.071950   0.000000
   22        0.999175   0.000000
   23        1.281312   0.000000
   24        1.746612   0.000000
 
  0.0000000E+00  0.1896552E+00  0.0000000E+00  0.6666667E-02
    1      -15.957545   1.000000
    2      -13.750160   1.000000
    3      -12.373561   1.000000
    4      -12.154949   1.000000
    5      -10.383366   1.000000
    6       -8.920923   1.000000
    7       -7.613516   1.000000
    8       -7.154271   1.000000
    9       -6.578242   1.000000
   10       -6.074841   1.000000
   11       -5.332330   1.000000
   12       -5.328849   1.000000
   13       -4.845085   1.000000
   14       -4.724303   1.000000
   15       -3.486137   1.000000
   16       -3.299778   1.000000
   17       -3.042383   1.000000
   18       -2.972455   1.000000
   19       -1.418271   0.000000
   20       -1.317507   0.000000
   21       -0.082644   0.000000
   22        1.056535   0.000000
   23        1.265857   0.000000
   24        1.757140   0.000000
 
  0.0000000E+00  0.2068966E+00  0.0000000E+00  0.6666667E-02
    1      -15.948065   1.000000
    2      -13.741611   1.000000
    3      -12.419082   1.000000
    4      -12.154607   1.000000
    5      -10.410381   1.000000
    6       -8.876984   1.000000
    7       -7.613810   1.000000
    8       -7.150112   1.000000
    9       -6.542973   1.000000
   10       -6.109066   1.000000
   11       -5.319725   1.000000
   12       -5.314971   1.000000
   13       -4.864065   1.000000
   14       -4.754760   1.000000
   15       -3.524543   1.000000
   16       -3.270866   1.000000
   17       -3.005786   1.000000
   18       -2.930841   1.000000
   19       -1.392091   0.000000
   20       -1.239161   0.000000
   21       -0.092417   0.000000
   22        1.110250   0.000000
   23        1.225267   0.000000
   24        1.769262   0.000000
 
  0.0000000E+00  0.2241379E+00  0.0000000E+00  0.6666667E-02
    1      -15.938166   1.000000
    2      -13.732690   1.000000
    3      -12.465020   1.000000
    4      -12.154331   1.000000
    5      -10.438005   1.000000
    6       -8.832706   1.000000
    7       -7.612714   1.000000
    8       -7.146011   1.000000
    9       -6.508046   1.000000
   10       -6.150709   1.000000
   11       -5.308254   1.000000
   12       -5.298321   1.000000
   13       -4.873278   1.000000
   14       -4.777976   1.000000
   15       -3.563312   1.000000
   16       -3.246583   1.000000
   17       -3.042041   1.000000
   18       -2.818036   1.000000
   19       -1.360459   0.000000
   20       -1.163898   0.000000
   21       -0.100857   0.000000
   22        1.156152   0.000000
   23        1.163167   0.000000
   24        1.778909   0.000000
 
  0.0000000E+00  0.2413793E+00  0.0000000E+00  0.6666667E-02
    1      -15.927950   1.000000
    2      -13.723493   1.000000
    3      -12.510854   1.000000
    4      -12.154133   1.000000
    5      -10.465899   1.000000
    6       -8.788553   1.000000
    7       -7.610241   1.000000
    8       -7.142070   1.000000
    9       -6.474325   1.000000
   10       -6.196867   1.000000
   11       -5.301010   1.000000
   12       -5.282980   1.000000
   13       -4.869213   1.000000
   14       -4.792531   1.000000
   15       -3.602109   1.000000
   16       -3.224211   1.000000
   17       -3.080335   1.000000
   18       -2.708265   1.000000
   19       -1.322486   0.000000
   20       -1.095071   0.000000
   21       -0.107548   0.000000
   22        1.090706   0.000000
   23        1.189100   0.000000
   24        1.793163   0.000000
 
  0.0000000E+00  0.2586207E+00  0.0000000E+00  0.6666667E-02
    1      -15.917529   1.000000
    2      -13.714118   1.000000
    3      -12.556097   1.000000
    4      -12.154026   1.000000
    5      -10.493732   1.000000
    6       -8.744953   1.000000
    7       -7.606461   1.000000
    8       -7.138396   1.000000
    9       -6.442671   1.000000
   10       -6.245170   1.000000
   11       -5.302452   1.000000
   12       -5.269328   1.000000
   13       -4.849966   1.000000
   14       -4.797426   1.000000
   15       -3.640569   1.000000
   16       -3.202794   1.000000
   17       -3.119835   1.000000
   18       -2.604077   1.000000
   19       -1.277370   0.000000
   20       -1.036447   0.000000
   21       -0.112073   0.000000
   22        1.019033   0.000000
   23        1.203197   0.000000
   24        1.832592   0.000000
 
  0.0000000E+00  0.2758621E+00  0.0000000E+00  0.6666667E-02
    1      -15.907018   1.000000
    2      -13.704672   1.000000
    3      -12.600292   1.000000
    4      -12.154016   1.000000
    5      -10.521179   1.000000
    6       -8.702293   1.000000
    7       -7.601484   1.000000
    8       -7.135086   1.000000
    9       -6.413876   1.000000
   10       -6.293839   1.000000
   11       -5.313584   1.000000
   12       -5.257342   1.000000
   13       -4.816523   1.000000
   14       -4.792334   1.000000
   15       -3.678284   1.000000
   16       -3.182035   1.000000
   17       -3.159768   1.000000
   18       -2.507222   1.000000
   19       -1.224575   0.000000
   20       -0.991993   0.000000
   21       -0.113998   0.000000
   22        0.957288   0.000000
   23        1.193554   0.000000
   24        1.821641   0.000000
 
  0.0000000E+00  0.2931034E+00  0.0000000E+00  0.6666667E-02
    1      -15.896540   1.000000
    2      -13.695264   1.000000
    3      -12.643012   1.000000
    4      -12.154105   1.000000
    5      -10.547929   1.000000
    6       -8.660936   1.000000
    7       -7.595457   1.000000
    8       -7.132229   1.000000
    9       -6.388588   1.000000
   10       -6.341582   1.000000
   11       -5.332691   1.000000
   12       -5.246542   1.000000
   13       -4.777741   1.000000
   14       -4.772128   1.000000
   15       -3.714795   1.000000
   16       -3.199412   1.000000
   17       -3.161928   1.000000
   18       -2.418861   1.000000
   19       -1.164065   0.000000
   20       -0.965356   0.000000
   21       -0.112852   0.000000
   22        0.912378   0.000000
   23        1.158687   0.000000
   24        1.825370   0.000000
 
  0.0000000E+00  0.3103448E+00  0.0000000E+00  0.6666667E-02
    1      -15.886224   1.000000
    2      -13.686011   1.000000
    3      -12.683861   1.000000
    4      -12.154291   1.000000
    5      -10.573688   1.000000
    6       -8.621224   1.000000
    7       -7.588569   1.000000
    8       -7.129896   1.000000
    9       -6.387465   1.000000
   10       -6.367254   1.000000
   11       -5.357136   1.000000
   12       -5.236149   1.000000
   13       -4.754878   1.000000
   14       -4.720630   1.000000
   15       -3.749595   1.000000
   16       -3.238105   1.000000
   17       -3.142611   1.000000
   18       -2.339562   1.000000
   19       -1.096516   0.000000
   20       -0.959037   0.000000
   21       -0.108109   0.000000
   22        0.888964   0.000000
   23        1.101100   0.000000
   24        1.834977   0.000000
 
  0.0000000E+00  0.3275862E+00  0.0000000E+00  0.6666667E-02
    1      -15.876201   1.000000
    2      -13.677029   1.000000
    3      -12.722469   1.000000
    4      -12.154566   1.000000
    5      -10.598173   1.000000
    6       -8.583478   1.000000
    7       -7.581027   1.000000
    8       -7.128137   1.000000
    9       -6.430806   1.000000
   10       -6.350058   1.000000
   11       -5.384513   1.000000
   12       -5.225358   1.000000
   13       -4.725508   1.000000
   14       -4.665418   1.000000
   15       -3.782113   1.000000
   16       -3.275231   1.000000
   17       -3.124292   1.000000
   18       -2.269303   1.000000
   19       -1.023445   0.000000
   20       -0.973535   0.000000
   21       -0.099161   0.000000
   22        0.888989   0.000000
   23        1.026337   0.000000
   24        1.840041   0.000000
 
  0.0000000E+00  0.3448276E+00  0.0000000E+00  0.6666667E-02
    1      -15.866608   1.000000
    2      -13.668439   1.000000
    3      -12.758494   1.000000
    4      -12.154920   1.000000
    5      -10.621127   1.000000
    6       -8.548016   1.000000
    7       -7.573069   1.000000
    8       -7.126970   1.000000
    9       -6.471096   1.000000
   10       -6.336914   1.000000
   11       -5.412959   1.000000
   12       -5.213608   1.000000
   13       -4.691691   1.000000
   14       -4.609193   1.000000
   15       -3.811724   1.000000
   16       -3.310224   1.000000
   17       -3.107205   1.000000
   18       -2.207577   1.000000
   19       -1.006988   0.000000
   20       -0.947203   0.000000
   21       -0.085317   0.000000
   22        0.911545   0.000000
   23        0.940593   0.000000
   24        1.844750   0.000000
 
  0.0000000E+00  0.3620690E+00  0.0000000E+00  0.6666667E-02
    1      -15.857576   1.000000
    2      -13.660359   1.000000
    3      -12.791623   1.000000
    4      -12.155335   1.000000
    5      -10.642312   1.000000
    6       -8.515149   1.000000
    7       -7.564946   1.000000
    8       -7.126383   1.000000
    9       -6.507947   1.000000
   10       -6.327487   1.000000
   11       -5.441085   1.000000
   12       -5.200701   1.000000
   13       -4.655623   1.000000
   14       -4.554068   1.000000
   15       -3.837772   1.000000
   16       -3.342571   1.000000
   17       -3.091586   1.000000
   18       -2.153588   1.000000
   19       -1.055548   0.000000
   20       -0.870817   0.000000
   21       -0.065844   0.000000
   22        0.849557   0.000000
   23        0.953494   0.000000
   24        1.849642   0.000000
 
  0.0000000E+00  0.3793103E+00  0.0000000E+00  0.6666667E-02
    1      -15.849238   1.000000
    2      -13.652905   1.000000
    3      -12.821567   1.000000
    4      -12.155788   1.000000
    5      -10.661515   1.000000
    6       -8.485182   1.000000
    7       -7.556923   1.000000
    8       -7.126321   1.000000
    9       -6.541060   1.000000
   10       -6.321255   1.000000
   11       -5.467851   1.000000
   12       -5.186819   1.000000
   13       -4.619510   1.000000
   14       -4.501746   1.000000
   15       -3.859627   1.000000
   16       -3.371813   1.000000
   17       -3.077638   1.000000
   18       -2.106487   1.000000
   19       -1.114248   0.000000
   20       -0.797665   0.000000
   21       -0.040105   0.000000
   22        0.757708   0.000000
   23        1.010208   0.000000
   24        1.855310   0.000000
 
  0.0000000E+00  0.3965517E+00  0.0000000E+00  0.6666667E-02
    1      -15.841716   1.000000
    2      -13.646186   1.000000
    3      -12.848066   1.000000
    4      -12.156256   1.000000
    5      -10.678543   1.000000
    6       -8.458419   1.000000
    7       -7.549268   1.000000
    8       -7.126697   1.000000
    9       -6.570193   1.000000
   10       -6.317584   1.000000
   11       -5.492453   1.000000
   12       -5.172448   1.000000
   13       -4.585448   1.000000
   14       -4.453627   1.000000
   15       -3.876794   1.000000
   16       -3.397560   1.000000
   17       -3.065519   1.000000
   18       -2.065575   1.000000
   19       -1.177829   0.000000
   20       -0.731032   0.000000
   21       -0.007834   0.000000
   22        0.668509   0.000000
   23        1.076437   0.000000
   24        1.862602   0.000000
 
  0.0000000E+00  0.4137931E+00  0.0000000E+00  0.6666667E-02
    1      -15.835128   1.000000
    2      -13.640308   1.000000
    3      -12.870893   1.000000
    4      -12.156714   1.000000
    5      -10.693233   1.000000
    6       -8.435155   1.000000
    7       -7.542244   1.000000
    8       -7.127390   1.000000
    9       -6.595154   1.000000
   10       -6.315809   1.000000
   11       -5.514258   1.000000
   12       -5.158284   1.000000
   13       -4.555247   1.000000
   14       -4.410889   1.000000
   15       -3.889083   1.000000
   16       -3.419504   1.000000
   17       -3.055324   1.000000
   18       -2.030432   1.000000
   19       -1.241279   0.000000
   20       -0.673573   0.000000
   21        0.030517   0.000000
   22        0.584578   0.000000
   23        1.146892   0.000000
   24        1.872559   0.000000
 
  0.0000000E+00  0.4310345E+00  0.0000000E+00  0.6666667E-02
    1      -15.829580   1.000000
    2      -13.635360   1.000000
    3      -12.889848   1.000000
    4      -12.157133   1.000000
    5      -10.705442   1.000000
    6       -8.415668   1.000000
    7       -7.536100   1.000000
    8       -7.128254   1.000000
    9       -6.615787   1.000000
   10       -6.315297   1.000000
   11       -5.532760   1.000000
   12       -5.145131   1.000000
   13       -4.530220   1.000000
   14       -4.374525   1.000000
   15       -3.896764   1.000000
   16       -3.437441   1.000000
   17       -3.047083   1.000000
   18       -2.000962   1.000000
   19       -1.300079   0.000000
   20       -0.626892   0.000000
   21        0.073567   0.000000
   22        0.507778   0.000000
   23        1.216151   0.000000
   24        1.885047   0.000000
 
  0.0000000E+00  0.4482759E+00  0.0000000E+00  0.6666667E-02
    1      -15.825163   1.000000
    2      -13.631423   1.000000
    3      -12.904766   1.000000
    4      -12.157489   1.000000
    5      -10.715057   1.000000
    6       -8.400213   1.000000
    7       -7.531059   1.000000
    8       -7.129135   1.000000
    9       -6.631966   1.000000
   10       -6.315494   1.000000
   11       -5.547559   1.000000
   12       -5.133817   1.000000
   13       -4.511041   1.000000
   14       -4.345359   1.000000
   15       -3.900652   1.000000
   16       -3.451279   1.000000
   17       -3.040775   1.000000
   18       -1.977366   1.000000
   19       -1.350306   0.000000
   20       -0.591459   0.000000
   21        0.119158   0.000000
   22        0.439248   0.000000
   23        1.278587   0.000000
   24        1.899202   0.000000
 
  0.0000000E+00  0.4655172E+00  0.0000000E+00  0.6666667E-02
    1      -15.821952   1.000000
    2      -13.628563   1.000000
    3      -12.915516   1.000000
    4      -12.157760   1.000000
    5      -10.721988   1.000000
    6       -8.389004   1.000000
    7       -7.527313   1.000000
    8       -7.129890   1.000000
    9       -6.643592   1.000000
   10       -6.315955   1.000000
   11       -5.558347   1.000000
   12       -5.125098   1.000000
   13       -4.497770   1.000000
   14       -4.324042   1.000000
   15       -3.901984   1.000000
   16       -3.461040   1.000000
   17       -3.036343   1.000000
   18       -1.960033   1.000000
   19       -1.388700   0.000000
   20       -0.566918   0.000000
   21        0.164792   0.000000
   22        0.379522   0.000000
   23        1.328741   0.000000
   24        1.913373   0.000000
 
  0.0000000E+00  0.4827586E+00  0.0000000E+00  0.6666667E-02
    1      -15.820004   1.000000
    2      -13.626826   1.000000
    3      -12.922005   1.000000
    4      -12.157929   1.000000
    5      -10.726172   1.000000
    6       -8.382209   1.000000
    7       -7.525004   1.000000
    8       -7.130395   1.000000
    9       -6.650596   1.000000
   10       -6.316360   1.000000
   11       -5.564906   1.000000
   12       -5.119595   1.000000
   13       -4.490074   1.000000
   14       -4.311056   1.000000
   15       -3.902094   1.000000
   16       -3.466821   1.000000
   17       -3.033717   1.000000
   18       -1.949402   1.000000
   19       -1.412783   0.000000
   20       -0.552584   0.000000
   21        0.207093   0.000000
   22        0.329841   0.000000
   23        1.361408   0.000000
   24        1.924322   0.000000
 
  0.0000000E+00  0.5000000E+00  0.0000000E+00  0.6666667E-02
    1      -15.819352   1.000000
    2      -13.626245   1.000000
    3      -12.924175   1.000000
    4      -12.157987   1.000000
    5      -10.727572   1.000000
    6       -8.379932   1.000000
    7       -7.524225   1.000000
    8       -7.130573   1.000000
    9       -6.652936   1.000000
   10       -6.316517   1.000000
   11       -5.567108   1.000000
   12       -5.117714   1.000000
   13       -4.487565   1.000000
   14       -4.306695   1.000000
   15       -3.902004   1.000000
   16       -3.468734   1.000000
   17       -3.032849   1.000000
   18       -1.945817   1.000000
   19       -1.420990   0.000000
   20       -0.547879   0.000000
   21        0.231049   0.000000
   22        0.303619   0.000000
   23        1.372696   0.000000
   24        1.928334   0.000000
 
  0.0000000E+00  0.5000000E+00  0.0000000E+00  0.6666667E-02
    1      -15.819352   1.000000
    2      -13.626245   1.000000
    3      -12.924175   1.000000
    4      -12.157987   1.000000
    5      -10.727572   1.000000
    6       -8.379932   1.000000
    7       -7.524225   1.000000
    8       -7.130573   1.000000
    9       -6.652936   1.000000
   10       -6.316517   1.000000
   11       -5.567108   1.000000
   12       -5.117714   1.000000
   13       -4.487565   1.000000
   14       -4.306695   1.000000
   15       -3.902004   1.000000
   16       -3.468734   1.000000
   17       -3.032849   1.000000
   18       -1.945817   1.000000
   19       -1.420990   0.000000
   20       -0.547879   0.000000
   21        0.231049   0.000000
   22        0.303619   0.000000
   23        1.372765   0.000000
   24        1.928592   0.000000
 
  0.1724138E-01  0.5000000E+00  0.0000000E+00  0.6666667E-02
    1      -15.818131   1.000000
    2      -13.627930   1.000000
    3      -12.923295   1.000000
    4      -12.159251   1.000000
    5      -10.727163   1.000000
    6       -8.387766   1.000000
    7       -7.519631   1.000000
    8       -7.128262   1.000000
    9       -6.669384   1.000000
   10       -6.316528   1.000000
   11       -5.546407   1.000000
   12       -5.115620   1.000000
   13       -4.491013   1.000000
   14       -4.307897   1.000000
   15       -3.896655   1.000000
   16       -3.462907   1.000000
   17       -3.034643   1.000000
   18       -1.947514   1.000000
   19       -1.415981   0.000000
   20       -0.547233   0.000000
   21        0.225726   0.000000
   22        0.309365   0.000000
   23        1.369196   0.000000
   24        1.925445   0.000000
 
  0.3448276E-01  0.5000000E+00  0.0000000E+00  0.6666667E-02
    1      -15.814471   1.000000
    2      -13.633000   1.000000
    3      -12.920656   1.000000
    4      -12.162983   1.000000
    5      -10.725939   1.000000
    6       -8.410802   1.000000
    7       -7.506174   1.000000
    8       -7.121847   1.000000
    9       -6.714788   1.000000
   10       -6.316563   1.000000
   11       -5.488045   1.000000
   12       -5.109283   1.000000
   13       -4.500404   1.000000
   14       -4.311465   1.000000
   15       -3.881504   1.000000
   16       -3.445519   1.000000
   17       -3.039964   1.000000
   18       -1.952578   1.000000
   19       -1.400948   0.000000
   20       -0.545420   0.000000
   21        0.213237   0.000000
   22        0.323265   0.000000
   23        1.358549   0.000000
   24        1.912951   0.000000
 
  0.5172414E-01  0.5000000E+00  0.0000000E+00  0.6666667E-02
    1      -15.808373   1.000000
    2      -13.641495   1.000000
    3      -12.916268   1.000000
    4      -12.169007   1.000000
    5      -10.723905   1.000000
    6       -8.447768   1.000000
    7       -7.484955   1.000000
    8       -7.112774   1.000000
    9       -6.779926   1.000000
   10       -6.316608   1.000000
   11       -5.400548   1.000000
   12       -5.098561   1.000000
   13       -4.513316   1.000000
   14       -4.317270   1.000000
   15       -3.858731   1.000000
   16       -3.416926   1.000000
   17       -3.048628   1.000000
   18       -1.960928   1.000000
   19       -1.375884   0.000000
   20       -0.542815   0.000000
   21        0.198310   0.000000
   22        0.341001   0.000000
   23        1.341060   0.000000
   24        1.895304   0.000000
 
  0.6896552E-01  0.5000000E+00  0.0000000E+00  0.6666667E-02
    1      -15.799844   1.000000
    2      -13.653475   1.000000
    3      -12.910145   1.000000
    4      -12.177045   1.000000
    5      -10.721072   1.000000
    6       -8.496865   1.000000
    7       -7.458326   1.000000
    8       -7.103090   1.000000
    9       -6.854289   1.000000
   10       -6.316577   1.000000
   11       -5.292773   1.000000
   12       -5.083293   1.000000
   13       -4.526769   1.000000
   14       -4.325047   1.000000
   15       -3.830751   1.000000
   16       -3.377870   1.000000
   17       -3.060327   1.000000
   18       -1.972442   1.000000
   19       -1.340789   0.000000
   20       -0.539998   0.000000
   21        0.183567   0.000000
   22        0.360602   0.000000
   23        1.316802   0.000000
   24        1.872419   0.000000
 
  0.8620690E-01  0.5000000E+00  0.0000000E+00  0.6666667E-02
    1      -15.788889   1.000000
    2      -13.669012   1.000000
    3      -12.902313   1.000000
    4      -12.186738   1.000000
    5      -10.717454   1.000000
    6       -8.556092   1.000000
    7       -7.431078   1.000000
    8       -7.095096   1.000000
    9       -6.927012   1.000000
   10       -6.316245   1.000000
   11       -5.171927   1.000000
   12       -5.063426   1.000000
   13       -4.537956   1.000000
   14       -4.334293   1.000000
   15       -3.799407   1.000000
   16       -3.329558   1.000000
   17       -3.074622   1.000000
   18       -1.986976   1.000000
   19       -1.295693   0.000000
   20       -0.537699   0.000000
   21        0.170552   0.000000
   22        0.381348   0.000000
   23        1.285971   0.000000
   24        1.846350   0.000000
 
  0.1034483E+00  0.5000000E+00  0.0000000E+00  0.6666667E-02
    1      -15.775519   1.000000
    2      -13.688186   1.000000
    3      -12.892798   1.000000
    4      -12.197667   1.000000
    5      -10.713070   1.000000
    6       -8.623487   1.000000
    7       -7.412628   1.000000
    8       -7.091029   1.000000
    9       -6.984712   1.000000
   10       -6.315190   1.000000
   11       -5.043777   1.000000
   12       -5.039129   1.000000
   13       -4.544552   1.000000
   14       -4.344023   1.000000
   15       -3.765705   1.000000
   16       -3.273573   1.000000
   17       -3.090934   1.000000
   18       -2.004375   1.000000
   19       -1.240680   0.000000
   20       -0.536696   0.000000
   21        0.160421   0.000000
   22        0.402997   0.000000
   23        1.248908   0.000000
   24        1.818364   0.000000
 
  0.1206897E+00  0.5000000E+00  0.0000000E+00  0.6666667E-02
    1      -15.759744   1.000000
    2      -13.711064   1.000000
    3      -12.881637   1.000000
    4      -12.209389   1.000000
    5      -10.707943   1.000000
    6       -8.697275   1.000000
    7       -7.417361   1.000000
    8       -7.092827   1.000000
    9       -7.010580   1.000000
   10       -6.312811   1.000000
   11       -5.010920   1.000000
   12       -4.913840   1.000000
   13       -4.544747   1.000000
   14       -4.352176   1.000000
   15       -3.729957   1.000000
   16       -3.211680   1.000000
   17       -3.108515   1.000000
   18       -2.024496   1.000000
   19       -1.175919   0.000000
   20       -0.537704   0.000000
   21        0.154118   0.000000
   22        0.425480   0.000000
   23        1.205477   0.000000
   24        1.788781   0.000000
 
  0.1379310E+00  0.5000000E+00  0.0000000E+00  0.6666667E-02
    1      -15.741580   1.000000
    2      -13.737695   1.000000
    3      -12.868875   1.000000
    4      -12.221462   1.000000
    5      -10.702098   1.000000
    6       -8.775915   1.000000
    7       -7.453895   1.000000
    8       -7.101957   1.000000
    9       -6.994573   1.000000
   10       -6.308388   1.000000
   11       -4.979699   1.000000
   12       -4.789519   1.000000
   13       -4.537177   1.000000
   14       -4.354061   1.000000
   15       -3.692048   1.000000
   16       -3.145594   1.000000
   17       -3.126407   1.000000
   18       -2.047211   1.000000
   19       -1.101702   0.000000
   20       -0.541244   0.000000
   21        0.152365   0.000000
   22        0.448778   0.000000
   23        1.155882   0.000000
   24        1.760019   0.000000
 
  0.1551724E+00  0.5000000E+00  0.0000000E+00  0.6666667E-02
    1      -15.721042   1.000000
    2      -13.768093   1.000000
    3      -12.854561   1.000000
    4      -12.233474   1.000000
    5      -10.695564   1.000000
    6       -8.858104   1.000000
    7       -7.514780   1.000000
    8       -7.119305   1.000000
    9       -6.943362   1.000000
   10       -6.301228   1.000000
   11       -4.946673   1.000000
   12       -4.684035   1.000000
   13       -4.520889   1.000000
   14       -4.338881   1.000000
   15       -3.651676   1.000000
   16       -3.143356   1.000000
   17       -3.076839   1.000000
   18       -2.072409   1.000000
   19       -1.018468   0.000000
   20       -0.547530   0.000000
   21        0.155600   0.000000
   22        0.472853   0.000000
   23        1.099901   0.000000
   24        1.733408   0.000000
 
  0.1724138E+00  0.5000000E+00  0.0000000E+00  0.6666667E-02
    1      -15.698148   1.000000
    2      -13.802229   1.000000
    3      -12.838758   1.000000
    4      -12.245066   1.000000
    5      -10.688363   1.000000
    6       -8.942752   1.000000
    7       -7.587645   1.000000
    8       -7.145137   1.000000
    9       -6.868955   1.000000
   10       -6.290788   1.000000
   11       -4.913148   1.000000
   12       -4.617205   1.000000
   13       -4.495400   1.000000
   14       -4.289321   1.000000
   15       -3.608515   1.000000
   16       -3.157669   1.000000
   17       -3.006678   1.000000
   18       -2.099991   1.000000
   19       -0.926846   0.000000
   20       -0.556408   0.000000
   21        0.163942   0.000000
   22        0.497605   0.000000
   23        1.035761   0.000000
   24        1.704493   0.000000
 
  0.1896552E+00  0.5000000E+00  0.0000000E+00  0.6666667E-02
    1      -15.672920   1.000000
    2      -13.840025   1.000000
    3      -12.821535   1.000000
    4      -12.255953   1.000000
    5      -10.680514   1.000000
    6       -9.028950   1.000000
    7       -7.664360   1.000000
    8       -7.179145   1.000000
    9       -6.779405   1.000000
   10       -6.276760   1.000000
   11       -4.880228   1.000000
   12       -4.595023   1.000000
   13       -4.460823   1.000000
   14       -4.202363   1.000000
   15       -3.562309   1.000000
   16       -3.167003   1.000000
   17       -2.936115   1.000000
   18       -2.129863   1.000000
   19       -0.827692   0.000000
   20       -0.567359   0.000000
   21        0.177202   0.000000
   22        0.522840   0.000000
   23        0.962935   0.000000
   24        1.673850   0.000000
 
  0.2068966E+00  0.5000000E+00  0.0000000E+00  0.6666667E-02
    1      -15.645382   1.000000
    2      -13.881354   1.000000
    3      -12.802969   1.000000
    4      -12.265936   1.000000
    5      -10.672028   1.000000
    6       -9.115936   1.000000
    7       -7.740566   1.000000
    8       -7.220575   1.000000
    9       -6.679211   1.000000
   10       -6.259077   1.000000
   11       -4.848579   1.000000
   12       -4.601276   1.000000
   13       -4.417945   1.000000
   14       -4.098036   1.000000
   15       -3.512934   1.000000
   16       -3.168076   1.000000
   17       -2.865941   1.000000
   18       -2.161912   1.000000
   19       -0.722137   0.000000
   20       -0.579561   0.000000
   21        0.194946   0.000000
   22        0.548219   0.000000
   23        0.879000   0.000000
   24        1.528049   0.000000
 
  0.2241379E+00  0.5000000E+00  0.0000000E+00  0.6666667E-02
    1      -15.615561   1.000000
    2      -13.926036   1.000000
    3      -12.783151   1.000000
    4      -12.274902   1.000000
    5      -10.662899   1.000000
    6       -9.203068   1.000000
    7       -7.813859   1.000000
    8       -7.268388   1.000000
    9       -6.571084   1.000000
   10       -6.237851   1.000000
   11       -4.818373   1.000000
   12       -4.621645   1.000000
   13       -4.368140   1.000000
   14       -3.995567   1.000000
   15       -3.460447   1.000000
   16       -3.156513   1.000000
   17       -2.796796   1.000000
   18       -2.195985   1.000000
   19       -0.611676   0.000000
   20       -0.591975   0.000000
   21        0.216580   0.000000
   22        0.573227   0.000000
   23        0.782675   0.000000
   24        1.358495   0.000000
 
  0.2413793E+00  0.5000000E+00  0.0000000E+00  0.6666667E-02
    1      -15.583488   1.000000
    2      -13.973845   1.000000
    3      -12.762181   1.000000
    4      -12.282833   1.000000
    5      -10.653103   1.000000
    6       -9.289797   1.000000
    7       -7.882799   1.000000
    8       -7.321419   1.000000
    9       -6.456953   1.000000
   10       -6.213304   1.000000
   11       -4.789427   1.000000
   12       -4.649275   1.000000
   13       -4.313126   1.000000
   14       -3.907337   1.000000
   15       -3.405130   1.000000
   16       -3.127364   1.000000
   17       -2.729239   1.000000
   18       -2.231845   1.000000
   19       -0.603412   0.000000
   20       -0.498319   0.000000
   21        0.241423   0.000000
   22        0.597179   0.000000
   23        0.674015   0.000000
   24        1.245623   0.000000
 
  0.2586207E+00  0.5000000E+00  0.0000000E+00  0.6666667E-02
    1      -15.549194   1.000000
    2      -14.024517   1.000000
    3      -12.740169   1.000000
    4      -12.289792   1.000000
    5      -10.642588   1.000000
    6       -9.375653   1.000000
    7       -7.946450   1.000000
    8       -7.378488   1.000000
    9       -6.338443   1.000000
   10       -6.185706   1.000000
   11       -4.761397   1.000000
   12       -4.680854   1.000000
   13       -4.254686   1.000000
   14       -3.840877   1.000000
   15       -3.347535   1.000000
   16       -3.077108   1.000000
   17       -2.663824   1.000000
   18       -2.269104   1.000000
   19       -0.612597   0.000000
   20       -0.384905   0.000000
   21        0.268735   0.000000
   22        0.557195   0.000000
   23        0.619202   0.000000
   24        1.149106   0.000000
 
  0.2758621E+00  0.5000000E+00  0.0000000E+00  0.6666667E-02
    1      -15.512719   1.000000
    2      -14.077760   1.000000
    3      -12.717242   1.000000
    4      -12.295918   1.000000
    5      -10.631272   1.000000
    6       -9.460224   1.000000
    7       -8.004161   1.000000
    8       -7.438474   1.000000
    9       -6.217154   1.000000
   10       -6.155337   1.000000
   11       -4.733946   1.000000
   12       -4.714356   1.000000
   13       -4.194468   1.000000
   14       -3.798393   1.000000
   15       -3.288521   1.000000
   16       -3.006484   1.000000
   17       -2.601168   1.000000
   18       -2.307097   1.000000
   19       -0.618190   0.000000
   20       -0.275846   0.000000
   21        0.297716   0.000000
   22        0.439553   0.000000
   23        0.638403   0.000000
   24        1.080016   0.000000
 
  0.2931034E+00  0.5000000E+00  0.0000000E+00  0.6666667E-02
    1      -15.474101   1.000000
    2      -14.133262   1.000000
    3      -12.693535   1.000000
    4      -12.301410   1.000000
    5      -10.619037   1.000000
    6       -9.543146   1.000000
    7       -8.055467   1.000000
    8       -7.500351   1.000000
    9       -6.122457   1.000000
   10       -6.094867   1.000000
   11       -4.748096   1.000000
   12       -4.706825   1.000000
   13       -4.133887   1.000000
   14       -3.776978   1.000000
   15       -3.229281   1.000000
   16       -2.921422   1.000000
   17       -2.541994   1.000000
   18       -2.344593   1.000000
   19       -0.618799   0.000000
   20       -0.179072   0.000000
   21        0.327428   0.000000
   22        0.332187   0.000000
   23        0.653902   0.000000
   24        1.011889   0.000000
 
  0.3103448E+00  0.5000000E+00  0.0000000E+00  0.6666667E-02
    1      -15.433388   1.000000
    2      -14.190698   1.000000
    3      -12.669197   1.000000
    4      -12.306517   1.000000
    5      -10.605730   1.000000
    6       -9.624092   1.000000
    7       -8.100036   1.000000
    8       -7.563199   1.000000
    9       -6.087306   1.000000
   10       -5.973772   1.000000
   11       -4.780259   1.000000
   12       -4.679906   1.000000
   13       -4.074131   1.000000
   14       -3.771248   1.000000
   15       -3.171353   1.000000
   16       -2.831426   1.000000
   17       -2.487131   1.000000
   18       -2.379092   1.000000
   19       -0.612988   0.000000
   20       -0.110861   0.000000
   21        0.253549   0.000000
   22        0.356681   0.000000
   23        0.665749   0.000000
   24        0.964861   0.000000
 
  0.3275862E+00  0.5000000E+00  0.0000000E+00  0.6666667E-02
    1      -15.390629   1.000000
    2      -14.249746   1.000000
    3      -12.644393   1.000000
    4      -12.311518   1.000000
    5      -10.591158   1.000000
    6       -9.702772   1.000000
    7       -8.137643   1.000000
    8       -7.626201   1.000000
    9       -6.050110   1.000000
   10       -5.856766   1.000000
   11       -4.808534   1.000000
   12       -4.653182   1.000000
   13       -4.016216   1.000000
   14       -3.775960   1.000000
   15       -3.116604   1.000000
   16       -2.748823   1.000000
   17       -2.437443   1.000000
   18       -2.405049   1.000000
   19       -0.599325   0.000000
   20       -0.095553   0.000000
   21        0.228706   0.000000
   22        0.383833   0.000000
   23        0.674801   0.000000
   24        0.925865   0.000000
 
  0.3448276E+00  0.5000000E+00  0.0000000E+00  0.6666667E-02
    1      -15.345880   1.000000
    2      -14.310087   1.000000
    3      -12.619298   1.000000
    4      -12.316715   1.000000
    5      -10.575091   1.000000
    6       -9.778919   1.000000
    7       -8.168151   1.000000
    8       -7.688634   1.000000
    9       -6.011076   1.000000
   10       -5.747814   1.000000
   11       -4.829738   1.000000
   12       -4.626766   1.000000
   13       -3.961080   1.000000
   14       -3.787008   1.000000
   15       -3.067161   1.000000
   16       -2.690532   1.000000
   17       -2.411053   1.000000
   18       -2.393644   1.000000
   19       -0.576463   0.000000
   20       -0.127634   0.000000
   21        0.251924   0.000000
   22        0.406676   0.000000
   23        0.683566   0.000000
   24        0.897849   0.000000
 
  0.3620690E+00  0.5000000E+00  0.0000000E+00  0.6666667E-02
    1      -15.299199   1.000000
    2      -14.371413   1.000000
    3      -12.594099   1.000000
    4      -12.322411   1.000000
    5      -10.557267   1.000000
    6       -9.852295   1.000000
    7       -8.191505   1.000000
    8       -7.749851   1.000000
    9       -5.970408   1.000000
   10       -5.652260   1.000000
   11       -4.839563   1.000000
   12       -4.600895   1.000000
   13       -3.909702   1.000000
   14       -3.801338   1.000000
   15       -3.025262   1.000000
   16       -2.671922   1.000000
   17       -2.385867   1.000000
   18       -2.356006   1.000000
   19       -0.543314   0.000000
   20       -0.170621   0.000000
   21        0.286670   0.000000
   22        0.422643   0.000000
   23        0.695693   0.000000
   24        0.879586   0.000000
 
  0.3793103E+00  0.5000000E+00  0.0000000E+00  0.6666667E-02
    1      -15.250654   1.000000
    2      -14.433429   1.000000
    3      -12.568996   1.000000
    4      -12.328897   1.000000
    5      -10.537405   1.000000
    6       -9.922675   1.000000
    7       -8.207721   1.000000
    8       -7.809270   1.000000
    9       -5.928315   1.000000
   10       -5.576470   1.000000
   11       -4.833000   1.000000
   12       -4.575944   1.000000
   13       -3.863236   1.000000
   14       -3.816570   1.000000
   15       -2.992922   1.000000
   16       -2.687124   1.000000
   17       -2.338228   1.000000
   18       -2.324095   1.000000
   19       -0.499282   0.000000
   20       -0.202234   0.000000
   21        0.312097   0.000000
   22        0.429750   0.000000
   23        0.714408   0.000000
   24        0.865440   0.000000
 
  0.3965517E+00  0.5000000E+00  0.0000000E+00  0.6666667E-02
    1      -15.200321   1.000000
    2      -14.495859   1.000000
    3      -12.544199   1.000000
    4      -12.336443   1.000000
    5      -10.515210   1.000000
    6       -9.989865   1.000000
    7       -8.216883   1.000000
    8       -7.866364   1.000000
    9       -5.885026   1.000000
   10       -5.525882   1.000000
   11       -4.806410   1.000000
   12       -4.552457   1.000000
   13       -3.830647   1.000000
   14       -3.823128   1.000000
   15       -2.971364   1.000000
   16       -2.719370   1.000000
   17       -2.296716   1.000000
   18       -2.286553   1.000000
   19       -0.444547   0.000000
   20       -0.214203   0.000000
   21        0.323077   0.000000
   22        0.427731   0.000000
   23        0.741022   0.000000
   24        0.850915   0.000000
 
  0.4137931E+00  0.5000000E+00  0.0000000E+00  0.6666667E-02
    1      -15.148277   1.000000
    2      -14.558441   1.000000
    3      -12.519919   1.000000
    4      -12.345281   1.000000
    5      -10.490384   1.000000
    6      -10.053687   1.000000
    7       -8.219130   1.000000
    8       -7.920648   1.000000
    9       -5.840790   1.000000
   10       -5.501881   1.000000
   11       -4.760731   1.000000
   12       -4.531204   1.000000
   13       -3.841576   1.000000
   14       -3.791182   1.000000
   15       -2.960243   1.000000
   16       -2.758442   1.000000
   17       -2.272278   1.000000
   18       -2.241461   1.000000
   19       -0.380316   0.000000
   20       -0.204754   0.000000
   21        0.320952   0.000000
   22        0.417691   0.000000
   23        0.774389   0.000000
   24        0.828654   0.000000
 
  0.4310345E+00  0.5000000E+00  0.0000000E+00  0.6666667E-02
    1      -15.094614   1.000000
    2      -14.620935   1.000000
    3      -12.496373   1.000000
    4      -12.355599   1.000000
    5      -10.462648   1.000000
    6      -10.113992   1.000000
    7       -8.214658   1.000000
    8       -7.971668   1.000000
    9       -5.795903   1.000000
   10       -5.500884   1.000000
   11       -4.702475   1.000000
   12       -4.513256   1.000000
   13       -3.847340   1.000000
   14       -3.769445   1.000000
   15       -2.957066   1.000000
   16       -2.799411   1.000000
   17       -2.249455   1.000000
   18       -2.207081   1.000000
   19       -0.309008   0.000000
   20       -0.176046   0.000000
   21        0.309004   0.000000
   22        0.401122   0.000000
   23        0.803324   0.000000
   24        0.810832   0.000000
 
  0.4482759E+00  0.5000000E+00  0.0000000E+00  0.6666667E-02
    1      -15.039427   1.000000
    2      -14.683118   1.000000
    3      -12.473771   1.000000
    4      -12.367533   1.000000
    5      -10.431744   1.000000
    6      -10.170652   1.000000
    7       -8.203704   1.000000
    8       -8.018996   1.000000
    9       -5.750735   1.000000
   10       -5.516910   1.000000
   11       -4.640998   1.000000
   12       -4.500093   1.000000
   13       -3.846041   1.000000
   14       -3.759738   1.000000
   15       -2.957362   1.000000
   16       -2.839404   1.000000
   17       -2.227758   1.000000
   18       -2.184399   1.000000
   19       -0.234435   0.000000
   20       -0.133861   0.000000
   21        0.290913   0.000000
   22        0.378060   0.000000
   23        0.773403   0.000000
   24        0.839421   0.000000
 
  0.4655172E+00  0.5000000E+00  0.0000000E+00  0.6666667E-02
    1      -14.982825   1.000000
    2      -14.744788   1.000000
    3      -12.452316   1.000000
    4      -12.381162   1.000000
    5      -10.397452   1.000000
    6      -10.223577   1.000000
    7       -8.186542   1.000000
    8       -8.062225   1.000000
    9       -5.705748   1.000000
   10       -5.544430   1.000000
   11       -4.585115   1.000000
   12       -4.493714   1.000000
   13       -3.836506   1.000000
   14       -3.762715   1.000000
   15       -2.955862   1.000000
   16       -2.876205   1.000000
   17       -2.207668   1.000000
   18       -2.172872   1.000000
   19       -0.162130   0.000000
   20       -0.088728   0.000000
   21        0.272641   0.000000
   22        0.348087   0.000000
   23        0.749718   0.000000
   24        0.828642   0.000000
 
  0.4827586E+00  0.5000000E+00  0.0000000E+00  0.6666667E-02
    1      -14.924923   1.000000
    2      -14.805757   1.000000
    3      -12.432188   1.000000
    4      -12.396510   1.000000
    5      -10.359593   1.000000
    6      -10.272711   1.000000
    7       -8.163475   1.000000
    8       -8.100963   1.000000
    9       -5.661561   1.000000
   10       -5.579382   1.000000
   11       -4.541070   1.000000
   12       -4.496647   1.000000
   13       -3.819300   1.000000
   14       -3.776756   1.000000
   15       -2.948220   1.000000
   16       -2.907770   1.000000
   17       -2.190411   1.000000
   18       -2.171182   1.000000
   19       -0.100303   0.000000
   20       -0.058190   0.000000
   21        0.264896   0.000000
   22        0.312521   0.000000
   23        0.748302   0.000000
   24        0.790833   0.000000
 
  0.5000000E+00  0.5000000E+00  0.0000000E+00  0.6666667E-02
    1      -14.865868   1.000000
    2      -14.865836   1.000000
    3      -12.413552   1.000000
    4      -12.413537   1.000000
    5      -10.318056   1.000000
    6      -10.318022   1.000000
    7       -8.134838   1.000000
    8       -8.134829   1.000000
    9       -5.619042   1.000000
   10       -5.619019   1.000000
   11       -4.511693   1.000000
   12       -4.511680   1.000000
   13       -3.797590   1.000000
   14       -3.797570   1.000000
   15       -2.932220   1.000000
   16       -2.932203   1.000000
   17       -2.177641   1.000000
   18       -2.177639   1.000000
   19       -0.061315   0.000000
   20       -0.061306   0.000000
   21        0.279351   0.000000
   22        0.279487   0.000000
   23        0.747266   0.000000
   24        0.749391   0.000000
 
  0.5000000E+00  0.5000000E+00  0.0000000E+00  0.6666667E-02
    1      -14.865868   1.000000
    2      -14.865836   1.000000
    3      -12.413552   1.000000
    4      -12.413537   1.000000
    5      -10.318056   1.000000
    6      -10.318022   1.000000
    7       -8.134838   1.000000
    8       -8.134829   1.000000
    9       -5.619042   1.000000
   10       -5.619019   1.000000
   11       -4.511693   1.000000
   12       -4.511680   1.000000
   13       -3.797590   1.000000
   14       -3.797570   1.000000
   15       -2.932220   1.000000
   16       -2.932203   1.000000
   17       -2.177641   1.000000
   18       -2.177639   1.000000
   19       -0.061314   0.000000
   20       -0.061304   0.000000
   21        0.279391   0.000000
   22        0.279586   0.000000
   23        0.747470   0.000000
   24        0.758205   0.000000
 
  0.5000000E+00  0.4827586E+00  0.0000000E+00  0.6666667E-02
    1      -14.868538   1.000000
    2      -14.864252   1.000000
    3      -12.421645   1.000000
    4      -12.403538   1.000000
    5      -10.326461   1.000000
    6      -10.309225   1.000000
    7       -8.132582   1.000000
    8       -8.131549   1.000000
    9       -5.625283   1.000000
   10       -5.616181   1.000000
   11       -4.530839   1.000000
   12       -4.500087   1.000000
   13       -3.814435   1.000000
   14       -3.781405   1.000000
   15       -2.940904   1.000000
   16       -2.935019   1.000000
   17       -2.189074   1.000000
   18       -2.164966   1.000000
   19       -0.076382   0.000000
   20       -0.038137   0.000000
   21        0.230911   0.000000
   22        0.328995   0.000000
   23        0.744580   0.000000
   24        0.761103   0.000000
 
  0.5000000E+00  0.4655172E+00  0.0000000E+00  0.6666667E-02
    1      -14.872262   1.000000
    2      -14.863760   1.000000
    3      -12.427752   1.000000
    4      -12.391748   1.000000
    5      -10.334368   1.000000
    6      -10.300109   1.000000
    7       -8.124867   1.000000
    8       -8.122695   1.000000
    9       -5.634900   1.000000
   10       -5.616766   1.000000
   11       -4.557428   1.000000
   12       -4.496056   1.000000
   13       -3.832542   1.000000
   14       -3.765574   1.000000
   15       -2.958768   1.000000
   16       -2.949849   1.000000
   17       -2.199037   1.000000
   18       -2.153025   1.000000
   19       -0.080659   0.000000
   20       -0.012340   0.000000
   21        0.191117   0.000000
   22        0.374052   0.000000
   23        0.744047   0.000000
   24        0.769546   0.000000
 
  0.5000000E+00  0.4482759E+00  0.0000000E+00  0.6666667E-02
    1      -14.876962   1.000000
    2      -14.864386   1.000000
    3      -12.431813   1.000000
    4      -12.378331   1.000000
    5      -10.341608   1.000000
    6      -10.290749   1.000000
    7       -8.111802   1.000000
    8       -8.108278   1.000000
    9       -5.647843   1.000000
   10       -5.620825   1.000000
   11       -4.591242   1.000000
   12       -4.499525   1.000000
   13       -3.852640   1.000000
   14       -3.750015   1.000000
   15       -2.982406   1.000000
   16       -2.975310   1.000000
   17       -2.209141   1.000000
   18       -2.144740   1.000000
   19       -0.072910   0.000000
   20        0.004535   0.000000
   21        0.173444   0.000000
   22        0.409004   0.000000
   23        0.750538   0.000000
   24        0.778693   0.000000
 
  0.5000000E+00  0.4310345E+00  0.0000000E+00  0.6666667E-02
    1      -14.882564   1.000000
    2      -14.866125   1.000000
    3      -12.433816   1.000000
    4      -12.363481   1.000000
    5      -10.348007   1.000000
    6      -10.281173   1.000000
    7       -8.093530   1.000000
    8       -8.088346   1.000000
    9       -5.664069   1.000000
   10       -5.628399   1.000000
   11       -4.631958   1.000000
   12       -4.510325   1.000000
   13       -3.875517   1.000000
   14       -3.734923   1.000000
   15       -3.008644   1.000000
   16       -3.008209   1.000000
   17       -2.222158   1.000000
   18       -2.143005   1.000000
   19       -0.053256   0.000000
   20        0.000604   0.000000
   21        0.190521   0.000000
   22        0.433604   0.000000
   23        0.770091   0.000000
   24        0.797138   0.000000
 
  0.5000000E+00  0.4137931E+00  0.0000000E+00  0.6666667E-02
    1      -14.888982   1.000000
    2      -14.868946   1.000000
    3      -12.433778   1.000000
    4      -12.347416   1.000000
    5      -10.353366   1.000000
    6      -10.271383   1.000000
    7       -8.070230   1.000000
    8       -8.062987   1.000000
    9       -5.683536   1.000000
   10       -5.639552   1.000000
   11       -4.679112   1.000000
   12       -4.528188   1.000000
   13       -3.901861   1.000000
   14       -3.720753   1.000000
   15       -3.046567   1.000000
   16       -3.033018   1.000000
   17       -2.240989   1.000000
   18       -2.149971   1.000000
   19       -0.023608   0.000000
   20       -0.017452   0.000000
   21        0.235388   0.000000
   22        0.448779   0.000000
   23        0.790397   0.000000
   24        0.807984   0.000000
 
  0.5000000E+00  0.3965517E+00  0.0000000E+00  0.6666667E-02
    1      -14.896119   1.000000
    2      -14.872802   1.000000
    3      -12.431751   1.000000
    4      -12.330381   1.000000
    5      -10.357479   1.000000
    6      -10.261353   1.000000
    7       -8.042109   1.000000
    8       -8.032325   1.000000
    9       -5.706198   1.000000
   10       -5.654370   1.000000
   11       -4.732086   1.000000
   12       -4.552720   1.000000
   13       -3.932105   1.000000
   14       -3.708204   1.000000
   15       -3.085927   1.000000
   16       -3.054508   1.000000
   17       -2.267825   1.000000
   18       -2.166699   1.000000
   19       -0.037382   0.000000
   20        0.011722   0.000000
   21        0.294648   0.000000
   22        0.462506   0.000000
   23        0.804973   0.000000
   24        0.838384   0.000000
 
  0.5000000E+00  0.3793103E+00  0.0000000E+00  0.6666667E-02
    1      -14.903871   1.000000
    2      -14.877635   1.000000
    3      -12.427820   1.000000
    4      -12.312642   1.000000
    5      -10.360133   1.000000
    6      -10.251043   1.000000
    7       -8.009400   1.000000
    8       -7.996521   1.000000
    9       -5.732010   1.000000
   10       -5.672986   1.000000
   11       -4.790079   1.000000
   12       -4.583383   1.000000
   13       -3.966359   1.000000
   14       -3.698202   1.000000
   15       -3.124057   1.000000
   16       -3.071332   1.000000
   17       -2.303690   1.000000
   18       -2.193142   1.000000
   19       -0.054138   0.000000
   20        0.045994   0.000000
   21        0.358629   0.000000
   22        0.482350   0.000000
   23        0.814819   0.000000
   24        0.868107   0.000000
 
  0.5000000E+00  0.3620690E+00  0.0000000E+00  0.6666667E-02
    1      -14.912129   1.000000
    2      -14.883366   1.000000
    3      -12.422089   1.000000
    4      -12.294478   1.000000
    5      -10.361116   1.000000
    6      -10.240400   1.000000
    7       -7.972358   1.000000
    8       -7.955765   1.000000
    9       -5.760925   1.000000
   10       -5.695586   1.000000
   11       -4.852093   1.000000
   12       -4.619469   1.000000
   13       -4.004426   1.000000
   14       -3.691844   1.000000
   15       -3.158931   1.000000
   16       -3.083096   1.000000
   17       -2.348349   1.000000
   18       -2.228325   1.000000
   19       -0.066531   0.000000
   20        0.071625   0.000000
   21        0.422065   0.000000
   22        0.515965   0.000000
   23        0.804366   0.000000
   24        0.889638   0.000000
 
  0.5000000E+00  0.3448276E+00  0.0000000E+00  0.6666667E-02
    1      -14.920780   1.000000
    2      -14.889911   1.000000
    3      -12.414693   1.000000
    4      -12.276181   1.000000
    5      -10.360233   1.000000
    6      -10.229371   1.000000
    7       -7.931260   1.000000
    8       -7.910281   1.000000
    9       -5.792878   1.000000
   10       -5.722413   1.000000
   11       -4.916941   1.000000
   12       -4.660096   1.000000
   13       -4.045924   1.000000
   14       -3.690284   1.000000
   15       -3.189270   1.000000
   16       -3.090197   1.000000
   17       -2.400426   1.000000
   18       -2.270597   1.000000
   19       -0.075112   0.000000
   20        0.084083   0.000000
   21        0.478388   0.000000
   22        0.559827   0.000000
   23        0.805767   0.000000
   24        0.952622   0.000000
 
  0.5000000E+00  0.3275862E+00  0.0000000E+00  0.6666667E-02
    1      -14.929709   1.000000
    2      -14.897168   1.000000
    3      -12.405778   1.000000
    4      -12.258037   1.000000
    5      -10.357306   1.000000
    6      -10.217905   1.000000
    7       -7.886405   1.000000
    8       -7.860314   1.000000
    9       -5.827787   1.000000
   10       -5.753771   1.000000
   11       -4.983275   1.000000
   12       -4.704223   1.000000
   13       -4.090433   1.000000
   14       -3.694576   1.000000
   15       -3.214649   1.000000
   16       -3.093623   1.000000
   17       -2.457635   1.000000
   18       -2.317872   1.000000
   19       -0.080989   0.000000
   20        0.084019   0.000000
   21        0.521875   0.000000
   22        0.595939   0.000000
   23        0.833120   0.000000
   24        0.994214   0.000000
 
  0.5000000E+00  0.3103448E+00  0.0000000E+00  0.6666667E-02
    1      -14.938804   1.000000
    2      -14.905033   1.000000
    3      -12.395508   1.000000
    4      -12.240330   1.000000
    5      -10.352194   1.000000
    6      -10.205961   1.000000
    7       -7.838113   1.000000
    8       -7.806137   1.000000
    9       -5.865528   1.000000
   10       -5.789994   1.000000
   11       -5.049639   1.000000
   12       -4.750716   1.000000
   13       -4.137609   1.000000
   14       -3.705510   1.000000
   15       -3.235609   1.000000
   16       -3.094765   1.000000
   17       -2.516992   1.000000
   18       -2.367807   1.000000
   19       -0.085289   0.000000
   20        0.074843   0.000000
   21        0.549927   0.000000
   22        0.605154   0.000000
   23        0.896656   0.000000
   24        1.018655   0.000000
 
  0.5000000E+00  0.2931034E+00  0.0000000E+00  0.6666667E-02
    1      -14.947954   1.000000
    2      -14.913393   1.000000
    3      -12.384055   1.000000
    4      -12.223333   1.000000
    5      -10.344793   1.000000
    6      -10.193520   1.000000
    7       -7.786726   1.000000
    8       -7.748046   1.000000
    9       -5.905921   1.000000
   10       -5.831394   1.000000
   11       -5.114563   1.000000
   12       -4.798407   1.000000
   13       -4.187220   1.000000
   14       -3.723560   1.000000
   15       -3.253602   1.000000
   16       -3.095272   1.000000
   17       -2.575048   1.000000
   18       -2.417921   1.000000
   19       -0.088978   0.000000
   20        0.060270   0.000000
   21        0.563818   0.000000
   22        0.593374   0.000000
   23        0.997460   0.000000
   24        1.034612   0.000000
 
  0.5000000E+00  0.2758621E+00  0.0000000E+00  0.6666667E-02
    1      -14.957053   1.000000
    2      -14.922135   1.000000
    3      -12.371597   1.000000
    4      -12.207293   1.000000
    5      -10.335053   1.000000
    6      -10.180589   1.000000
    7       -7.732612   1.000000
    8       -7.686363   1.000000
    9       -5.948705   1.000000
   10       -5.878175   1.000000
   11       -5.176674   1.000000
   12       -4.846182   1.000000
   13       -4.239139   1.000000
   14       -3.748975   1.000000
   15       -3.270689   1.000000
   16       -3.096934   1.000000
   17       -2.628162   1.000000
   18       -2.465699   1.000000
   19       -0.092708   0.000000
   20        0.042957   0.000000
   21        0.566346   0.000000
   22        0.572099   0.000000
   23        1.046880   0.000000
   24        1.124573   0.000000
 
  0.5000000E+00  0.2586207E+00  0.0000000E+00  0.6666667E-02
    1      -14.965996   1.000000
    2      -14.931142   1.000000
    3      -12.358314   1.000000
    4      -12.192432   1.000000
    5      -10.322978   1.000000
    6      -10.167205   1.000000
    7       -7.676168   1.000000
    8       -7.621436   1.000000
    9       -5.993523   1.000000
   10       -5.930324   1.000000
   11       -5.234820   1.000000
   12       -4.893066   1.000000
   13       -4.293274   1.000000
   14       -3.781944   1.000000
   15       -3.288924   1.000000
   16       -3.101527   1.000000
   17       -2.672953   1.000000
   18       -2.508736   1.000000
   19       -0.096876   0.000000
   20        0.024582   0.000000
   21        0.547364   0.000000
   22        0.560680   0.000000
   23        1.072137   0.000000
   24        1.159120   0.000000
 
  0.5000000E+00  0.2413793E+00  0.0000000E+00  0.6666667E-02
    1      -14.974687   1.000000
    2      -14.940299   1.000000
    3      -12.344383   1.000000
    4      -12.178942   1.000000
    5      -10.308640   1.000000
    6      -10.153444   1.000000
    7       -7.617824   1.000000
    8       -7.553646   1.000000
    9       -6.039916   1.000000
   10       -5.987529   1.000000
   11       -5.288180   1.000000
   12       -4.938281   1.000000
   13       -4.349493   1.000000
   14       -3.822704   1.000000
   15       -3.309610   1.000000
   16       -3.110584   1.000000
   17       -2.706945   1.000000
   18       -2.544989   1.000000
   19       -0.101637   0.000000
   20        0.006202   0.000000
   21        0.521840   0.000000
   22        0.549768   0.000000
   23        1.106948   0.000000
   24        1.212439   0.000000
 
  0.5000000E+00  0.2241379E+00  0.0000000E+00  0.6666667E-02
    1      -14.983034   1.000000
    2      -14.949494   1.000000
    3      -12.329975   1.000000
    4      -12.166974   1.000000
    5      -10.292176   1.000000
    6      -10.139418   1.000000
    7       -7.558044   1.000000
    8       -7.483417   1.000000
    9       -6.087316   1.000000
   10       -6.049131   1.000000
   11       -5.336301   1.000000
   12       -4.981293   1.000000
   13       -4.407525   1.000000
   14       -3.871452   1.000000
   15       -3.332768   1.000000
   16       -3.125058   1.000000
   17       -2.729136   1.000000
   18       -2.573112   1.000000
   19       -0.106967   0.000000
   20       -0.011578   0.000000
   21        0.496855   0.000000
   22        0.535404   0.000000
   23        1.134699   0.000000
   24        1.253455   0.000000
 
  0.5000000E+00  0.2068966E+00  0.0000000E+00  0.6666667E-02
    1      -14.990953   1.000000
    2      -14.958618   1.000000
    3      -12.315257   1.000000
    4      -12.156644   1.000000
    5      -10.273797   1.000000
    6      -10.125287   1.000000
    7       -7.497336   1.000000
    8       -7.411220   1.000000
    9       -6.135067   1.000000
   10       -6.114166   1.000000
   11       -5.379066   1.000000
   12       -5.021851   1.000000
   13       -4.466884   1.000000
   14       -3.928130   1.000000
   15       -3.357200   1.000000
   16       -3.145048   1.000000
   17       -2.740125   1.000000
   18       -2.592749   1.000000
   19       -0.112731   0.000000
   20       -0.028402   0.000000
   21        0.473158   0.000000
   22        0.519226   0.000000
   23        1.169761   0.000000
   24        1.253830   0.000000
 
  0.5000000E+00  0.1896552E+00  0.0000000E+00  0.6666667E-02
    1      -14.998366   1.000000
    2      -14.967567   1.000000
    3      -12.300382   1.000000
    4      -12.148029   1.000000
    5      -10.253780   1.000000
    6      -10.111251   1.000000
    7       -7.436245   1.000000
    8       -7.337595   1.000000
    9       -6.182441   1.000000
   10       -6.181455   1.000000
   11       -5.416587   1.000000
   12       -5.060005   1.000000
   13       -4.526777   1.000000
   14       -3.992199   1.000000
   15       -3.381142   1.000000
   16       -3.169774   1.000000
   17       -2.741647   1.000000
   18       -2.604567   1.000000
   19       -0.118725   0.000000
   20       -0.044101   0.000000
   21        0.451219   0.000000
   22        0.502174   0.000000
   23        1.206258   0.000000
   24        1.281981   0.000000
 
  0.5000000E+00  0.1724138E+00  0.0000000E+00  0.6666667E-02
    1      -15.005200   1.000000
    2      -14.976242   1.000000
    3      -12.285495   1.000000
    4      -12.141169   1.000000
    5      -10.232470   1.000000
    6      -10.097551   1.000000
    7       -7.375358   1.000000
    8       -7.263169   1.000000
    9       -6.249712   1.000000
   10       -6.228688   1.000000
   11       -5.449085   1.000000
   12       -5.096145   1.000000
   13       -4.586017   1.000000
   14       -4.062554   1.000000
   15       -3.402991   1.000000
   16       -3.197867   1.000000
   17       -2.735892   1.000000
   18       -2.609965   1.000000
   19       -0.124717   0.000000
   20       -0.058614   0.000000
   21        0.431351   0.000000
   22        0.484947   0.000000
   23        1.242992   0.000000
   24        1.307646   0.000000
 
  0.5000000E+00  0.1551724E+00  0.0000000E+00  0.6666667E-02
    1      -15.011393   1.000000
    2      -14.984554   1.000000
    3      -12.270732   1.000000
    4      -12.136072   1.000000
    5      -10.210268   1.000000
    6      -10.084472   1.000000
    7       -7.315291   1.000000
    8       -7.188698   1.000000
    9       -6.317625   1.000000
   10       -6.273084   1.000000
   11       -5.476778   1.000000
   12       -5.131015   1.000000
   13       -4.642967   1.000000
   14       -4.137635   1.000000
   15       -3.421699   1.000000
   16       -3.227782   1.000000
   17       -2.724985   1.000000
   18       -2.610642   1.000000
   19       -0.130474   0.000000
   20       -0.071943   0.000000
   21        0.413766   0.000000
   22        0.468025   0.000000
   23        1.279256   0.000000
   24        1.333728   0.000000
 
  0.5000000E+00  0.1379310E+00  0.0000000E+00  0.6666667E-02
    1      -15.016889   1.000000
    2      -14.992415   1.000000
    3      -12.256214   1.000000
    4      -12.132719   1.000000
    5      -10.187624   1.000000
    6      -10.072327   1.000000
    7       -7.256669   1.000000
    8       -7.115112   1.000000
    9       -6.383888   1.000000
   10       -6.314992   1.000000
   11       -5.499784   1.000000
   12       -5.165690   1.000000
   13       -4.695518   1.000000
   14       -4.215621   1.000000
   15       -3.436776   1.000000
   16       -3.258119   1.000000
   17       -2.710746   1.000000
   18       -2.608252   1.000000
   19       -0.135769   0.000000
   20       -0.084131   0.000000
   21        0.398607   0.000000
   22        0.451749   0.000000
   23        1.313474   0.000000
   24        1.356469   0.000000
 
  0.5000000E+00  0.1206897E+00  0.0000000E+00  0.6666667E-02
    1      -15.021638   1.000000
    2      -14.999749   1.000000
    3      -12.242053   1.000000
    4      -12.131066   1.000000
    5      -10.165023   1.000000
    6      -10.061455   1.000000
    7       -7.200090   1.000000
    8       -7.043616   1.000000
    9       -6.447170   1.000000
   10       -6.353944   1.000000
   11       -5.518078   1.000000
   12       -5.201445   1.000000
   13       -4.741201   1.000000
   14       -4.294642   1.000000
   15       -3.448121   1.000000
   16       -3.287778   1.000000
   17       -2.694649   1.000000
   18       -2.604232   1.000000
   19       -0.140408   0.000000
   20       -0.095228   0.000000
   21        0.385954   0.000000
   22        0.436358   0.000000
   23        1.345609   0.000000
   24        1.378555   0.000000
 
  0.5000000E+00  0.1034483E+00  0.0000000E+00  0.6666667E-02
    1      -15.025599   1.000000
    2      -15.006484   1.000000
    3      -12.228352   1.000000
    4      -12.131049   1.000000
    5      -10.142966   1.000000
    6      -10.052206   1.000000
    7       -7.146074   1.000000
    8       -6.975895   1.000000
    9       -6.505949   1.000000
   10       -6.389724   1.000000
   11       -5.531452   1.000000
   12       -5.239418   1.000000
   13       -4.777521   1.000000
   14       -4.372905   1.000000
   15       -3.455836   1.000000
   16       -3.315969   1.000000
   17       -2.677850   1.000000
   18       -2.599745   1.000000
   19       -0.144219   0.000000
   20       -0.105285   0.000000
   21        0.375839   0.000000
   22        0.422032   0.000000
   23        1.374748   0.000000
   24        1.398713   0.000000
 
  0.5000000E+00  0.8620690E-01  0.0000000E+00  0.6666667E-02
    1      -15.028737   1.000000
    2      -15.012561   1.000000
    3      -12.215208   1.000000
    4      -12.132596   1.000000
    5      -10.121960   1.000000
    6      -10.044930   1.000000
    7       -7.094996   1.000000
    8       -6.914584   1.000000
    9       -6.558044   1.000000
   10       -6.422464   1.000000
   11       -5.539516   1.000000
   12       -5.280123   1.000000
   13       -4.802453   1.000000
   14       -4.448751   1.000000
   15       -3.460109   1.000000
   16       -3.342166   1.000000
   17       -2.661258   1.000000
   18       -2.595704   1.000000
   19       -0.147070   0.000000
   20       -0.114341   0.000000
   21        0.368242   0.000000
   22        0.408907   0.000000
   23        1.400173   0.000000
   24        1.416725   0.000000
 
  0.5000000E+00  0.6896552E-01  0.0000000E+00  0.6666667E-02
    1      -15.031025   1.000000
    2      -15.017923   1.000000
    3      -12.202706   1.000000
    4      -12.135622   1.000000
    5      -10.102490   1.000000
    6      -10.039954   1.000000
    7       -7.047024   1.000000
    8       -6.864427   1.000000
    9       -6.599445   1.000000
   10       -6.452700   1.000000
   11       -5.541719   1.000000
   12       -5.323057   1.000000
   13       -4.814870   1.000000
   14       -4.520675   1.000000
   15       -3.461130   1.000000
   16       -3.366042   1.000000
   17       -2.645576   1.000000
   18       -2.592807   1.000000
   19       -0.148863   0.000000
   20       -0.122412   0.000000
   21        0.363106   0.000000
   22        0.397098   0.000000
   23        1.421550   0.000000
   24        1.432209   0.000000
 
  0.5000000E+00  0.5172414E-01  0.0000000E+00  0.6666667E-02
    1      -15.032444   1.000000
    2      -15.022524   1.000000
    3      -12.190932   1.000000
    4      -12.140041   1.000000
    5      -10.085003   1.000000
    6      -10.037571   1.000000
    7       -7.002088   1.000000
    8       -6.833996   1.000000
    9       -6.622521   1.000000
   10       -6.481368   1.000000
   11       -5.537419   1.000000
   12       -5.366711   1.000000
   13       -4.814595   1.000000
   14       -4.587322   1.000000
   15       -3.459073   1.000000
   16       -3.387405   1.000000
   17       -2.631350   1.000000
   18       -2.591573   1.000000
   19       -0.149530   0.000000
   20       -0.129495   0.000000
   21        0.360343   0.000000
   22        0.386707   0.000000
   23        1.438606   0.000000
   24        1.444826   0.000000
 
  0.5000000E+00  0.3448276E-01  0.0000000E+00  0.6666667E-02
    1      -15.032981   1.000000
    2      -15.026324   1.000000
    3      -12.179966   1.000000
    4      -12.145764   1.000000
    5      -10.069887   1.000000
    6      -10.038015   1.000000
    7       -6.959942   1.000000
    8       -6.831529   1.000000
    9       -6.620055   1.000000
   10       -6.509659   1.000000
   11       -5.526009   1.000000
   12       -5.408965   1.000000
   13       -4.802123   1.000000
   14       -4.647465   1.000000
   15       -3.454072   1.000000
   16       -3.406152   1.000000
   17       -2.618985   1.000000
   18       -2.592368   1.000000
   19       -0.149034   0.000000
   20       -0.135570   0.000000
   21        0.359840   0.000000
   22        0.377837   0.000000
   23        1.450730   0.000000
   24        1.454131   0.000000
 
  0.5000000E+00  0.1724138E-01  0.0000000E+00  0.6666667E-02
    1      -15.032632   1.000000
    2      -15.029290   1.000000
    3      -12.169886   1.000000
    4      -12.152702   1.000000
    5      -10.057456   1.000000
    6      -10.041444   1.000000
    7       -6.920366   1.000000
    8       -6.851964   1.000000
    9       -6.598040   1.000000
   10       -6.538671   1.000000
   11       -5.507106   1.000000
   12       -5.447609   1.000000
   13       -4.778263   1.000000
   14       -4.699999   1.000000
   15       -3.446222   1.000000
   16       -3.422226   1.000000
   17       -2.608772   1.000000
   18       -2.595435   1.000000
   19       -0.147369   0.000000
   20       -0.140601   0.000000
   21        0.361469   0.000000
   22        0.370595   0.000000
   23        1.458341   0.000000
   24        1.459727   0.000000
 
  0.5000000E+00  0.0000000E+00  0.0000000E+00  0.6666667E-02
    1      -15.031414   1.000000
    2      -15.031383   1.000000
    3      -12.160777   1.000000
    4      -12.160764   1.000000
    5      -10.047950   1.000000
    6      -10.047915   1.000000
    7       -6.883687   1.000000
    8       -6.883685   1.000000
    9       -6.568737   1.000000
   10       -6.568724   1.000000
   11       -5.480765   1.000000
   12       -5.480750   1.000000
   13       -4.743916   1.000000
   14       -4.743913   1.000000
   15       -3.435603   1.000000
   16       -3.435580   1.000000
   17       -2.600902   1.000000
   18       -2.600888   1.000000
   19       -0.144556   0.000000
   20       -0.144538   0.000000
   21        0.365090   0.000000
   22        0.365105   0.000000
   23        1.461180   0.000000
   24        1.461384   0.000000
 
  0.5000000E+00  0.0000000E+00  0.0000000E+00  0.6666667E-02
    1      -15.031414   1.000000
    2      -15.031383   1.000000
    3      -12.160777   1.000000
    4      -12.160764   1.000000
    5      -10.047950   1.000000
    6      -10.047915   1.000000
    7       -6.883687   1.000000
    8       -6.883685   1.000000
    9       -6.568737   1.000000
   10       -6.568724   1.000000
   11       -5.480765   1.000000
   12       -5.480750   1.000000
   13       -4.743916   1.000000
   14       -4.743913   1.000000
   15       -3.435603   1.000000
   16       -3.435580   1.000000
   17       -2.600902   1.000000
   18       -2.600888   1.000000
   19       -0.144556   0.000000
   20       -0.144538   0.000000
   21        0.365090   0.000000
   22        0.365105   0.000000
   23        1.461184   0.000000
   24        1.461244   0.000000
 
  0.4827586E+00  0.0000000E+00  0.0000000E+00  0.6666667E-02
    1      -15.092559   1.000000
    2      -14.969152   1.000000
    3      -12.182083   1.000000
    4      -12.140253   1.000000
    5      -10.048533   1.000000
    6      -10.044683   1.000000
    7       -6.922343   1.000000
    8       -6.854297   1.000000
    9       -6.585531   1.000000
   10       -6.538510   1.000000
   11       -5.528704   1.000000
   12       -5.432912   1.000000
   13       -4.821710   1.000000
   14       -4.668019   1.000000
   15       -3.507740   1.000000
   16       -3.373348   1.000000
   17       -2.622702   1.000000
   18       -2.572437   1.000000
   19       -0.237552   0.000000
   20       -0.058243   0.000000
   21        0.336182   0.000000
   22        0.403131   0.000000
   23        1.371597   0.000000
   24        1.530909   0.000000
 
  0.4655172E+00  0.0000000E+00  0.0000000E+00  0.6666667E-02
    1      -15.152477   1.000000
    2      -14.905986   1.000000
    3      -12.203857   1.000000
    4      -12.120833   1.000000
    5      -10.046905   1.000000
    6      -10.038400   1.000000
    7       -6.965799   1.000000
    8       -6.839015   1.000000
    9       -6.584167   1.000000
   10       -6.499429   1.000000
   11       -5.575840   1.000000
   12       -5.386250   1.000000
   13       -4.900907   1.000000
   14       -4.594272   1.000000
   15       -3.584069   1.000000
   16       -3.327025   1.000000
   17       -2.635254   1.000000
   18       -2.540057   1.000000
   19       -0.325607   0.000000
   20        0.003162   0.000000
   21        0.324659   0.000000
   22        0.445586   0.000000
   23        1.277687   0.000000
   24        1.570068   0.000000
 
  0.4482759E+00  0.0000000E+00  0.0000000E+00  0.6666667E-02
    1      -15.211018   1.000000
    2      -14.842089   1.000000
    3      -12.225740   1.000000
    4      -12.102786   1.000000
    5      -10.043505   1.000000
    6      -10.028762   1.000000
    7       -7.011228   1.000000
    8       -6.838637   1.000000
    9       -6.564125   1.000000
   10       -6.454656   1.000000
   11       -5.621230   1.000000
   12       -5.342472   1.000000
   13       -4.980267   1.000000
   14       -4.522894   1.000000
   15       -3.659767   1.000000
   16       -3.301385   1.000000
   17       -2.637487   1.000000
   18       -2.506065   1.000000
   19       -0.401025   0.000000
   20        0.021315   0.000000
   21        0.334027   0.000000
   22        0.490068   0.000000
   23        1.199366   0.000000
   24        1.573481   0.000000
 
  0.4310345E+00  0.0000000E+00  0.0000000E+00  0.6666667E-02
    1      -15.268060   1.000000
    2      -14.777669   1.000000
    3      -12.247367   1.000000
    4      -12.086338   1.000000
    5      -10.038805   1.000000
    6      -10.015507   1.000000
    7       -7.056947   1.000000
    8       -6.848494   1.000000
    9       -6.530543   1.000000
   10       -6.406536   1.000000
   11       -5.663742   1.000000
   12       -5.305389   1.000000
   13       -5.056223   1.000000
   14       -4.454189   1.000000
   15       -3.730996   1.000000
   16       -3.298012   1.000000
   17       -2.631461   1.000000
   18       -2.472310   1.000000
   19       -0.458203   0.000000
   20       -0.003505   0.000000
   21        0.344690   0.000000
   22        0.535090   0.000000
   23        1.159530   0.000000
   24        1.543107   0.000000
 
  0.4137931E+00  0.0000000E+00  0.0000000E+00  0.6666667E-02
    1      -15.323495   1.000000
    2      -14.712957   1.000000
    3      -12.268367   1.000000
    4      -12.071672   1.000000
    5      -10.033289   1.000000
    6       -9.998453   1.000000
    7       -7.101921   1.000000
    8       -6.863082   1.000000
    9       -6.489625   1.000000
   10       -6.357294   1.000000
   11       -5.701852   1.000000
   12       -5.286890   1.000000
   13       -5.116795   1.000000
   14       -4.388668   1.000000
   15       -3.794803   1.000000
   16       -3.314821   1.000000
   17       -2.622310   1.000000
   18       -2.440330   1.000000
   19       -0.493182   0.000000
   20       -0.060206   0.000000
   21        0.331780   0.000000
   22        0.579406   0.000000
   23        1.174054   0.000000
   24        1.485012   0.000000
 
  0.3965517E+00  0.0000000E+00  0.0000000E+00  0.6666667E-02
    1      -15.377218   1.000000
    2      -14.648210   1.000000
    3      -12.288366   1.000000
    4      -12.058916   1.000000
    5      -10.027436   1.000000
    6       -9.977498   1.000000
    7       -7.145439   1.000000
    8       -6.878902   1.000000
    9       -6.445834   1.000000
   10       -6.309594   1.000000
   11       -5.733332   1.000000
   12       -5.312483   1.000000
   13       -5.135918   1.000000
   14       -4.327154   1.000000
   15       -3.849004   1.000000
   16       -3.347494   1.000000
   17       -2.616021   1.000000
   18       -2.411497   1.000000
   19       -0.503958   0.000000
   20       -0.143217   0.000000
   21        0.294804   0.000000
   22        0.621659   0.000000
   23        1.238463   0.000000
   24        1.407037   0.000000
 
  0.3793103E+00  0.0000000E+00  0.0000000E+00  0.6666667E-02
    1      -15.429141   1.000000
    2      -14.583708   1.000000
    3      -12.306991   1.000000
    4      -12.048139   1.000000
    5      -10.021712   1.000000
    6       -9.952631   1.000000
    7       -7.186983   1.000000
    8       -6.894286   1.000000
    9       -6.402153   1.000000
   10       -6.267015   1.000000
   11       -5.754933   1.000000
   12       -5.376294   1.000000
   13       -5.118285   1.000000
   14       -4.270972   1.000000
   15       -3.892122   1.000000
   16       -3.391161   1.000000
   17       -2.616988   1.000000
   18       -2.387159   1.000000
   19       -0.491098   0.000000
   20       -0.249885   0.000000
   21        0.249042   0.000000
   22        0.660050   0.000000
   23        1.318158   0.000000
   24        1.334283   0.000000
 
  0.3620690E+00  0.0000000E+00  0.0000000E+00  0.6666667E-02
    1      -15.479183   1.000000
    2      -14.519758   1.000000
    3      -12.323875   1.000000
    4      -12.039359   1.000000
    5      -10.016562   1.000000
    6       -9.923930   1.000000
    7       -7.226133   1.000000
    8       -6.908710   1.000000
    9       -6.360841   1.000000
   10       -6.234106   1.000000
   11       -5.762400   1.000000
   12       -5.450987   1.000000
   13       -5.089303   1.000000
   14       -4.222217   1.000000
   15       -3.923349   1.000000
   16       -3.440971   1.000000
   17       -2.626931   1.000000
   18       -2.368746   1.000000
   19       -0.458239   0.000000
   20       -0.375344   0.000000
   21        0.206227   0.000000
   22        0.691920   0.000000
   23        1.228177   0.000000
   24        1.441718   0.000000
 
  0.3448276E+00  0.0000000E+00  0.0000000E+00  0.6666667E-02
    1      -15.527273   1.000000
    2      -14.456689   1.000000
    3      -12.338661   1.000000
    4      -12.032537   1.000000
    5      -10.012398   1.000000
    6       -9.891569   1.000000
    7       -7.262530   1.000000
    8       -6.922394   1.000000
    9       -6.323917   1.000000
   10       -6.215214   1.000000
   11       -5.751691   1.000000
   12       -5.524469   1.000000
   13       -5.058279   1.000000
   14       -4.184133   1.000000
   15       -3.942504   1.000000
   16       -3.491749   1.000000
   17       -2.645174   1.000000
   18       -2.357865   1.000000
   19       -0.512461   0.000000
   20       -0.412363   0.000000
   21        0.170429   0.000000
   22        0.713453   0.000000
   23        1.148756   0.000000
   24        1.545279   0.000000
 
  0.3275862E+00  0.0000000E+00  0.0000000E+00  0.6666667E-02
    1      -15.573345   1.000000
    2      -14.394854   1.000000
    3      -12.351008   1.000000
    4      -12.027590   1.000000
    5      -10.009592   1.000000
    6       -9.855803   1.000000
    7       -7.295852   1.000000
    8       -6.936106   1.000000
    9       -6.293326   1.000000
   10       -6.212073   1.000000
   11       -5.721414   1.000000
   12       -5.590810   1.000000
   13       -5.027525   1.000000
   14       -4.161372   1.000000
   15       -3.949982   1.000000
   16       -3.537454   1.000000
   17       -2.669531   1.000000
   18       -2.356381   1.000000
   19       -0.653943   0.000000
   20       -0.363960   0.000000
   21        0.141743   0.000000
   22        0.721264   0.000000
   23        1.092809   0.000000
   24        1.629278   0.000000
 
  0.3103448E+00  0.0000000E+00  0.0000000E+00  0.6666667E-02
    1      -15.617341   1.000000
    2      -14.334627   1.000000
    3      -12.360595   1.000000
    4      -12.024392   1.000000
    5      -10.008467   1.000000
    6       -9.816974   1.000000
    7       -7.325790   1.000000
    8       -6.951074   1.000000
    9       -6.270773   1.000000
   10       -6.222736   1.000000
   11       -5.673930   1.000000
   12       -5.645581   1.000000
   13       -4.997346   1.000000
   14       -4.159420   1.000000
   15       -3.946670   1.000000
   16       -3.571494   1.000000
   17       -2.697246   1.000000
   18       -2.366453   1.000000
   19       -0.793415   0.000000
   20       -0.326865   0.000000
   21        0.119146   0.000000
   22        0.719060   0.000000
   23        1.068595   0.000000
   24        1.680825   0.000000
 
  0.2931034E+00  0.0000000E+00  0.0000000E+00  0.6666667E-02
    1      -15.659208   1.000000
    2      -14.276388   1.000000
    3      -12.367137   1.000000
    4      -12.022787   1.000000
    5      -10.009296   1.000000
    6       -9.775498   1.000000
    7       -7.352048   1.000000
    8       -6.968856   1.000000
    9       -6.257123   1.000000
   10       -6.243377   1.000000
   11       -5.685376   1.000000
   12       -5.613589   1.000000
   13       -4.967343   1.000000
   14       -4.182147   1.000000
   15       -3.933837   1.000000
   16       -3.588971   1.000000
   17       -2.725645   1.000000
   18       -2.390460   1.000000
   19       -0.925484   0.000000
   20       -0.316156   0.000000
   21        0.101530   0.000000
   22        0.722231   0.000000
   23        1.073623   0.000000
   24        1.699339   0.000000
 
  0.2758621E+00  0.0000000E+00  0.0000000E+00  0.6666667E-02
    1      -15.698896   1.000000
    2      -14.220520   1.000000
    3      -12.370389   1.000000
    4      -12.022592   1.000000
    5      -10.012279   1.000000
    6       -9.731855   1.000000
    7       -7.374333   1.000000
    8       -6.991136   1.000000
    9       -6.270463   1.000000
   10       -6.251535   1.000000
   11       -5.708530   1.000000
   12       -5.544608   1.000000
   13       -4.936873   1.000000
   14       -4.228786   1.000000
   15       -3.913001   1.000000
   16       -3.589542   1.000000
   17       -2.752460   1.000000
   18       -2.430720   1.000000
   19       -1.045659   0.000000
   20       -0.342350   0.000000
   21        0.087929   0.000000
   22        0.746195   0.000000
   23        1.100809   0.000000
   24        1.658222   0.000000
 
  0.2586207E+00  0.0000000E+00  0.0000000E+00  0.6666667E-02
    1      -15.736362   1.000000
    2      -14.167399   1.000000
    3      -12.370166   1.000000
    4      -12.023612   1.000000
    5      -10.017555   1.000000
    6       -9.686590   1.000000
    7       -7.392358   1.000000
    8       -7.019371   1.000000
    9       -6.301503   1.000000
   10       -6.251189   1.000000
   11       -5.715629   1.000000
   12       -5.470409   1.000000
   13       -4.905317   1.000000
   14       -4.294037   1.000000
   15       -3.885815   1.000000
   16       -3.577180   1.000000
   17       -2.775962   1.000000
   18       -2.488972   1.000000
   19       -1.150551   0.000000
   20       -0.405896   0.000000
   21        0.077506   0.000000
   22        0.792323   0.000000
   23        1.147369   0.000000
   24        1.588947   0.000000
 
  0.2413793E+00  0.0000000E+00  0.0000000E+00  0.6666667E-02
    1      -15.771569   1.000000
    2      -14.117376   1.000000
    3      -12.366365   1.000000
    4      -12.025647   1.000000
    5      -10.025187   1.000000
    6       -9.640293   1.000000
    7       -7.405843   1.000000
    8       -7.054382   1.000000
    9       -6.334941   1.000000
   10       -6.252254   1.000000
   11       -5.708885   1.000000
   12       -5.393898   1.000000
   13       -4.872234   1.000000
   14       -4.370935   1.000000
   15       -3.853989   1.000000
   16       -3.557096   1.000000
   17       -2.794976   1.000000
   18       -2.565718   1.000000
   19       -1.238294   0.000000
   20       -0.499025   0.000000
   21        0.069512   0.000000
   22        0.848874   0.000000
   23        1.215779   0.000000
   24        1.511214   0.000000
 
  0.2241379E+00  0.0000000E+00  0.0000000E+00  0.6666667E-02
    1      -15.804479   1.000000
    2      -14.070764   1.000000
    3      -12.358982   1.000000
    4      -12.028495   1.000000
    5      -10.035158   1.000000
    6       -9.593601   1.000000
    7       -7.414523   1.000000
    8       -7.096057   1.000000
    9       -6.369855   1.000000
   10       -6.251502   1.000000
   11       -5.690808   1.000000
   12       -5.318055   1.000000
   13       -4.837444   1.000000
   14       -4.452740   1.000000
   15       -3.819278   1.000000
   16       -3.533495   1.000000
   17       -2.808879   1.000000
   18       -2.659762   1.000000
   19       -1.308821   0.000000
   20       -0.611989   0.000000
   21        0.063264   0.000000
   22        0.901986   0.000000
   23        1.308107   0.000000
   24        1.418704   0.000000
 
  0.2068966E+00  0.0000000E+00  0.0000000E+00  0.6666667E-02
    1      -15.835066   1.000000
    2      -14.027814   1.000000
    3      -12.348128   1.000000
    4      -12.031959   1.000000
    5      -10.047363   1.000000
    6       -9.547172   1.000000
    7       -7.418166   1.000000
    8       -7.143345   1.000000
    9       -6.405733   1.000000
   10       -6.247273   1.000000
   11       -5.663246   1.000000
   12       -5.246761   1.000000
   13       -4.801052   1.000000
   14       -4.532783   1.000000
   15       -3.783538   1.000000
   16       -3.509039   1.000000
   17       -2.817607   1.000000
   18       -2.768227   1.000000
   19       -1.363652   0.000000
   20       -0.736728   0.000000
   21        0.058145   0.000000
   22        0.944822   0.000000
   23        1.325161   0.000000
   24        1.425790   0.000000
 
  0.1896552E+00  0.0000000E+00  0.0000000E+00  0.6666667E-02
    1      -15.863299   1.000000
    2      -13.988714   1.000000
    3      -12.334049   1.000000
    4      -12.035850   1.000000
    5      -10.061608   1.000000
    6       -9.501678   1.000000
    7       -7.416579   1.000000
    8       -7.194534   1.000000
    9       -6.442320   1.000000
   10       -6.239470   1.000000
   11       -5.627147   1.000000
   12       -5.186063   1.000000
   13       -4.763416   1.000000
   14       -4.603109   1.000000
   15       -3.748926   1.000000
   16       -3.485054   1.000000
   17       -2.886950   1.000000
   18       -2.821654   1.000000
   19       -1.405260   0.000000
   20       -0.867386   0.000000
   21        0.053608   0.000000
   22        0.977517   0.000000
   23        1.231135   0.000000
   24        1.547785   0.000000
 
  0.1724138E+00  0.0000000E+00  0.0000000E+00  0.6666667E-02
    1      -15.889154   1.000000
    2      -13.953570   1.000000
    3      -12.317138   1.000000
    4      -12.039994   1.000000
    5      -10.077605   1.000000
    6       -9.457788   1.000000
    7       -7.409644   1.000000
    8       -7.247639   1.000000
    9       -6.479529   1.000000
   10       -6.229001   1.000000
   11       -5.582790   1.000000
   12       -5.145519   1.000000
   13       -4.725106   1.000000
   14       -4.652893   1.000000
   15       -3.718356   1.000000
   16       -3.461842   1.000000
   17       -3.010695   1.000000
   18       -2.822050   1.000000
   19       -1.436360   0.000000
   20       -0.999716   0.000000
   21        0.049196   0.000000
   22        1.002675   0.000000
   23        1.139827   0.000000
   24        1.709648   0.000000
 
  0.1551724E+00  0.0000000E+00  0.0000000E+00  0.6666667E-02
    1      -15.912610   1.000000
    2      -13.922407   1.000000
    3      -12.297937   1.000000
    4      -12.044226   1.000000
    5      -10.094963   1.000000
    6       -9.416150   1.000000
    7       -7.397343   1.000000
    8       -7.300701   1.000000
    9       -6.517365   1.000000
   10       -6.217164   1.000000
   11       -5.530137   1.000000
   12       -5.135866   1.000000
   13       -4.686829   1.000000
   14       -4.670598   1.000000
   15       -3.696556   1.000000
   16       -3.438972   1.000000
   17       -3.132565   1.000000
   18       -2.820273   1.000000
   19       -1.459419   0.000000
   20       -1.130425   0.000000
   21        0.044572   0.000000
   22        1.022624   0.000000
   23        1.052899   0.000000
   24        1.877479   0.000000
 
  0.1379310E+00  0.0000000E+00  0.0000000E+00  0.6666667E-02
    1      -15.933646   1.000000
    2      -13.895179   1.000000
    3      -12.277131   1.000000
    4      -12.048400   1.000000
    5      -10.113199   1.000000
    6       -9.377370   1.000000
    7       -7.379810   1.000000
    8       -7.351980   1.000000
    9       -6.555862   1.000000
   10       -6.205200   1.000000
   11       -5.469171   1.000000
   12       -5.158757   1.000000
   13       -4.654152   1.000000
   14       -4.649376   1.000000
   15       -3.692250   1.000000
   16       -3.415558   1.000000
   17       -3.242007   1.000000
   18       -2.818136   1.000000
   19       -1.476461   0.000000
   20       -1.256727   0.000000
   21        0.039534   0.000000
   22        0.971920   0.000000
   23        1.038932   0.000000
   24        1.844825   0.000000
 
  0.1206897E+00  0.0000000E+00  0.0000000E+00  0.6666667E-02
    1      -15.952246   1.000000
    2      -13.871775   1.000000
    3      -12.255529   1.000000
    4      -12.052387   1.000000
    5      -10.131735   1.000000
    6       -9.341999   1.000000
    7       -7.400007   1.000000
    8       -7.357371   1.000000
    9       -6.595011   1.000000
   10       -6.194052   1.000000
   11       -5.400139   1.000000
   12       -5.203076   1.000000
   13       -4.614545   1.000000
   14       -4.613555   1.000000
   15       -3.719625   1.000000
   16       -3.390505   1.000000
   17       -3.323317   1.000000
   18       -2.817613   1.000000
   19       -1.489044   0.000000
   20       -1.376031   0.000000
   21        0.034040   0.000000
   22        0.898096   0.000000
   23        1.052643   0.000000
   24        1.805419   0.000000
 
  0.1034483E+00  0.0000000E+00  0.0000000E+00  0.6666667E-02
    1      -15.968393   1.000000
    2      -13.852035   1.000000
    3      -12.234037   1.000000
    4      -12.056069   1.000000
    5      -10.149915   1.000000
    6       -9.310512   1.000000
    7       -7.443601   1.000000
    8       -7.330622   1.000000
    9       -6.634663   1.000000
   10       -6.184302   1.000000
   11       -5.323714   1.000000
   12       -5.255846   1.000000
   13       -4.580131   1.000000
   14       -4.564884   1.000000
   15       -3.788389   1.000000
   16       -3.365462   1.000000
   17       -3.362789   1.000000
   18       -2.820651   1.000000
   19       -1.498321   0.000000
   20       -1.485783   0.000000
   21        0.028199   0.000000
   22        0.832385   0.000000
   23        1.064355   0.000000
   24        1.774582   0.000000
 
  0.8620690E-01  0.0000000E+00  0.0000000E+00  0.6666667E-02
    1      -15.982077   1.000000
    2      -13.835774   1.000000
    3      -12.213617   1.000000
    4      -12.059349   1.000000
    5      -10.167030   1.000000
    6       -9.283306   1.000000
    7       -7.481822   1.000000
    8       -7.300523   1.000000
    9       -6.674387   1.000000
   10       -6.176213   1.000000
   11       -5.308437   1.000000
   12       -5.241155   1.000000
   13       -4.549753   1.000000
   14       -4.514106   1.000000
   15       -3.888684   1.000000
   16       -3.376928   1.000000
   17       -3.331749   1.000000
   18       -2.828898   1.000000
   19       -1.583437   0.000000
   20       -1.505133   0.000000
   21        0.022259   0.000000
   22        0.775579   0.000000
   23        1.074325   0.000000
   24        1.748424   0.000000
 
  0.6896552E-01  0.0000000E+00  0.0000000E+00  0.6666667E-02
    1      -15.993287   1.000000
    2      -13.822798   1.000000
    3      -12.195237   1.000000
    4      -12.062145   1.000000
    5      -10.182347   1.000000
    6       -9.260690   1.000000
    7       -7.513950   1.000000
    8       -7.268550   1.000000
    9       -6.713271   1.000000
   10       -6.169830   1.000000
   11       -5.355815   1.000000
   12       -5.154588   1.000000
   13       -4.522830   1.000000
   14       -4.467636   1.000000
   15       -4.002903   1.000000
   16       -3.373575   1.000000
   17       -3.297459   1.000000
   18       -2.843277   1.000000
   19       -1.666552   0.000000
   20       -1.510076   0.000000
   21        0.016573   0.000000
   22        0.728314   0.000000
   23        1.082711   0.000000
   24        1.727074   0.000000
 
  0.5172414E-01  0.0000000E+00  0.0000000E+00  0.6666667E-02
    1      -16.002013   1.000000
    2      -13.812925   1.000000
    3      -12.179817   1.000000
    4      -12.064389   1.000000
    5      -10.195157   1.000000
    6       -9.242898   1.000000
    7       -7.539446   1.000000
    8       -7.236931   1.000000
    9       -6.749628   1.000000
   10       -6.165070   1.000000
   11       -5.394979   1.000000
   12       -5.067683   1.000000
   13       -4.499305   1.000000
   14       -4.428854   1.000000
   15       -4.118278   1.000000
   16       -3.365438   1.000000
   17       -3.261251   1.000000
   18       -2.863345   1.000000
   19       -1.733021   0.000000
   20       -1.513569   0.000000
   21        0.011555   0.000000
   22        0.691080   0.000000
   23        1.089463   0.000000
   24        1.710135   0.000000
 
  0.3448276E-01  0.0000000E+00  0.0000000E+00  0.6666667E-02
    1      -16.008251   1.000000
    2      -13.805996   1.000000
    3      -12.168159   1.000000
    4      -12.066028   1.000000
    5      -10.204822   1.000000
    6       -9.230088   1.000000
    7       -7.557913   1.000000
    8       -7.208935   1.000000
    9       -6.780652   1.000000
   10       -6.161799   1.000000
   11       -5.424063   1.000000
   12       -4.987186   1.000000
   13       -4.478173   1.000000
   14       -4.399899   1.000000
   15       -4.224966   1.000000
   16       -3.357424   1.000000
   17       -3.226484   1.000000
   18       -2.886360   1.000000
   19       -1.781299   0.000000
   20       -1.515889   0.000000
   21        0.007614   0.000000
   22        0.664231   0.000000
   23        1.094422   0.000000
   24        1.698283   0.000000
 
  0.1724138E-01  0.0000000E+00  0.0000000E+00  0.6666667E-02
    1      -16.011995   1.000000
    2      -13.801889   1.000000
    3      -12.160894   1.000000
    4      -12.067027   1.000000
    5      -10.210839   1.000000
    6       -9.222364   1.000000
    7       -7.569095   1.000000
    8       -7.188977   1.000000
    9       -6.802280   1.000000
   10       -6.159893   1.000000
   11       -5.441929   1.000000
   12       -4.925635   1.000000
   13       -4.457451   1.000000
   14       -4.382072   1.000000
   15       -4.310710   1.000000
   16       -3.351895   1.000000
   17       -3.199487   1.000000
   18       -2.906284   1.000000
   19       -1.810501   0.000000
   20       -1.517217   0.000000
   21        0.005095   0.000000
   22        0.648028   0.000000
   23        1.097493   0.000000
   24        1.691162   0.000000
 
  0.0000000E+00  0.0000000E+00  0.0000000E+00  0.6666667E-02
    1      -16.013242   1.000000
    2      -13.800529   1.000000
    3      -12.158426   1.000000
    4      -12.067361   1.000000
    5      -10.212883   1.000000
    6       -9.219784   1.000000
    7       -7.572838   1.000000
    8       -7.181624   1.000000
    9       -6.810166   1.000000
   10       -6.159269   1.000000
   11       -5.447950   1.000000
   12       -4.901512   1.000000
   13       -4.443778   1.000000
   14       -4.376059   1.000000
   15       -4.349721   1.000000
   16       -3.349945   1.000000
   17       -3.188898   1.000000
   18       -2.914521   1.000000
   19       -1.820262   0.000000
   20       -1.517649   0.000000
   21        0.004228   0.000000
   22        0.642612   0.000000
   23        1.098515   0.000000
   24        1.688589   0.000000
 
  0.0000000E+00  0.0000000E+00  0.0000000E+00  0.6666667E-02
    1      -16.013242   1.000000
    2      -13.800529   1.000000
    3      -12.158426   1.000000
    4      -12.067361   1.000000
    5      -10.212883   1.000000
    6       -9.219784   1.000000
    7       -7.572838   1.000000
    8       -7.181624   1.000000
    9       -6.810166   1.000000
   10       -6.159269   1.000000
   11       -5.447950   1.000000
   12       -4.901512   1.000000
   13       -4.443778   1.000000
   14       -4.376059   1.000000
   15       -4.349721   1.000000
   16       -3.349945   1.000000
   17       -3.188898   1.000000
   18       -2.914521   1.000000
   19       -1.820262   0.000000
   20       -1.517649   0.000000
   21        0.004228   0.000000
   22        0.642612   0.000000
   23        1.098516   0.000000
   24        1.688622   0.000000
 
  0.1724138E-01  0.1724138E-01  0.0000000E+00  0.6666667E-02
    1      -16.011565   1.000000
    2      -13.801518   1.000000
    3      -12.160199   1.000000
    4      -12.069419   1.000000
    5      -10.213679   1.000000
    6       -9.220847   1.000000
    7       -7.569466   1.000000
    8       -7.192868   1.000000
    9       -6.793457   1.000000
   10       -6.158917   1.000000
   11       -5.444351   1.000000
   12       -4.944463   1.000000
   13       -4.431125   1.000000
   14       -4.386039   1.000000
   15       -4.312216   1.000000
   16       -3.351763   1.000000
   17       -3.192462   1.000000
   18       -2.913657   1.000000
   19       -1.804977   0.000000
   20       -1.516643   0.000000
   21        0.003572   0.000000
   22        0.650497   0.000000
   23        1.100125   0.000000
   24        1.690101   0.000000
 
  0.3448276E-01  0.3448276E-01  0.0000000E+00  0.6666667E-02
    1      -16.006537   1.000000
    2      -13.804510   1.000000
    3      -12.165418   1.000000
    4      -12.075532   1.000000
    5      -10.216100   1.000000
    6       -9.224168   1.000000
    7       -7.559459   1.000000
    8       -7.220984   1.000000
    9       -6.748936   1.000000
   10       -6.158526   1.000000
   11       -5.433904   1.000000
   12       -5.042485   1.000000
   13       -4.415038   1.000000
   14       -4.412984   1.000000
   15       -4.210110   1.000000
   16       -3.357042   1.000000
   17       -3.202619   1.000000
   18       -2.910619   1.000000
   19       -1.760621   0.000000
   20       -1.513719   0.000000
   21        0.001670   0.000000
   22        0.674054   0.000000
   23        1.104797   0.000000
   24        1.694357   0.000000
 
  0.5172414E-01  0.5172414E-01  0.0000000E+00  0.6666667E-02
    1      -15.998168   1.000000
    2      -13.809584   1.000000
    3      -12.173806   1.000000
    4      -12.085515   1.000000
    5      -10.220238   1.000000
    6       -9.230130   1.000000
    7       -7.543162   1.000000
    8       -7.255884   1.000000
    9       -6.686679   1.000000
   10       -6.160143   1.000000
   11       -5.417748   1.000000
   12       -5.156305   1.000000
   13       -4.460213   1.000000
   14       -4.393565   1.000000
   15       -4.076634   1.000000
   16       -3.365238   1.000000
   17       -3.217929   1.000000
   18       -2.904436   1.000000
   19       -1.691077   0.000000
   20       -1.509141   0.000000
   21       -0.001278   0.000000
   22        0.712963   0.000000
   23        1.112132   0.000000
   24        1.701537   0.000000
 
  0.6896552E-01  0.6896552E-01  0.0000000E+00  0.6666667E-02
    1      -15.986483   1.000000
    2      -13.816860   1.000000
    3      -12.184924   1.000000
    4      -12.099079   1.000000
    5      -10.226217   1.000000
    6       -9.239299   1.000000
    7       -7.521247   1.000000
    8       -7.290165   1.000000
    9       -6.614146   1.000000
   10       -6.167218   1.000000
   11       -5.398097   1.000000
   12       -5.265433   1.000000
   13       -4.516772   1.000000
   14       -4.369777   1.000000
   15       -3.932326   1.000000
   16       -3.375326   1.000000
   17       -3.236487   1.000000
   18       -2.894262   1.000000
   19       -1.601305   0.000000
   20       -1.503303   0.000000
   21       -0.004925   0.000000
   22        0.766637   0.000000
   23        1.121412   0.000000
   24        1.711041   0.000000
 
  0.8620690E-01  0.8620690E-01  0.0000000E+00  0.6666667E-02
    1      -15.971511   1.000000
    2      -13.826500   1.000000
    3      -12.198207   1.000000
    4      -12.115839   1.000000
    5      -10.234163   1.000000
    6       -9.252322   1.000000
    7       -7.494841   1.000000
    8       -7.319589   1.000000
    9       -6.535791   1.000000
   10       -6.184162   1.000000
   11       -5.378707   1.000000
   12       -5.357833   1.000000
   13       -4.577812   1.000000
   14       -4.340855   1.000000
   15       -3.786475   1.000000
   16       -3.385411   1.000000
   17       -3.256443   1.000000
   18       -2.879669   1.000000
   19       -1.496671   0.000000
   20       -1.496179   0.000000
   21       -0.008761   0.000000
   22        0.834128   0.000000
   23        1.131593   0.000000
   24        1.722660   0.000000
 
  0.1034483E+00  0.1034483E+00  0.0000000E+00  0.6666667E-02
    1      -15.953293   1.000000
    2      -13.838690   1.000000
    3      -12.213012   1.000000
    4      -12.135342   1.000000
    5      -10.244168   1.000000
    6       -9.269817   1.000000
    7       -7.465754   1.000000
    8       -7.341937   1.000000
    9       -6.454397   1.000000
   10       -6.214622   1.000000
   11       -5.425292   1.000000
   12       -5.365383   1.000000
   13       -4.634115   1.000000
   14       -4.307026   1.000000
   15       -3.646342   1.000000
   16       -3.391045   1.000000
   17       -3.276333   1.000000
   18       -2.860577   1.000000
   19       -1.489692   0.000000
   20       -1.379894   0.000000
   21       -0.012114   0.000000
   22        0.913992   0.000000
   23        1.141148   0.000000
   24        1.735724   0.000000
 
  0.1206897E+00  0.1206897E+00  0.0000000E+00  0.6666667E-02
    1      -15.931878   1.000000
    2      -13.853631   1.000000
    3      -12.228663   1.000000
    4      -12.157084   1.000000
    5      -10.256260   1.000000
    6       -9.292254   1.000000
    7       -7.436752   1.000000
    8       -7.356280   1.000000
    9       -6.372019   1.000000
   10       -6.258417   1.000000
   11       -5.464083   1.000000
   12       -5.365585   1.000000
   13       -4.674703   1.000000
   14       -4.269041   1.000000
   15       -3.529154   1.000000
   16       -3.375865   1.000000
   17       -3.295123   1.000000
   18       -2.837083   1.000000
   19       -1.482700   0.000000
   20       -1.255805   0.000000
   21       -0.014150   0.000000
   22        1.004074   0.000000
   23        1.148069   0.000000
   24        1.750879   0.000000
 
  0.1379310E+00  0.1379310E+00  0.0000000E+00  0.6666667E-02
    1      -15.907327   1.000000
    2      -13.871521   1.000000
    3      -12.244494   1.000000
    4      -12.180535   1.000000
    5      -10.270379   1.000000
    6       -9.319880   1.000000
    7       -7.411858   1.000000
    8       -7.362652   1.000000
    9       -6.309511   1.000000
   10       -6.290671   1.000000
   11       -5.475930   1.000000
   12       -5.385325   1.000000
   13       -4.689826   1.000000
   14       -4.228133   1.000000
   15       -3.475424   1.000000
   16       -3.312090   1.000000
   17       -3.299152   1.000000
   18       -2.809346   1.000000
   19       -1.475785   0.000000
   20       -1.126491   0.000000
   21       -0.013900   0.000000
   22        1.101187   0.000000
   23        1.149440   0.000000
   24        1.757774   0.000000
 
  0.1551724E+00  0.1551724E+00  0.0000000E+00  0.6666667E-02
    1      -15.879704   1.000000
    2      -13.892540   1.000000
    3      -12.259899   1.000000
    4      -12.205159   1.000000
    5      -10.286366   1.000000
    6       -9.352674   1.000000
    7       -7.396425   1.000000
    8       -7.361915   1.000000
    9       -6.357375   1.000000
   10       -6.213058   1.000000
   11       -5.466252   1.000000
   12       -5.423817   1.000000
   13       -4.675857   1.000000
   14       -4.186061   1.000000
   15       -3.462888   1.000000
   16       -3.326689   1.000000
   17       -3.182279   1.000000
   18       -2.777538   1.000000
   19       -1.468677   0.000000
   20       -0.993911   0.000000
   21       -0.010327   0.000000
   22        1.141179   0.000000
   23        1.200593   0.000000
   24        1.668776   0.000000
 
  0.1724138E+00  0.1724138E+00  0.0000000E+00  0.6666667E-02
    1      -15.849090   1.000000
    2      -13.916831   1.000000
    3      -12.274361   1.000000
    4      -12.230427   1.000000
    5      -10.303961   1.000000
    6       -9.390359   1.000000
    7       -7.396416   1.000000
    8       -7.355676   1.000000
    9       -6.390482   1.000000
   10       -6.143634   1.000000
   11       -5.471261   1.000000
   12       -5.441223   1.000000
   13       -4.636501   1.000000
   14       -4.145102   1.000000
   15       -3.453450   1.000000
   16       -3.338443   1.000000
   17       -3.062026   1.000000
   18       -2.741819   1.000000
   19       -1.460588   0.000000
   20       -0.859556   0.000000
   21       -0.002381   0.000000
   22        1.117722   0.000000
   23        1.295021   0.000000
   24        1.553755   0.000000
 
  0.1896552E+00  0.1896552E+00  0.0000000E+00  0.6666667E-02
    1      -15.815570   1.000000
    2      -13.944487   1.000000
    3      -12.287484   1.000000
    4      -12.255829   1.000000
    5      -10.322810   1.000000
    6       -9.432452   1.000000
    7       -7.416410   1.000000
    8       -7.346234   1.000000
    9       -6.399887   1.000000
   10       -6.089908   1.000000
   11       -5.511479   1.000000
   12       -5.406085   1.000000
   13       -4.578824   1.000000
   14       -4.107822   1.000000
   15       -3.435914   1.000000
   16       -3.346897   1.000000
   17       -2.948258   1.000000
   18       -2.702344   1.000000
   19       -1.450096   0.000000
   20       -0.724592   0.000000
   21        0.010910   0.000000
   22        1.071694   0.000000
   23        1.374866   0.000000
   24        1.449082   0.000000
 
  0.2068966E+00  0.2068966E+00  0.0000000E+00  0.6666667E-02
    1      -15.779241   1.000000
    2      -13.975544   1.000000
    3      -12.299010   1.000000
    4      -12.280891   1.000000
    5      -10.342479   1.000000
    6       -9.478332   1.000000
    7       -7.457260   1.000000
    8       -7.336525   1.000000
    9       -6.381824   1.000000
   10       -6.061642   1.000000
   11       -5.526348   1.000000
   12       -5.364851   1.000000
   13       -4.509573   1.000000
   14       -4.076494   1.000000
   15       -3.405688   1.000000
   16       -3.351602   1.000000
   17       -2.844921   1.000000
   18       -2.659277   1.000000
   19       -1.435088   0.000000
   20       -0.590023   0.000000
   21        0.030365   0.000000
   22        0.997254   0.000000
   23        1.329425   0.000000
   24        1.425299   0.000000
 
  0.2241379E+00  0.2241379E+00  0.0000000E+00  0.6666667E-02
    1      -15.740205   1.000000
    2      -14.009975   1.000000
    3      -12.308828   1.000000
    4      -12.305171   1.000000
    5      -10.362464   1.000000
    6       -9.527307   1.000000
    7       -7.515644   1.000000
    8       -7.330005   1.000000
    9       -6.337867   1.000000
   10       -6.063082   1.000000
   11       -5.504610   1.000000
   12       -5.320529   1.000000
   13       -4.434064   1.000000
   14       -4.052288   1.000000
   15       -3.360781   1.000000
   16       -3.352141   1.000000
   17       -2.754790   1.000000
   18       -2.612804   1.000000
   19       -1.412858   0.000000
   20       -0.456862   0.000000
   21        0.056603   0.000000
   22        0.894673   0.000000
   23        1.221910   0.000000
   24        1.436146   0.000000
 
  0.2413793E+00  0.2413793E+00  0.0000000E+00  0.6666667E-02
    1      -15.698581   1.000000
    2      -14.047693   1.000000
    3      -12.328272   1.000000
    4      -12.316967   1.000000
    5      -10.382215   1.000000
    6       -9.578679   1.000000
    7       -7.586001   1.000000
    8       -7.330423   1.000000
    9       -6.272701   1.000000
   10       -6.085298   1.000000
   11       -5.449492   1.000000
   12       -5.275416   1.000000
   13       -4.356340   1.000000
   14       -4.034787   1.000000
   15       -3.348184   1.000000
   16       -3.301480   1.000000
   17       -2.680052   1.000000
   18       -2.563184   1.000000
   19       -1.380455   0.000000
   20       -0.326402   0.000000
   21        0.090001   0.000000
   22        0.771351   0.000000
   23        1.121430   0.000000
   24        1.407473   0.000000
 
  0.2586207E+00  0.2586207E+00  0.0000000E+00  0.6666667E-02
    1      -15.654494   1.000000
    2      -14.088554   1.000000
    3      -12.349841   1.000000
    4      -12.323584   1.000000
    5      -10.401140   1.000000
    6       -9.631780   1.000000
    7       -7.662722   1.000000
    8       -7.341321   1.000000
    9       -6.191705   1.000000
   10       -6.113064   1.000000
   11       -5.371828   1.000000
   12       -5.231268   1.000000
   13       -4.279473   1.000000
   14       -4.022194   1.000000
   15       -3.339568   1.000000
   16       -3.230041   1.000000
   17       -2.621883   1.000000
   18       -2.510804   1.000000
   19       -1.335294   0.000000
   20       -0.200745   0.000000
   21        0.130701   0.000000
   22        0.638735   0.000000
   23        1.027824   0.000000
   24        1.342311   0.000000
 
  0.2758621E+00  0.2758621E+00  0.0000000E+00  0.6666667E-02
    1      -15.608078   1.000000
    2      -14.132372   1.000000
    3      -12.369576   1.000000
    4      -12.328944   1.000000
    5      -10.418638   1.000000
    6       -9.685999   1.000000
    7       -7.741229   1.000000
    8       -7.365325   1.000000
    9       -6.134487   1.000000
   10       -6.099787   1.000000
   11       -5.280832   1.000000
   12       -5.189355   1.000000
   13       -4.205733   1.000000
   14       -4.012068   1.000000
   15       -3.326382   1.000000
   16       -3.150171   1.000000
   17       -2.579745   1.000000
   18       -2.456273   1.000000
   19       -1.275843   0.000000
   20       -0.084206   0.000000
   21        0.178596   0.000000
   22        0.508254   0.000000
   23        0.940039   0.000000
   24        1.252699   0.000000
 
  0.2931034E+00  0.2931034E+00  0.0000000E+00  0.6666667E-02
    1      -15.559475   1.000000
    2      -14.178928   1.000000
    3      -12.387218   1.000000
    4      -12.333389   1.000000
    5      -10.434099   1.000000
    6       -9.740797   1.000000
    7       -7.818091   1.000000
    8       -7.403413   1.000000
    9       -6.143140   1.000000
   10       -6.001257   1.000000
   11       -5.182476   1.000000
   12       -5.150394   1.000000
   13       -4.136655   1.000000
   14       -4.002024   1.000000
   15       -3.309011   1.000000
   16       -3.066769   1.000000
   17       -2.550708   1.000000
   18       -2.400527   1.000000
   19       -1.202042   0.000000
   20        0.011796   0.000000
   21        0.233341   0.000000
   22        0.394250   0.000000
   23        0.862166   0.000000
   24        1.134278   0.000000
 
  0.3103448E+00  0.3103448E+00  0.0000000E+00  0.6666667E-02
    1      -15.508834   1.000000
    2      -14.227979   1.000000
    3      -12.402560   1.000000
    4      -12.337306   1.000000
    5      -10.446933   1.000000
    6       -9.795705   1.000000
    7       -7.890822   1.000000
    8       -7.454647   1.000000
    9       -6.136956   1.000000
   10       -5.900125   1.000000
   11       -5.114373   1.000000
   12       -5.080765   1.000000
   13       -4.073090   1.000000
   14       -3.990175   1.000000
   15       -3.288114   1.000000
   16       -2.986210   1.000000
   17       -2.529057   1.000000
   18       -2.344969   1.000000
   19       -1.115201   0.000000
   20        0.054104   0.000000
   21        0.294306   0.000000
   22        0.331361   0.000000
   23        0.798859   0.000000
   24        1.015103   0.000000
 
  0.3275862E+00  0.3275862E+00  0.0000000E+00  0.6666667E-02
    1      -15.456317   1.000000
    2      -14.279275   1.000000
    3      -12.415448   1.000000
    4      -12.341095   1.000000
    5      -10.456588   1.000000
    6       -9.850322   1.000000
    7       -7.957620   1.000000
    8       -7.516569   1.000000
    9       -6.116695   1.000000
   10       -5.800561   1.000000
   11       -5.080271   1.000000
   12       -4.978819   1.000000
   13       -4.015340   1.000000
   14       -3.975343   1.000000
   15       -3.264475   1.000000
   16       -2.916785   1.000000
   17       -2.506359   1.000000
   18       -2.291558   1.000000
   19       -1.017521   0.000000
   20        0.013606   0.000000
   21        0.344895   0.000000
   22        0.360411   0.000000
   23        0.757653   0.000000
   24        0.892408   0.000000
 
  0.3448276E+00  0.3448276E+00  0.0000000E+00  0.6666667E-02
    1      -15.402093   1.000000
    2      -14.332568   1.000000
    3      -12.425780   1.000000
    4      -12.345132   1.000000
    5      -10.462574   1.000000
    6       -9.904307   1.000000
    7       -8.017180   1.000000
    8       -7.585967   1.000000
    9       -6.084553   1.000000
   10       -5.707322   1.000000
   11       -5.045788   1.000000
   12       -4.879448   1.000000
   13       -3.963403   1.000000
   14       -3.957125   1.000000
   15       -3.238749   1.000000
   16       -2.867382   1.000000
   17       -2.473436   1.000000
   18       -2.242817   1.000000
   19       -0.911558   0.000000
   20       -0.061076   0.000000
   21        0.379221   0.000000
   22        0.429469   0.000000
   23        0.746546   0.000000
   24        0.774337   0.000000
 
  0.3620690E+00  0.3620690E+00  0.0000000E+00  0.6666667E-02
    1      -15.346326   1.000000
    2      -14.387615   1.000000
    3      -12.433505   1.000000
    4      -12.349734   1.000000
    5      -10.464478   1.000000
    6       -9.957361   1.000000
    7       -8.068543   1.000000
    8       -7.659563   1.000000
    9       -6.043163   1.000000
   10       -5.625911   1.000000
   11       -5.007301   1.000000
   12       -4.785390   1.000000
   13       -3.935865   1.000000
   14       -3.917309   1.000000
   15       -3.211184   1.000000
   16       -2.842233   1.000000
   17       -2.426072   1.000000
   18       -2.201604   1.000000
   19       -0.799858   0.000000
   20       -0.130692   0.000000
   21        0.393851   0.000000
   22        0.494075   0.000000
   23        0.670776   0.000000
   24        0.768102   0.000000
 
  0.3793103E+00  0.3793103E+00  0.0000000E+00  0.6666667E-02
    1      -15.289192   1.000000
    2      -14.444185   1.000000
    3      -12.438629   1.000000
    4      -12.355141   1.000000
    5      -10.461985   1.000000
    6      -10.009223   1.000000
    7       -8.111007   1.000000
    8       -7.734413   1.000000
    9       -5.995042   1.000000
   10       -5.561974   1.000000
   11       -4.960661   1.000000
   12       -4.699359   1.000000
   13       -3.912539   1.000000
   14       -3.877406   1.000000
   15       -3.181479   1.000000
   16       -2.837260   1.000000
   17       -2.368887   1.000000
   18       -2.170621   1.000000
   19       -0.684800   0.000000
   20       -0.181783   0.000000
   21        0.388948   0.000000
   22        0.505839   0.000000
   23        0.632569   0.000000
   24        0.807032   0.000000
 
  0.3965517E+00  0.3965517E+00  0.0000000E+00  0.6666667E-02
    1      -15.230868   1.000000
    2      -14.502057   1.000000
    3      -12.441207   1.000000
    4      -12.361486   1.000000
    5      -10.454892   1.000000
    6      -10.059645   1.000000
    7       -8.144071   1.000000
    8       -7.808040   1.000000
    9       -5.942378   1.000000
   10       -5.519520   1.000000
   11       -4.903145   1.000000
   12       -4.623986   1.000000
   13       -3.888567   1.000000
   14       -3.844457   1.000000
   15       -3.148917   1.000000
   16       -2.844388   1.000000
   17       -2.310949   1.000000
   18       -2.151615   1.000000
   19       -0.568588   0.000000
   20       -0.209189   0.000000
   21        0.375946   0.000000
   22        0.439081   0.000000
   23        0.686401   0.000000
   24        0.838741   0.000000
 
  0.4137931E+00  0.4137931E+00  0.0000000E+00  0.6666667E-02
    1      -15.171530   1.000000
    2      -14.561028   1.000000
    3      -12.441358   1.000000
    4      -12.368794   1.000000
    5      -10.443112   1.000000
    6      -10.108392   1.000000
    7       -8.167396   1.000000
    8       -7.878424   1.000000
    9       -5.887023   1.000000
   10       -5.499156   1.000000
   11       -4.835421   1.000000
   12       -4.561736   1.000000
   13       -3.865554   1.000000
   14       -3.819381   1.000000
   15       -3.112891   1.000000
   16       -2.856805   1.000000
   17       -2.260216   1.000000
   18       -2.144591   1.000000
   19       -0.453396   0.000000
   20       -0.211844   0.000000
   21        0.362170   0.000000
   22        0.370965   0.000000
   23        0.755032   0.000000
   24        0.854337   0.000000
 
  0.4310345E+00  0.4310345E+00  0.0000000E+00  0.6666667E-02
    1      -15.111358   1.000000
    2      -14.620903   1.000000
    3      -12.439254   1.000000
    4      -12.376976   1.000000
    5      -10.426671   1.000000
    6      -10.155226   1.000000
    7       -8.180774   1.000000
    8       -7.943944   1.000000
    9       -5.830536   1.000000
   10       -5.498316   1.000000
   11       -4.761472   1.000000
   12       -4.514842   1.000000
   13       -3.844972   1.000000
   14       -3.802647   1.000000
   15       -3.073661   1.000000
   16       -2.870390   1.000000
   17       -2.221627   1.000000
   18       -2.147405   1.000000
   19       -0.341778   0.000000
   20       -0.192171   0.000000
   21        0.317571   0.000000
   22        0.350155   0.000000
   23        0.819382   0.000000
   24        0.844244   0.000000
 
  0.4482759E+00  0.4482759E+00  0.0000000E+00  0.6666667E-02
    1      -15.050528   1.000000
    2      -14.681498   1.000000
    3      -12.435120   1.000000
    4      -12.385845   1.000000
    5      -10.405700   1.000000
    6      -10.199893   1.000000
    7       -8.184123   1.000000
    8       -8.003291   1.000000
    9       -5.774275   1.000000
   10       -5.513142   1.000000
   11       -4.686834   1.000000
   12       -4.485265   1.000000
   13       -3.827844   1.000000
   14       -3.793752   1.000000
   15       -3.032943   1.000000
   16       -2.883507   1.000000
   17       -2.196826   1.000000
   18       -2.156138   1.000000
   19       -0.237617   0.000000
   20       -0.156056   0.000000
   21        0.281339   0.000000
   22        0.338796   0.000000
   23        0.802587   0.000000
   24        0.871964   0.000000
 
  0.4655172E+00  0.4655172E+00  0.0000000E+00  0.6666667E-02
    1      -14.989218   1.000000
    2      -14.742635   1.000000
    3      -12.429235   1.000000
    4      -12.395126   1.000000
    5      -10.380413   1.000000
    6      -10.242118   1.000000
    7       -8.177469   1.000000
    8       -8.055417   1.000000
    9       -5.719469   1.000000
   10       -5.540006   1.000000
   11       -4.617096   1.000000
   12       -4.474548   1.000000
   13       -3.814511   1.000000
   14       -3.791159   1.000000
   15       -2.993769   1.000000
   16       -2.896652   1.000000
   17       -2.184217   1.000000
   18       -2.166181   1.000000
   19       -0.147984   0.000000
   20       -0.112820   0.000000
   21        0.262348   0.000000
   22        0.325149   0.000000
   23        0.762968   0.000000
   24        0.864072   0.000000
 
  0.4827586E+00  0.4827586E+00  0.0000000E+00  0.6666667E-02
    1      -14.927602   1.000000
    2      -14.804142   1.000000
    3      -12.421924   1.000000
    4      -12.404483   1.000000
    5      -10.351087   1.000000
    6      -10.281607   1.000000
    7       -8.160954   1.000000
    8       -8.099485   1.000000
    9       -5.667309   1.000000
   10       -5.576031   1.000000
   11       -4.557294   1.000000
   12       -4.483487   1.000000
   13       -3.804645   1.000000
   14       -3.792926   1.000000
   15       -2.959472   1.000000
   16       -2.911953   1.000000
   17       -2.179610   1.000000
   18       -2.173791   1.000000
   19       -0.085030   0.000000
   20       -0.075645   0.000000
   21        0.261804   0.000000
   22        0.304671   0.000000
   23        0.744146   0.000000
   24        0.794457   0.000000
 
  0.5000000E+00  0.5000000E+00  0.0000000E+00  0.6666667E-02
    1      -14.865868   1.000000
    2      -14.865836   1.000000
    3      -12.413552   1.000000
    4      -12.413537   1.000000
    5      -10.318056   1.000000
    6      -10.318022   1.000000
    7       -8.134838   1.000000
    8       -8.134829   1.000000
    9       -5.619042   1.000000
   10       -5.619019   1.000000
   11       -4.511693   1.000000
   12       -4.511680   1.000000
   13       -3.797590   1.000000
   14       -3.797570   1.000000
   15       -2.932220   1.000000
   16       -2.932203   1.000000
   17       -2.177641   1.000000
   18       -2.177639   1.000000
   19       -0.061311   0.000000
   20       -0.061269   0.000000
   21        0.279358   0.000000
   22        0.279619   0.000000
   23        0.748216   0.000000
   24        0.754384   0.000000
