 vasp.5.4.4.18Apr17-6-g9f103f2a35 (build Jul 15 2017 10:54:59) complex          
  
 executed on             LinuxIFC date 2017.12.13  13:53:41
 running on   24 total cores
 distrk:  each k-point on   24 cores,    1 groups
 distr:  one band on NCORES_PER_BAND=   1 cores,   24 groups


--------------------------------------------------------------------------------------------------------


 INCAR:
 POTCAR:    PAW_PBE P 06Sep2000                   
 POTCAR:    PAW_PBE In 08Apr2002                  

 ----------------------------------------------------------------------------- 
|                                                                             |
|           W    W    AA    RRRRR   N    N  II  N    N   GGGG   !!!           |
|           W    W   A  A   R    R  NN   N  II  NN   N  G    G  !!!           |
|           W    W  A    A  R    R  N N  N  II  N N  N  G       !!!           |
|           W WW W  AAAAAA  RRRRR   N  N N  II  N  N N  G  GGG   !            |
|           WW  WW  A    A  R   R   N   NN  II  N   NN  G    G                |
|           W    W  A    A  R    R  N    N  II  N    N   GGGG   !!!           |
|                                                                             |
|      For optimal performance we recommend to set                            |
|        NCORE= 4 - approx SQRT( number of cores)                             |
|      NCORE specifies how many cores store one orbital (NPAR=cpu/NCORE).     |
|      This setting can  greatly improve the performance of VASP for DFT.     |
|      The default,   NCORE=1            might be grossly inefficient         |
|      on modern multi-core architectures or massively parallel machines.     |
|      Do your own testing !!!!                                               |
|      Unfortunately you need to use the default for GW and RPA calculations. |
|      (for HF NCORE is supported but not extensively tested yet)             |
|                                                                             |
 ----------------------------------------------------------------------------- 

 POTCAR:    PAW_PBE P 06Sep2000                   
   VRHFIN =P : s2p3                                                             
   LEXCH  = PE                                                                  
   EATOM  =   176.0430 eV,   12.9388 Ry                                         
                                                                                
   TITEL  = PAW_PBE P 06Sep2000                                                 
   LULTRA =        F    use ultrasoft PP ?                                      
   IUNSCR =        1    unscreen: 0-lin 1-nonlin 2-no                           
   RPACOR =    1.500    partial core radius                                     
   POMASS =   30.974; ZVAL   =    5.000    mass and valenz                      
   RCORE  =    1.900    outmost cutoff radius                                   
   RWIGS  =    2.330; RWIGS  =    1.233    wigner-seitz radius (au A)           
   ENMAX  =  255.040; ENMIN  =  191.280 eV                                      
   ICORE  =        2    local potential                                         
   LCOR   =        T    correct aug charges                                     
   LPAW   =        T    paw PP                                                  
   EAUG   =  342.924                                                            
   DEXC   =    0.000                                                            
   RMAX   =    1.935    core radius for proj-oper                               
   RAUG   =    1.300    factor for augmentation sphere                          
   RDEP   =    1.931    radius for radial grids                                 
   RDEPT  =    1.794    core radius for aug-charge                              
                                                                                
   Atomic configuration                                                         
    6 entries                                                                   
     n  l   j            E        occ.                                          
     1  0  0.50     -2084.0982   2.0000                                         
     2  0  0.50      -173.9859   2.0000                                         
     2  1  1.50      -124.4865   6.0000                                         
     3  0  0.50       -13.9692   2.0000                                         
     3  1  0.50        -5.5067   3.0000                                         
     3  2  1.50        -5.4423   0.0000                                         
   Description                                                                  
     l       E           TYP  RCUT    TYP  RCUT                                 
     0    -13.9691527     23  1.900                                             
     0    -11.7794650     23  1.900                                             
     1     -5.5066937     23  1.900                                             
     1     -0.2556953     23  1.900                                             
     2     -5.4423304     23  1.900                                             
  local pseudopotential read in
  partial core-charges read in
  partial kinetic energy density read in
  atomic valenz-charges read in
  non local Contribution for L=           0  read in
    real space projection operators read in
  non local Contribution for L=           0  read in
    real space projection operators read in
  non local Contribution for L=           1  read in
    real space projection operators read in
  non local Contribution for L=           1  read in
    real space projection operators read in
    PAW grid and wavefunctions read in
 
   number of l-projection  operators is LMAX  =           4
   number of lm-projection operators is LMMAX =           8
 
 POTCAR:    PAW_PBE In 08Apr2002                  
   VRHFIN =In: s2p1                                                             
   LEXCH  = PE                                                                  
   EATOM  =    53.7908 eV,    3.9535 Ry                                         
                                                                                
   TITEL  = PAW_PBE In 08Apr2002                                                
   LULTRA =        F    use ultrasoft PP ?                                      
   IUNSCR =        1    unscreen: 0-lin 1-nonlin 2-no                           
   RPACOR =    2.400    partial core radius                                     
   POMASS =  114.820; ZVAL   =    3.000    mass and valenz                      
   RCORE  =    3.100    outmost cutoff radius                                   
   RWIGS  =    3.170; RWIGS  =    1.677    wigner-seitz radius (au A)           
   ENMAX  =   95.934; ENMIN  =   71.951 eV                                      
   ICORE  =        3    local potential                                         
   LCOR   =        T    correct aug charges                                     
   LPAW   =        T    paw PP                                                  
   EAUG   =  237.125                                                            
   DEXC   =    0.000                                                            
   RMAX   =    3.168    core radius for proj-oper                               
   RAUG   =    1.300    factor for augmentation sphere                          
   RDEP   =    3.187    radius for radial grids                                 
   RDEPT  =    2.711    core radius for aug-charge                              
                                                                                
   Atomic configuration                                                         
   13 entries                                                                   
     n  l   j            E        occ.                                          
     1  0  0.50    -27747.9169   2.0000                                         
     2  0  0.50     -4154.4438   2.0000                                         
     2  1  1.50     -3728.4305   6.0000                                         
     3  0  0.50      -788.3680   2.0000                                         
     3  1  1.50      -648.9215   6.0000                                         
     3  2  2.50      -432.5893  10.0000                                         
     4  0  0.50      -119.6363   2.0000                                         
     4  1  1.50       -78.1086   6.0000                                         
     4  2  2.50       -18.6227  10.0000                                         
     5  0  0.50        -8.2107   2.0000                                         
     5  1  0.50        -2.5185   1.0000                                         
     5  2  2.50        -1.3606   0.0000                                         
     4  3  2.50        -2.7212   0.0000                                         
   Description                                                                  
     l       E           TYP  RCUT    TYP  RCUT                                 
     0     -8.2107306     23  3.100                                             
     0     -6.1485975     23  3.100                                             
     1     -2.5184867     23  3.100                                             
     1      3.2427302     23  3.100                                             
     2     -1.3605826     23  3.100                                             
     3     -1.3605826     23  3.100                                             
  local pseudopotential read in
  partial core-charges read in
  partial kinetic energy density read in
  atomic valenz-charges read in
  non local Contribution for L=           0  read in
    real space projection operators read in
  non local Contribution for L=           0  read in
    real space projection operators read in
  non local Contribution for L=           1  read in
    real space projection operators read in
  non local Contribution for L=           1  read in
    real space projection operators read in
  non local Contribution for L=           2  read in
    real space projection operators read in
    PAW grid and wavefunctions read in
 
   number of l-projection  operators is LMAX  =           5
   number of lm-projection operators is LMMAX =          13
 
  PAW_PBE P 06Sep2000                   :
 energy of atom  1       EATOM= -176.0430
 kinetic energy error for atom=    0.0013 (will be added to EATOM!!)
  PAW_PBE In 08Apr2002                  :
 energy of atom  2       EATOM=  -53.7908
 kinetic energy error for atom=    0.0000 (will be added to EATOM!!)
 
 
 POSCAR: deta\(2)                                
  positions in direct lattice
  velocities in cartesian coordinates
 exchange correlation table for  LEXCH =        8
   RHO(1)=    0.500       N(1)  =     2000
   RHO(2)=  100.500       N(2)  =     4000

 VTST: version 3.1, (03/28/14)

 CHAIN: initializing optimizer
 
 OPT: Using VASP Dynamics algorithm
 CHAIN: Read ICHAIN            0
 
 POSCAR: deta\(2)                                
  positions in direct lattice
  velocities in cartesian coordinates
 


--------------------------------------------------------------------------------------------------------


 ion  position               nearest neighbor table
   1  0.952  0.267  0.550-   5 2.23   6 2.24   8 2.68   8 2.96
   2  0.006  0.694  0.429-   6 2.22   7 2.67   8 2.70   7 2.76
   3  0.452  0.267  0.450-   6 2.23   5 2.24   7 2.68   7 2.96
   4  0.506  0.694  0.571-   5 2.22   8 2.67   7 2.70   8 2.76
   5  0.531  0.304  0.553-   4 2.22   1 2.23   3 2.24
   6  0.031  0.304  0.447-   2 2.22   3 2.23   1 2.24
   7  0.511  0.790  0.446-   2 2.67   3 2.68   4 2.70   2 2.76   3 2.96   8 3.50   8 3.50
   8  0.011  0.790  0.554-   4 2.67   1 2.68   2 2.70   4 2.76   1 2.96   7 3.50   7 3.50
 
  LATTYP: Found a simple monoclinic cell.
 ALAT       =     7.8611701269
 B/A-ratio  =     2.7042121051
 C/A-ratio  =     1.5470965569
 COS(beta)  =    -0.9508522463
  
  Lattice vectors:
  
 A1 = (  -5.3867898819,  -5.7254249216,   0.0000056431)
 A2 = (  -0.0000034176,   0.0000078726, -21.2582714172)
 A3 = (  10.6670609994,   5.8418996761,  -0.0000110160)


Analysis of symmetry for initial positions (statically):
=====================================================================
 Subroutine PRICEL returns:
 Original cell was already a primitive cell.
 

 Routine SETGRP: Setting up the symmetry group for a 
 simple monoclinic supercell.


 Subroutine GETGRP returns: Found  2 space group operations
 (whereof  1 operations were pure point group operations)
 out of a pool of  4 trial point group operations.


The static configuration has the point symmetry C_1 .
 The point group associated with its full space group is C_1h.


Analysis of symmetry for dynamics (positions and initial velocities):
=====================================================================
 Subroutine PRICEL returns:
 Original cell was already a primitive cell.
 

 Routine SETGRP: Setting up the symmetry group for a 
 simple monoclinic supercell.


 Subroutine GETGRP returns: Found  2 space group operations
 (whereof  1 operations were pure point group operations)
 out of a pool of  4 trial point group operations.


The dynamic configuration has the point symmetry C_1 .
 The point group associated with its full space group is C_1h.


 Subroutine INISYM returns: Found  2 space group operations
 (whereof  1 operations are pure point group operations),
 and found     1 'primitive' translations

 
 
 KPOINTS: KPATH for Bandstructure Calculation. See
  interpolating k-points between supplied coordinates
  k-points in reciprocal lattice
Space group operators:
 irot       det(A)        alpha          n_x          n_y          n_z        tau_x        tau_y        tau_z
    1     1.000000     0.000001     1.000000     0.000000     0.000000     0.000000     0.000000     0.000000
    2    -1.000000   179.999999    -0.000001    -0.000000    -1.000000     0.500000    -0.000000    -0.999995


--------------------------------------------------------------------------------------------------------




 Dimension of arrays:
   k-points           NKPTS =    150   k-points in BZ     NKDIM =    150   number of bands    NBANDS=     24
   number of dos      NEDOS =    301   number of ions     NIONS =      8
   non local maximal  LDIM  =      5   non local SUM 2l+1 LMDIM =     13
   total plane-waves  NPLWV = 115200
   max r-space proj   IRMAX =      1   max aug-charges    IRDMAX=  20847
   dimension x,y,z NGX =    30 NGY =   32 NGZ =  120
   dimension x,y,z NGXF=    60 NGYF=   64 NGZF=  240
   support grid    NGXF=    60 NGYF=   64 NGZF=  240
   ions per type =               6   2
   NGX,Y,Z   is equivalent  to a cutoff of   9.44,  9.48,  9.38 a.u.
   NGXF,Y,Z  is equivalent  to a cutoff of  18.89, 18.97, 18.77 a.u.

 SYSTEM =  AlN 0001 surface 2x2 Ga_T4              
 POSCAR =  deta\(2)                                

 Startparameter for this run:
   NWRITE =      2    write-flag & timer
   PREC   = normal    normal or accurate (medium, high low for compatibility)
   ISTART =      0    job   : 0-new  1-cont  2-samecut
   ICHARG =     11    charge: 1-file 2-atom 10-const
   ISPIN  =      1    spin polarized calculation?
   LNONCOLLINEAR =      F non collinear calculations
   LSORBIT =      F    spin-orbit coupling
   INIWAV =      1    electr: 0-lowe 1-rand  2-diag
   LASPH  =      F    aspherical Exc in radial PAW
   METAGGA=      F    non-selfconsistent MetaGGA calc.

 Electronic Relaxation 1
   ENCUT  =  500.0 eV  36.75 Ry    6.06 a.u.   9.63 10.23 38.76*2*pi/ulx,y,z
   ENINI  =  500.0     initial cutoff
   ENAUG  =  342.9 eV  augmentation charge cutoff
   NELM   =     60;   NELMIN=  2; NELMDL= -5     # of ELM steps 
   EDIFF  = 0.1E-04   stopping-criterion for ELM
   LREAL  =      F    real-space projection
   NLSPLINE    = F    spline interpolate recip. space projectors
   LCOMPAT=      F    compatible to vasp.4.4
   GGA_COMPAT  = T    GGA compatible to vasp.4.4-vasp.4.6
   LMAXPAW     = -100 max onsite density
   LMAXMIX     =    2 max onsite mixed and CHGCAR
   VOSKOWN=      0    Vosko Wilk Nusair interpolation
   ROPT   =    0.00000   0.00000
 Ionic relaxation
   EDIFFG = -.2E-01   stopping-criterion for IOM
   NSW    =      0    number of steps for IOM
   NBLOCK =      1;   KBLOCK =      1    inner block; outer block 
   IBRION =     -1    ionic relax: 0-MD 1-quasi-New 2-CG
   NFREE  =      0    steps in history (QN), initial steepest desc. (CG)
   ISIF   =      2    stress and relaxation
   IWAVPR =     10    prediction:  0-non 1-charg 2-wave 3-comb
   ISYM   =      2    0-nonsym 1-usesym 2-fastsym
   LCORR  =      T    Harris-Foulkes like correction to forces

   POTIM  = 0.5000    time-step for ionic-motion
   TEIN   =    0.0    initial temperature
   TEBEG  =    0.0;   TEEND  =   0.0 temperature during run
   SMASS  =  -3.00    Nose mass-parameter (am)
   estimated Nose-frequenzy (Omega)   =  0.10E-29 period in steps =****** mass=  -0.637E-27a.u.
   SCALEE = 1.0000    scale energy and forces
   NPACO  =    256;   APACO  = 16.0  distance and # of slots for P.C.
   PSTRESS=    0.0 pullay stress

  Mass of Ions in am
   POMASS =  30.97114.82
  Ionic Valenz
   ZVAL   =   5.00  3.00
  Atomic Wigner-Seitz radii
   RWIGS  =  -1.00 -1.00
  virtual crystal weights 
   VCA    =   1.00  1.00
   NELECT =      36.0000    total number of electrons
   NUPDOWN=      -1.0000    fix difference up-down

 DOS related values:
   EMIN   =  10.00;   EMAX   =-10.00  energy-range for DOS
   EFERMI =   0.00
   ISMEAR =     0;   SIGMA  =   0.01  broadening in eV -4-tet -1-fermi 0-gaus

 Electronic relaxation 2 (details)
   IALGO  =     38    algorithm
   LDIAG  =      T    sub-space diagonalisation (order eigenvalues)
   LSUBROT=      F    optimize rotation matrix (better conditioning)
   TURBO    =      0    0=normal 1=particle mesh
   IRESTART =      0    0=no restart 2=restart with 2 vectors
   NREBOOT  =      0    no. of reboots
   NMIN     =      0    reboot dimension
   EREF     =   0.00    reference energy to select bands
   IMIX   =      4    mixing-type and parameters
     AMIX     =   0.40;   BMIX     =  1.00
     AMIX_MAG =   1.60;   BMIX_MAG =  1.00
     AMIN     =   0.10
     WC   =   100.;   INIMIX=   1;  MIXPRE=   1;  MAXMIX= -45

 Intra band minimization:
   WEIMIN = 0.0000     energy-eigenvalue tresh-hold
   EBREAK =  0.10E-06  absolut break condition
   DEPER  =   0.30     relativ break condition  

   TIME   =   0.40     timestep for ELM

  volume/ion in A,a.u.               =      78.67       530.87
  Fermi-wavevector in a.u.,A,eV,Ry     =   0.630785  1.192010  5.413611  0.397889
  Thomas-Fermi vector in A             =   1.693536
 
 Write flags
   LWAVE        =      F    write WAVECAR
   LDOWNSAMPLE  =      F    k-point downsampling of WAVECAR
   LCHARG       =      F    write CHGCAR
   LVTOT        =      F    write LOCPOT, total local potential
   LVHAR        =      F    write LOCPOT, Hartree potential only
   LELF         =      F    write electronic localiz. function (ELF)
   LORBIT       =      0    0 simple, 1 ext, 2 COOP (PROOUT), +10 PAW based schemes


 Dipole corrections
   LMONO  =      F    monopole corrections only (constant potential shift)
   LDIPOL =      F    correct potential (dipole corrections)
   IDIPOL =      0    1-x, 2-y, 3-z, 4-all directions 
   EPSILON=  1.0000000 bulk dielectric constant

 Exchange correlation treatment:
   GGA     =    PE    GGA type
   LEXCH   =     8    internal setting for exchange type
   VOSKOWN=      0    Vosko Wilk Nusair interpolation
   LHFCALC =     F    Hartree Fock is set to
   LHFONE  =     F    Hartree Fock one center treatment
   AEXX    =    0.0000 exact exchange contribution

 Linear response parameters
   LEPSILON=     F    determine dielectric tensor
   LRPA    =     F    only Hartree local field effects (RPA)
   LNABLA  =     F    use nabla operator in PAW spheres
   LVEL    =     F    velocity operator in full k-point grid
   LINTERFAST=   F  fast interpolation
   KINTER  =     0    interpolate to denser k-point grid
   CSHIFT  =0.1000    complex shift for real part using Kramers Kronig
   OMEGAMAX=  -1.0    maximum frequency
   DEG_THRESHOLD= 0.2000000E-02 threshold for treating states as degnerate
   RTIME   =   -0.100 relaxation time in fs
  (WPLASMAI=    0.000 imaginary part of plasma frequency in eV, 0.658/RTIME)
   DFIELD  = 0.0000000 0.0000000 0.0000000 field for delta impulse in time
 
 Orbital magnetization related:
   ORBITALMAG=     F  switch on orbital magnetization
   LCHIMAG   =     F  perturbation theory with respect to B field
   DQ        =  0.001000  dq finite difference perturbation B field
   LLRAUG    =     F  two centre corrections for induced B field



--------------------------------------------------------------------------------------------------------


 Static calculation
 charge density and potential remain constant during run
 non-spin polarized calculation
 Variant of blocked Davidson
 Davidson routine will perform the subspace rotation
 perform sub-space diagonalisation
    after iterative eigenvector-optimisation
 no mixing
 using additional bands            6
 reciprocal scheme for non local part
 use partial core corrections
 calculate Harris-corrections to forces 
   (improved forces if not selfconsistent)
 use gradient corrections 
 WARNING: stress and forces are not correct
  (second derivative of E(xc) not defined)
 use of overlap-Matrix (Vanderbilt PP)
 Gauss-broadening in eV      SIGMA  =   0.01


--------------------------------------------------------------------------------------------------------


  energy-cutoff  :      500.00
  volume of cell :      629.34
      direct lattice vectors                 reciprocal lattice vectors
     5.280271118  0.116474754 -0.000005373     0.189463583 -0.003598076 -0.000000032
     0.106518764  5.608950167 -0.000000270    -0.003934377  0.178361200  0.000000067
     0.000003418 -0.000007873 21.258271417     0.000000048  0.000000001  0.047040513

  length of vectors
     5.281555589  5.609961517 21.258271417     0.189497745  0.178404588  0.047040513


 
 k-points in units of 2pi/SCALE and weight: KPATH for Bandstructure Calculation. See
   0.00000000  0.00000000  0.00000000       0.007
  -0.00006783  0.00307519  0.00000000       0.007
  -0.00013567  0.00615039  0.00000000       0.007
  -0.00020350  0.00922558  0.00000000       0.007
  -0.00027134  0.01230077  0.00000000       0.007
  -0.00033917  0.01537597  0.00000001       0.007
  -0.00040700  0.01845116  0.00000001       0.007
  -0.00047484  0.02152635  0.00000001       0.007
  -0.00054267  0.02460154  0.00000001       0.007
  -0.00061051  0.02767674  0.00000001       0.007
  -0.00067834  0.03075193  0.00000001       0.007
  -0.00074617  0.03382712  0.00000001       0.007
  -0.00081401  0.03690232  0.00000001       0.007
  -0.00088184  0.03997751  0.00000001       0.007
  -0.00094968  0.04305270  0.00000002       0.007
  -0.00101751  0.04612790  0.00000002       0.007
  -0.00108535  0.04920309  0.00000002       0.007
  -0.00115318  0.05227828  0.00000002       0.007
  -0.00122101  0.05535348  0.00000002       0.007
  -0.00128885  0.05842867  0.00000002       0.007
  -0.00135668  0.06150386  0.00000002       0.007
  -0.00142452  0.06457906  0.00000002       0.007
  -0.00149235  0.06765425  0.00000003       0.007
  -0.00156018  0.07072944  0.00000003       0.007
  -0.00162802  0.07380463  0.00000003       0.007
  -0.00169585  0.07687983  0.00000003       0.007
  -0.00176369  0.07995502  0.00000003       0.007
  -0.00183152  0.08303021  0.00000003       0.007
  -0.00189935  0.08610541  0.00000003       0.007
  -0.00196719  0.08918060  0.00000003       0.007
  -0.00196719  0.08918060  0.00000003       0.007
   0.00129943  0.08911856  0.00000003       0.007
   0.00456604  0.08905653  0.00000003       0.007
   0.00783265  0.08899449  0.00000003       0.007
   0.01109927  0.08893246  0.00000003       0.007
   0.01436588  0.08887042  0.00000003       0.007
   0.01763249  0.08880839  0.00000003       0.007
   0.02089911  0.08874635  0.00000003       0.007
   0.02416572  0.08868431  0.00000003       0.007
   0.02743233  0.08862228  0.00000003       0.007
   0.03069895  0.08856024  0.00000003       0.007
   0.03396556  0.08849821  0.00000003       0.007
   0.03723217  0.08843617  0.00000003       0.007
   0.04049879  0.08837413  0.00000003       0.007
   0.04376540  0.08831210  0.00000003       0.007
   0.04703201  0.08825006  0.00000003       0.007
   0.05029863  0.08818803  0.00000002       0.007
   0.05356524  0.08812599  0.00000002       0.007
   0.05683185  0.08806396  0.00000002       0.007
   0.06009847  0.08800192  0.00000002       0.007
   0.06336508  0.08793988  0.00000002       0.007
   0.06663170  0.08787785  0.00000002       0.007
   0.06989831  0.08781581  0.00000002       0.007
   0.07316492  0.08775378  0.00000002       0.007
   0.07643154  0.08769174  0.00000002       0.007
   0.07969815  0.08762971  0.00000002       0.007
   0.08296476  0.08756767  0.00000002       0.007
   0.08623138  0.08750563  0.00000002       0.007
   0.08949799  0.08744360  0.00000002       0.007
   0.09276460  0.08738156  0.00000002       0.007
   0.09276460  0.08738156  0.00000002       0.007
   0.09283244  0.08430637  0.00000002       0.007
   0.09290027  0.08123118  0.00000002       0.007
   0.09296811  0.07815598  0.00000001       0.007
   0.09303594  0.07508079  0.00000001       0.007
   0.09310377  0.07200560  0.00000001       0.007
   0.09317161  0.06893040  0.00000001       0.007
   0.09323944  0.06585521  0.00000001       0.007
   0.09330728  0.06278002  0.00000001       0.007
   0.09337511  0.05970482  0.00000001       0.007
   0.09344294  0.05662963  0.00000001       0.007
   0.09351078  0.05355444  0.00000000       0.007
   0.09357861  0.05047925  0.00000000       0.007
   0.09364645  0.04740405  0.00000000       0.007
   0.09371428  0.04432886  0.00000000       0.007
   0.09378211  0.04125367  0.00000000       0.007
   0.09384995  0.03817847 -0.00000000       0.007
   0.09391778  0.03510328 -0.00000000       0.007
   0.09398562  0.03202809 -0.00000000       0.007
   0.09405345  0.02895289 -0.00000000       0.007
   0.09412128  0.02587770 -0.00000001       0.007
   0.09418912  0.02280251 -0.00000001       0.007
   0.09425695  0.01972731 -0.00000001       0.007
   0.09432479  0.01665212 -0.00000001       0.007
   0.09439262  0.01357693 -0.00000001       0.007
   0.09446046  0.01050173 -0.00000001       0.007
   0.09452829  0.00742654 -0.00000001       0.007
   0.09459612  0.00435135 -0.00000001       0.007
   0.09466396  0.00127616 -0.00000001       0.007
   0.09473179 -0.00179904 -0.00000002       0.007
   0.09473179 -0.00179904 -0.00000002       0.007
   0.09146518 -0.00173700 -0.00000002       0.007
   0.08819856 -0.00167497 -0.00000001       0.007
   0.08493195 -0.00161293 -0.00000001       0.007
   0.08166534 -0.00155089 -0.00000001       0.007
   0.07839872 -0.00148886 -0.00000001       0.007
   0.07513211 -0.00142682 -0.00000001       0.007
   0.07186550 -0.00136479 -0.00000001       0.007
   0.06859888 -0.00130275 -0.00000001       0.007
   0.06533227 -0.00124072 -0.00000001       0.007
   0.06206566 -0.00117868 -0.00000001       0.007
   0.05879904 -0.00111664 -0.00000001       0.007
   0.05553243 -0.00105461 -0.00000001       0.007
   0.05226582 -0.00099257 -0.00000001       0.007
   0.04899920 -0.00093054 -0.00000001       0.007
   0.04573259 -0.00086850 -0.00000001       0.007
   0.04246598 -0.00080647 -0.00000001       0.007
   0.03919936 -0.00074443 -0.00000001       0.007
   0.03593275 -0.00068239 -0.00000001       0.007
   0.03266613 -0.00062036 -0.00000001       0.007
   0.02939952 -0.00055832 -0.00000000       0.007
   0.02613291 -0.00049629 -0.00000000       0.007
   0.02286629 -0.00043425 -0.00000000       0.007
   0.01959968 -0.00037221 -0.00000000       0.007
   0.01633307 -0.00031018 -0.00000000       0.007
   0.01306645 -0.00024814 -0.00000000       0.007
   0.00979984 -0.00018611 -0.00000000       0.007
   0.00653323 -0.00012407 -0.00000000       0.007
   0.00326661 -0.00006204 -0.00000000       0.007
   0.00000000  0.00000000  0.00000000       0.007
   0.00000000  0.00000000  0.00000000       0.007
   0.00319878  0.00301316  0.00000000       0.007
   0.00639756  0.00602631  0.00000000       0.007
   0.00959634  0.00903947  0.00000000       0.007
   0.01279512  0.01205263  0.00000000       0.007
   0.01599390  0.01506579  0.00000000       0.007
   0.01919268  0.01807894  0.00000000       0.007
   0.02239146  0.02109210  0.00000000       0.007
   0.02559024  0.02410526  0.00000000       0.007
   0.02878901  0.02711842  0.00000001       0.007
   0.03198779  0.03013157  0.00000001       0.007
   0.03518657  0.03314473  0.00000001       0.007
   0.03838535  0.03615789  0.00000001       0.007
   0.04158413  0.03917105  0.00000001       0.007
   0.04478291  0.04218420  0.00000001       0.007
   0.04798169  0.04519736  0.00000001       0.007
   0.05118047  0.04821052  0.00000001       0.007
   0.05437925  0.05122367  0.00000001       0.007
   0.05757803  0.05423683  0.00000001       0.007
   0.06077681  0.05724999  0.00000001       0.007
   0.06397559  0.06026315  0.00000001       0.007
   0.06717437  0.06327630  0.00000001       0.007
   0.07037315  0.06628946  0.00000001       0.007
   0.07357193  0.06930262  0.00000001       0.007
   0.07677071  0.07231578  0.00000001       0.007
   0.07996949  0.07532893  0.00000002       0.007
   0.08316826  0.07834209  0.00000002       0.007
   0.08636704  0.08135525  0.00000002       0.007
   0.08956582  0.08436841  0.00000002       0.007
   0.09276460  0.08738156  0.00000002       0.007
 
 k-points in reciprocal lattice and weights: KPATH for Bandstructure Calculation. See
   0.00000000  0.00000000  0.00000000       0.007
   0.00000000  0.01724138  0.00000000       0.007
   0.00000000  0.03448276  0.00000000       0.007
   0.00000000  0.05172414  0.00000000       0.007
   0.00000000  0.06896552  0.00000000       0.007
   0.00000000  0.08620690  0.00000000       0.007
   0.00000000  0.10344828  0.00000000       0.007
   0.00000000  0.12068966  0.00000000       0.007
   0.00000000  0.13793103  0.00000000       0.007
   0.00000000  0.15517241  0.00000000       0.007
   0.00000000  0.17241379  0.00000000       0.007
   0.00000000  0.18965517  0.00000000       0.007
   0.00000000  0.20689655  0.00000000       0.007
   0.00000000  0.22413793  0.00000000       0.007
   0.00000000  0.24137931  0.00000000       0.007
   0.00000000  0.25862069  0.00000000       0.007
   0.00000000  0.27586207  0.00000000       0.007
   0.00000000  0.29310345  0.00000000       0.007
   0.00000000  0.31034483  0.00000000       0.007
   0.00000000  0.32758621  0.00000000       0.007
   0.00000000  0.34482759  0.00000000       0.007
   0.00000000  0.36206897  0.00000000       0.007
   0.00000000  0.37931034  0.00000000       0.007
   0.00000000  0.39655172  0.00000000       0.007
   0.00000000  0.41379310  0.00000000       0.007
   0.00000000  0.43103448  0.00000000       0.007
   0.00000000  0.44827586  0.00000000       0.007
   0.00000000  0.46551724  0.00000000       0.007
   0.00000000  0.48275862  0.00000000       0.007
   0.00000000  0.50000000  0.00000000       0.007
   0.00000000  0.50000000  0.00000000       0.007
   0.01724138  0.50000000  0.00000000       0.007
   0.03448276  0.50000000  0.00000000       0.007
   0.05172414  0.50000000  0.00000000       0.007
   0.06896552  0.50000000  0.00000000       0.007
   0.08620690  0.50000000  0.00000000       0.007
   0.10344828  0.50000000  0.00000000       0.007
   0.12068966  0.50000000  0.00000000       0.007
   0.13793103  0.50000000  0.00000000       0.007
   0.15517241  0.50000000  0.00000000       0.007
   0.17241379  0.50000000  0.00000000       0.007
   0.18965517  0.50000000  0.00000000       0.007
   0.20689655  0.50000000  0.00000000       0.007
   0.22413793  0.50000000  0.00000000       0.007
   0.24137931  0.50000000  0.00000000       0.007
   0.25862069  0.50000000  0.00000000       0.007
   0.27586207  0.50000000  0.00000000       0.007
   0.29310345  0.50000000  0.00000000       0.007
   0.31034483  0.50000000  0.00000000       0.007
   0.32758621  0.50000000  0.00000000       0.007
   0.34482759  0.50000000  0.00000000       0.007
   0.36206897  0.50000000  0.00000000       0.007
   0.37931034  0.50000000  0.00000000       0.007
   0.39655172  0.50000000  0.00000000       0.007
   0.41379310  0.50000000  0.00000000       0.007
   0.43103448  0.50000000  0.00000000       0.007
   0.44827586  0.50000000  0.00000000       0.007
   0.46551724  0.50000000  0.00000000       0.007
   0.48275862  0.50000000  0.00000000       0.007
   0.50000000  0.50000000  0.00000000       0.007
   0.50000000  0.50000000  0.00000000       0.007
   0.50000000  0.48275862  0.00000000       0.007
   0.50000000  0.46551724  0.00000000       0.007
   0.50000000  0.44827586  0.00000000       0.007
   0.50000000  0.43103448  0.00000000       0.007
   0.50000000  0.41379310  0.00000000       0.007
   0.50000000  0.39655172  0.00000000       0.007
   0.50000000  0.37931034  0.00000000       0.007
   0.50000000  0.36206897  0.00000000       0.007
   0.50000000  0.34482759  0.00000000       0.007
   0.50000000  0.32758621  0.00000000       0.007
   0.50000000  0.31034483  0.00000000       0.007
   0.50000000  0.29310345  0.00000000       0.007
   0.50000000  0.27586207  0.00000000       0.007
   0.50000000  0.25862069  0.00000000       0.007
   0.50000000  0.24137931  0.00000000       0.007
   0.50000000  0.22413793  0.00000000       0.007
   0.50000000  0.20689655  0.00000000       0.007
   0.50000000  0.18965517  0.00000000       0.007
   0.50000000  0.17241379  0.00000000       0.007
   0.50000000  0.15517241  0.00000000       0.007
   0.50000000  0.13793103  0.00000000       0.007
   0.50000000  0.12068966  0.00000000       0.007
   0.50000000  0.10344828  0.00000000       0.007
   0.50000000  0.08620690  0.00000000       0.007
   0.50000000  0.06896552  0.00000000       0.007
   0.50000000  0.05172414  0.00000000       0.007
   0.50000000  0.03448276  0.00000000       0.007
   0.50000000  0.01724138  0.00000000       0.007
   0.50000000  0.00000000  0.00000000       0.007
   0.50000000  0.00000000  0.00000000       0.007
   0.48275862  0.00000000  0.00000000       0.007
   0.46551724  0.00000000  0.00000000       0.007
   0.44827586  0.00000000  0.00000000       0.007
   0.43103448  0.00000000  0.00000000       0.007
   0.41379310  0.00000000  0.00000000       0.007
   0.39655172  0.00000000  0.00000000       0.007
   0.37931034  0.00000000  0.00000000       0.007
   0.36206897  0.00000000  0.00000000       0.007
   0.34482759  0.00000000  0.00000000       0.007
   0.32758621  0.00000000  0.00000000       0.007
   0.31034483  0.00000000  0.00000000       0.007
   0.29310345  0.00000000  0.00000000       0.007
   0.27586207  0.00000000  0.00000000       0.007
   0.25862069  0.00000000  0.00000000       0.007
   0.24137931  0.00000000  0.00000000       0.007
   0.22413793  0.00000000  0.00000000       0.007
   0.20689655  0.00000000  0.00000000       0.007
   0.18965517  0.00000000  0.00000000       0.007
   0.17241379  0.00000000  0.00000000       0.007
   0.15517241  0.00000000  0.00000000       0.007
   0.13793103  0.00000000  0.00000000       0.007
   0.12068966  0.00000000  0.00000000       0.007
   0.10344828  0.00000000  0.00000000       0.007
   0.08620690  0.00000000  0.00000000       0.007
   0.06896552  0.00000000  0.00000000       0.007
   0.05172414  0.00000000  0.00000000       0.007
   0.03448276  0.00000000  0.00000000       0.007
   0.01724138  0.00000000  0.00000000       0.007
   0.00000000  0.00000000  0.00000000       0.007
   0.00000000  0.00000000  0.00000000       0.007
   0.01724138  0.01724138  0.00000000       0.007
   0.03448276  0.03448276  0.00000000       0.007
   0.05172414  0.05172414  0.00000000       0.007
   0.06896552  0.06896552  0.00000000       0.007
   0.08620690  0.08620690  0.00000000       0.007
   0.10344828  0.10344828  0.00000000       0.007
   0.12068966  0.12068966  0.00000000       0.007
   0.13793103  0.13793103  0.00000000       0.007
   0.15517241  0.15517241  0.00000000       0.007
   0.17241379  0.17241379  0.00000000       0.007
   0.18965517  0.18965517  0.00000000       0.007
   0.20689655  0.20689655  0.00000000       0.007
   0.22413793  0.22413793  0.00000000       0.007
   0.24137931  0.24137931  0.00000000       0.007
   0.25862069  0.25862069  0.00000000       0.007
   0.27586207  0.27586207  0.00000000       0.007
   0.29310345  0.29310345  0.00000000       0.007
   0.31034483  0.31034483  0.00000000       0.007
   0.32758621  0.32758621  0.00000000       0.007
   0.34482759  0.34482759  0.00000000       0.007
   0.36206897  0.36206897  0.00000000       0.007
   0.37931034  0.37931034  0.00000000       0.007
   0.39655172  0.39655172  0.00000000       0.007
   0.41379310  0.41379310  0.00000000       0.007
   0.43103448  0.43103448  0.00000000       0.007
   0.44827586  0.44827586  0.00000000       0.007
   0.46551724  0.46551724  0.00000000       0.007
   0.48275862  0.48275862  0.00000000       0.007
   0.50000000  0.50000000  0.00000000       0.007
 
 position of ions in fractional coordinates (direct lattice) 
   0.95246889  0.26699094  0.54975461
   0.00602509  0.69386384  0.42921129
   0.45246862  0.26699112  0.45025026
   0.50602483  0.69386383  0.57079371
   0.53080873  0.30380439  0.55320282
   0.03080839  0.30380404  0.44680231
   0.51069772  0.79016091  0.44613160
   0.01069773  0.79016086  0.55387343
 
 position of ions in cartesian coordinates  (Angst):
   5.05773542  1.60847315 11.68682753
   0.10572511  3.89254609  9.12428978
   2.41759807  1.55023749  9.57153980
   2.74585977  3.95078225 12.13408464
   2.83517678  1.76584513 11.76013267
   0.19503900  1.70760658  9.49824456
   2.78079092  4.49145304  9.48398372
   0.14065577  4.43321452 11.77439146
 


--------------------------------------------------------------------------------------------------------


 k-point  1 :   0.0000 0.0000 0.0000  plane waves:   16001
 k-point  2 :   0.0000 0.0172 0.0000  plane waves:   16003
 k-point  3 :   0.0000 0.0345 0.0000  plane waves:   15992
 k-point  4 :   0.0000 0.0517 0.0000  plane waves:   15982
 k-point  5 :   0.0000 0.0690 0.0000  plane waves:   15996
 k-point  6 :   0.0000 0.0862 0.0000  plane waves:   15991
 k-point  7 :   0.0000 0.1034 0.0000  plane waves:   15984
 k-point  8 :   0.0000 0.1207 0.0000  plane waves:   15982
 k-point  9 :   0.0000 0.1379 0.0000  plane waves:   15986
 k-point 10 :   0.0000 0.1552 0.0000  plane waves:   15990
 k-point 11 :   0.0000 0.1724 0.0000  plane waves:   15997
 k-point 12 :   0.0000 0.1897 0.0000  plane waves:   15995
 k-point 13 :   0.0000 0.2069 0.0000  plane waves:   15997
 k-point 14 :   0.0000 0.2241 0.0000  plane waves:   15993
 k-point 15 :   0.0000 0.2414 0.0000  plane waves:   15977
 k-point 16 :   0.0000 0.2586 0.0000  plane waves:   15983
 k-point 17 :   0.0000 0.2759 0.0000  plane waves:   16000
 k-point 18 :   0.0000 0.2931 0.0000  plane waves:   16001
 k-point 19 :   0.0000 0.3103 0.0000  plane waves:   16003
 k-point 20 :   0.0000 0.3276 0.0000  plane waves:   15994
 k-point 21 :   0.0000 0.3448 0.0000  plane waves:   15999
 k-point 22 :   0.0000 0.3621 0.0000  plane waves:   15995
 k-point 23 :   0.0000 0.3793 0.0000  plane waves:   15997
 k-point 24 :   0.0000 0.3966 0.0000  plane waves:   15995
 k-point 25 :   0.0000 0.4138 0.0000  plane waves:   16001
 k-point 26 :   0.0000 0.4310 0.0000  plane waves:   16004
 k-point 27 :   0.0000 0.4483 0.0000  plane waves:   16002
 k-point 28 :   0.0000 0.4655 0.0000  plane waves:   15992
 k-point 29 :   0.0000 0.4828 0.0000  plane waves:   15971
 k-point 30 :   0.0000 0.5000 0.0000  plane waves:   15976
 k-point 31 :   0.0000 0.5000 0.0000  plane waves:   15976
 k-point 32 :   0.0172 0.5000 0.0000  plane waves:   15978
 k-point 33 :   0.0345 0.5000 0.0000  plane waves:   15975
 k-point 34 :   0.0517 0.5000 0.0000  plane waves:   15989
 k-point 35 :   0.0690 0.5000 0.0000  plane waves:   15988
 k-point 36 :   0.0862 0.5000 0.0000  plane waves:   15988
 k-point 37 :   0.1034 0.5000 0.0000  plane waves:   15986
 k-point 38 :   0.1207 0.5000 0.0000  plane waves:   15990
 k-point 39 :   0.1379 0.5000 0.0000  plane waves:   16000
 k-point 40 :   0.1552 0.5000 0.0000  plane waves:   16008
 k-point 41 :   0.1724 0.5000 0.0000  plane waves:   16011
 k-point 42 :   0.1897 0.5000 0.0000  plane waves:   16006
 k-point 43 :   0.2069 0.5000 0.0000  plane waves:   15995
 k-point 44 :   0.2241 0.5000 0.0000  plane waves:   15997
 k-point 45 :   0.2414 0.5000 0.0000  plane waves:   15990
 k-point 46 :   0.2586 0.5000 0.0000  plane waves:   15985
 k-point 47 :   0.2759 0.5000 0.0000  plane waves:   15987
 k-point 48 :   0.2931 0.5000 0.0000  plane waves:   15989
 k-point 49 :   0.3103 0.5000 0.0000  plane waves:   15977
 k-point 50 :   0.3276 0.5000 0.0000  plane waves:   15976
 k-point 51 :   0.3448 0.5000 0.0000  plane waves:   15982
 k-point 52 :   0.3621 0.5000 0.0000  plane waves:   15984
 k-point 53 :   0.3793 0.5000 0.0000  plane waves:   15971
 k-point 54 :   0.3966 0.5000 0.0000  plane waves:   15975
 k-point 55 :   0.4138 0.5000 0.0000  plane waves:   15974
 k-point 56 :   0.4310 0.5000 0.0000  plane waves:   15976
 k-point 57 :   0.4483 0.5000 0.0000  plane waves:   15982
 k-point 58 :   0.4655 0.5000 0.0000  plane waves:   15987
 k-point 59 :   0.4828 0.5000 0.0000  plane waves:   15988
 k-point 60 :   0.5000 0.5000 0.0000  plane waves:   15984
 k-point 61 :   0.5000 0.5000 0.0000  plane waves:   15984
 k-point 62 :   0.5000 0.4828 0.0000  plane waves:   15990
 k-point 63 :   0.5000 0.4655 0.0000  plane waves:   15978
 k-point 64 :   0.5000 0.4483 0.0000  plane waves:   15974
 k-point 65 :   0.5000 0.4310 0.0000  plane waves:   15969
 k-point 66 :   0.5000 0.4138 0.0000  plane waves:   15977
 k-point 67 :   0.5000 0.3966 0.0000  plane waves:   15973
 k-point 68 :   0.5000 0.3793 0.0000  plane waves:   15975
 k-point 69 :   0.5000 0.3621 0.0000  plane waves:   15981
 k-point 70 :   0.5000 0.3448 0.0000  plane waves:   15987
 k-point 71 :   0.5000 0.3276 0.0000  plane waves:   15983
 k-point 72 :   0.5000 0.3103 0.0000  plane waves:   15970
 k-point 73 :   0.5000 0.2931 0.0000  plane waves:   15962
 k-point 74 :   0.5000 0.2759 0.0000  plane waves:   15956
 k-point 75 :   0.5000 0.2586 0.0000  plane waves:   15941
 k-point 76 :   0.5000 0.2414 0.0000  plane waves:   15943
 k-point 77 :   0.5000 0.2241 0.0000  plane waves:   15942
 k-point 78 :   0.5000 0.2069 0.0000  plane waves:   15948
 k-point 79 :   0.5000 0.1897 0.0000  plane waves:   15946
 k-point 80 :   0.5000 0.1724 0.0000  plane waves:   15939
 k-point 81 :   0.5000 0.1552 0.0000  plane waves:   15957
 k-point 82 :   0.5000 0.1379 0.0000  plane waves:   15968
 k-point 83 :   0.5000 0.1207 0.0000  plane waves:   15988
 k-point 84 :   0.5000 0.1034 0.0000  plane waves:   15984
 k-point 85 :   0.5000 0.0862 0.0000  plane waves:   15984
 k-point 86 :   0.5000 0.0690 0.0000  plane waves:   15978
 k-point 87 :   0.5000 0.0517 0.0000  plane waves:   15984
 k-point 88 :   0.5000 0.0345 0.0000  plane waves:   15990
 k-point 89 :   0.5000 0.0172 0.0000  plane waves:   15994
 k-point 90 :   0.5000 0.0000 0.0000  plane waves:   15990
 k-point 91 :   0.5000 0.0000 0.0000  plane waves:   15990
 k-point 92 :   0.4828 0.0000 0.0000  plane waves:   15997
 k-point 93 :   0.4655 0.0000 0.0000  plane waves:   15977
 k-point 94 :   0.4483 0.0000 0.0000  plane waves:   15988
 k-point 95 :   0.4310 0.0000 0.0000  plane waves:   15969
 k-point 96 :   0.4138 0.0000 0.0000  plane waves:   15967
 k-point 97 :   0.3966 0.0000 0.0000  plane waves:   15965
 k-point 98 :   0.3793 0.0000 0.0000  plane waves:   15956
 k-point 99 :   0.3621 0.0000 0.0000  plane waves:   15942
 k-point ** :   0.3448 0.0000 0.0000  plane waves:   15947
 k-point ** :   0.3276 0.0000 0.0000  plane waves:   15951
 k-point ** :   0.3103 0.0000 0.0000  plane waves:   15943
 k-point ** :   0.2931 0.0000 0.0000  plane waves:   15967
 k-point ** :   0.2759 0.0000 0.0000  plane waves:   15980
 k-point ** :   0.2586 0.0000 0.0000  plane waves:   15980
 k-point ** :   0.2414 0.0000 0.0000  plane waves:   15965
 k-point ** :   0.2241 0.0000 0.0000  plane waves:   15963
 k-point ** :   0.2069 0.0000 0.0000  plane waves:   15970
 k-point ** :   0.1897 0.0000 0.0000  plane waves:   15973
 k-point ** :   0.1724 0.0000 0.0000  plane waves:   15991
 k-point ** :   0.1552 0.0000 0.0000  plane waves:   15991
 k-point ** :   0.1379 0.0000 0.0000  plane waves:   16009
 k-point ** :   0.1207 0.0000 0.0000  plane waves:   16017
 k-point ** :   0.1034 0.0000 0.0000  plane waves:   16015
 k-point ** :   0.0862 0.0000 0.0000  plane waves:   16007
 k-point ** :   0.0690 0.0000 0.0000  plane waves:   15997
 k-point ** :   0.0517 0.0000 0.0000  plane waves:   16019
 k-point ** :   0.0345 0.0000 0.0000  plane waves:   16005
 k-point ** :   0.0172 0.0000 0.0000  plane waves:   16002
 k-point ** :   0.0000 0.0000 0.0000  plane waves:   16001
 k-point ** :   0.0000 0.0000 0.0000  plane waves:   16001
 k-point ** :   0.0172 0.0172 0.0000  plane waves:   16005
 k-point ** :   0.0345 0.0345 0.0000  plane waves:   16006
 k-point ** :   0.0517 0.0517 0.0000  plane waves:   15998
 k-point ** :   0.0690 0.0690 0.0000  plane waves:   16000
 k-point ** :   0.0862 0.0862 0.0000  plane waves:   15985
 k-point ** :   0.1034 0.1034 0.0000  plane waves:   15979
 k-point ** :   0.1207 0.1207 0.0000  plane waves:   15991
 k-point ** :   0.1379 0.1379 0.0000  plane waves:   15982
 k-point ** :   0.1552 0.1552 0.0000  plane waves:   15979
 k-point ** :   0.1724 0.1724 0.0000  plane waves:   15985
 k-point ** :   0.1897 0.1897 0.0000  plane waves:   15972
 k-point ** :   0.2069 0.2069 0.0000  plane waves:   15988
 k-point ** :   0.2241 0.2241 0.0000  plane waves:   15982
 k-point ** :   0.2414 0.2414 0.0000  plane waves:   15985
 k-point ** :   0.2586 0.2586 0.0000  plane waves:   15979
 k-point ** :   0.2759 0.2759 0.0000  plane waves:   15989
 k-point ** :   0.2931 0.2931 0.0000  plane waves:   15998
 k-point ** :   0.3103 0.3103 0.0000  plane waves:   15984
 k-point ** :   0.3276 0.3276 0.0000  plane waves:   15951
 k-point ** :   0.3448 0.3448 0.0000  plane waves:   15944
 k-point ** :   0.3621 0.3621 0.0000  plane waves:   15940
 k-point ** :   0.3793 0.3793 0.0000  plane waves:   15956
 k-point ** :   0.3966 0.3966 0.0000  plane waves:   15947
 k-point ** :   0.4138 0.4138 0.0000  plane waves:   15965
 k-point ** :   0.4310 0.4310 0.0000  plane waves:   15968
 k-point ** :   0.4483 0.4483 0.0000  plane waves:   15987
 k-point ** :   0.4655 0.4655 0.0000  plane waves:   15990
 k-point ** :   0.4828 0.4828 0.0000  plane waves:   15984
 k-point ** :   0.5000 0.5000 0.0000  plane waves:   15984

 maximum and minimum number of plane-waves per node :     16019    15939

 maximum number of plane-waves:     16019
 maximum index in each direction: 
   IXMAX=    9   IYMAX=   10   IZMAX=   38
   IXMIN=  -10   IYMIN=  -10   IZMIN=  -38


 serial   3D FFT for wavefunctions
 parallel 3D FFT for charge:
    minimum data exchange during FFTs selected (reduces bandwidth)


 total amount of memory used by VASP MPI-rank0   580217. kBytes
=======================================================================

   base      :      30000. kBytes
   nonl-proj :     502250. kBytes
   fftplans  :       1977. kBytes
   grid      :       7219. kBytes
   one-center:         64. kBytes
   wavefun   :      38707. kBytes
 
     INWAV:  cpu time    0.0000: real time    0.0000
 initial charge density was supplied:
 number of electron      36.0000011 magnetization 
 keeping initial charge density in first step


--------------------------------------------------------------------------------------------------------


 Maximum index for augmentation-charges         1280 (set IRDMAX)


--------------------------------------------------------------------------------------------------------


 First call to EWALD:  gamma=   0.207
 Maximum number of real-space cells 4x 4x 1
 Maximum number of reciprocal cells 2x 2x 6

    FEWALD:  cpu time    0.0020: real time    0.0015


--------------------------------------- Iteration      1(   1)  ---------------------------------------


    POTLOK:  cpu time    0.0300: real time    0.0323
    SETDIJ:  cpu time    0.0030: real time    0.0032
     EDDAV:  cpu time    6.3910: real time    6.4015
       DOS:  cpu time    0.0010: real time    0.0009
    --------------------------------------------
      LOOP:  cpu time    6.4250: real time    6.4379

 eigenvalue-minimisations  :  7200
 total energy-change (2. order) : 0.2025229E+03  (-0.1114866E+04)
 number of electron      36.0000011 magnetization 
 augmentation part       36.0000011 magnetization 

 Free energy of the ion-electron system (eV)
  ---------------------------------------------------
  alpha Z        PSCENC =         6.76191189
  Ewald energy   TEWEN  =      3230.15913431
  -Hartree energ DENC   =     -4248.84589410
  -exchange      EXHF   =         0.00000000
  -V(xc)+E(xc)   XCENC  =       -89.82681168
  PAW double counting   =      3347.21375644    -3180.60058913
  entropy T*S    EENTRO =        -0.00024908
  eigenvalues    EBANDS =       -26.17037614
  atomic energy  EATOM  =      1163.83202030
  Solvation  Ediel_sol  =         0.00000000
  ---------------------------------------------------
  free energy    TOTEN  =       202.52290281 eV

  energy without entropy =      202.52315190  energy(sigma->0) =      202.52302736


--------------------------------------------------------------------------------------------------------




--------------------------------------- Iteration      1(   2)  ---------------------------------------


     EDDAV:  cpu time    9.8975: real time    9.9182
       DOS:  cpu time    0.0010: real time    0.0007
    --------------------------------------------
      LOOP:  cpu time    9.8985: real time    9.9189

 eigenvalue-minimisations  : 12312
 total energy-change (2. order) :-0.2221550E+03  (-0.2213810E+03)
 number of electron      36.0000011 magnetization 
 augmentation part       36.0000011 magnetization 

 Free energy of the ion-electron system (eV)
  ---------------------------------------------------
  alpha Z        PSCENC =         6.76191189
  Ewald energy   TEWEN  =      3230.15913431
  -Hartree energ DENC   =     -4248.84589410
  -exchange      EXHF   =         0.00000000
  -V(xc)+E(xc)   XCENC  =       -89.82681168
  PAW double counting   =      3347.21375644    -3180.60058913
  entropy T*S    EENTRO =        -0.00012539
  eigenvalues    EBANDS =      -248.32548244
  atomic energy  EATOM  =      1163.83202030
  Solvation  Ediel_sol  =         0.00000000
  ---------------------------------------------------
  free energy    TOTEN  =       -19.63207979 eV

  energy without entropy =      -19.63195441  energy(sigma->0) =      -19.63201710


--------------------------------------------------------------------------------------------------------




--------------------------------------- Iteration      1(   3)  ---------------------------------------


     EDDAV:  cpu time    8.6027: real time    8.6204
       DOS:  cpu time    0.0010: real time    0.0004
    --------------------------------------------
      LOOP:  cpu time    8.6037: real time    8.6209

 eigenvalue-minimisations  : 10392
 total energy-change (2. order) :-0.1670209E+02  (-0.1652172E+02)
 number of electron      36.0000011 magnetization 
 augmentation part       36.0000011 magnetization 

 Free energy of the ion-electron system (eV)
  ---------------------------------------------------
  alpha Z        PSCENC =         6.76191189
  Ewald energy   TEWEN  =      3230.15913431
  -Hartree energ DENC   =     -4248.84589410
  -exchange      EXHF   =         0.00000000
  -V(xc)+E(xc)   XCENC  =       -89.82681168
  PAW double counting   =      3347.21375644    -3180.60058913
  entropy T*S    EENTRO =        -0.00000000
  eigenvalues    EBANDS =      -265.02770050
  atomic energy  EATOM  =      1163.83202030
  Solvation  Ediel_sol  =         0.00000000
  ---------------------------------------------------
  free energy    TOTEN  =       -36.33417246 eV

  energy without entropy =      -36.33417246  energy(sigma->0) =      -36.33417246


--------------------------------------------------------------------------------------------------------




--------------------------------------- Iteration      1(   4)  ---------------------------------------


     EDDAV:  cpu time   11.0223: real time   11.0409
       DOS:  cpu time    0.0000: real time    0.0004
    --------------------------------------------
      LOOP:  cpu time   11.0223: real time   11.0413

 eigenvalue-minimisations  : 13752
 total energy-change (2. order) :-0.2602446E+00  (-0.2602446E+00)
 number of electron      36.0000011 magnetization 
 augmentation part       36.0000011 magnetization 

 Free energy of the ion-electron system (eV)
  ---------------------------------------------------
  alpha Z        PSCENC =         6.76191189
  Ewald energy   TEWEN  =      3230.15913431
  -Hartree energ DENC   =     -4248.84589410
  -exchange      EXHF   =         0.00000000
  -V(xc)+E(xc)   XCENC  =       -89.82681168
  PAW double counting   =      3347.21375644    -3180.60058913
  entropy T*S    EENTRO =        -0.00000000
  eigenvalues    EBANDS =      -265.28794506
  atomic energy  EATOM  =      1163.83202030
  Solvation  Ediel_sol  =         0.00000000
  ---------------------------------------------------
  free energy    TOTEN  =       -36.59441702 eV

  energy without entropy =      -36.59441702  energy(sigma->0) =      -36.59441702


--------------------------------------------------------------------------------------------------------




--------------------------------------- Iteration      1(   5)  ---------------------------------------


     EDDAV:  cpu time    9.5276: real time    9.5491
       DOS:  cpu time    0.0010: real time    0.0004
    --------------------------------------------
      LOOP:  cpu time    9.5286: real time    9.5495

 eigenvalue-minimisations  : 11736
 total energy-change (2. order) :-0.5571209E-03  (-0.5571208E-03)
 number of electron      36.0000011 magnetization 
 augmentation part       36.0000011 magnetization 

 Free energy of the ion-electron system (eV)
  ---------------------------------------------------
  alpha Z        PSCENC =         6.76191189
  Ewald energy   TEWEN  =      3230.15913431
  -Hartree energ DENC   =     -4248.84589410
  -exchange      EXHF   =         0.00000000
  -V(xc)+E(xc)   XCENC  =       -89.82681168
  PAW double counting   =      3347.21375644    -3180.60058913
  entropy T*S    EENTRO =        -0.00000000
  eigenvalues    EBANDS =      -265.28850218
  atomic energy  EATOM  =      1163.83202030
  Solvation  Ediel_sol  =         0.00000000
  ---------------------------------------------------
  free energy    TOTEN  =       -36.59497414 eV

  energy without entropy =      -36.59497414  energy(sigma->0) =      -36.59497414


--------------------------------------------------------------------------------------------------------




--------------------------------------- Iteration      1(   6)  ---------------------------------------


     EDDAV:  cpu time   10.9463: real time   10.9705
       DOS:  cpu time    0.0010: real time    0.0004
    --------------------------------------------
      LOOP:  cpu time   10.9473: real time   10.9709

 eigenvalue-minimisations  : 13680
 total energy-change (2. order) :-0.1128523E-04  (-0.1128537E-04)
 number of electron      36.0000011 magnetization 
 augmentation part       36.0000011 magnetization 

 Free energy of the ion-electron system (eV)
  ---------------------------------------------------
  alpha Z        PSCENC =         6.76191189
  Ewald energy   TEWEN  =      3230.15913431
  -Hartree energ DENC   =     -4248.84589410
  -exchange      EXHF   =         0.00000000
  -V(xc)+E(xc)   XCENC  =       -89.82681168
  PAW double counting   =      3347.21375644    -3180.60058913
  entropy T*S    EENTRO =        -0.00000000
  eigenvalues    EBANDS =      -265.28851347
  atomic energy  EATOM  =      1163.83202030
  Solvation  Ediel_sol  =         0.00000000
  ---------------------------------------------------
  free energy    TOTEN  =       -36.59498543 eV

  energy without entropy =      -36.59498543  energy(sigma->0) =      -36.59498543


--------------------------------------------------------------------------------------------------------




--------------------------------------- Iteration      1(   7)  ---------------------------------------


     EDDAV:  cpu time   10.2674: real time   10.2876
       DOS:  cpu time    0.0010: real time    0.0004
    --------------------------------------------
      LOOP:  cpu time   10.2684: real time   10.2880

 eigenvalue-minimisations  : 12744
 total energy-change (2. order) :-0.4854428E-07  (-0.4854072E-07)
 number of electron      36.0000011 magnetization 
 augmentation part       36.0000011 magnetization 

 Free energy of the ion-electron system (eV)
  ---------------------------------------------------
  alpha Z        PSCENC =         6.76191189
  Ewald energy   TEWEN  =      3230.15913431
  -Hartree energ DENC   =     -4248.84589410
  -exchange      EXHF   =         0.00000000
  -V(xc)+E(xc)   XCENC  =       -89.82681168
  PAW double counting   =      3347.21375644    -3180.60058913
  entropy T*S    EENTRO =        -0.00000000
  eigenvalues    EBANDS =      -265.28851351
  atomic energy  EATOM  =      1163.83202030
  Solvation  Ediel_sol  =         0.00000000
  ---------------------------------------------------
  free energy    TOTEN  =       -36.59498548 eV

  energy without entropy =      -36.59498548  energy(sigma->0) =      -36.59498548


--------------------------------------------------------------------------------------------------------




 average (electrostatic) potential at core
  the test charge radii are     0.9587  1.4837
  (the norm of the test charge is              1.0000)
       1 -90.6881       2 -90.2558       3 -90.6881       4 -90.2558       5 -90.8244
       6 -90.8244       7 -44.5028       8 -44.5027
 
 
 
 E-fermi :  -1.8945     XC(G=0):  -3.1443     alpha+bet : -2.9700


 k-point     1 :       0.0000    0.0000    0.0000
  band No.  band energies     occupation 
      1     -16.0132      2.00000
      2     -13.8005      2.00000
      3     -12.1584      2.00000
      4     -12.0674      2.00000
      5     -10.2129      2.00000
      6      -9.2198      2.00000
      7      -7.5728      2.00000
      8      -7.1816      2.00000
      9      -6.8102      2.00000
     10      -6.1593      2.00000
     11      -5.4480      2.00000
     12      -4.9015      2.00000
     13      -4.4438      2.00000
     14      -4.3761      2.00000
     15      -4.3497      2.00000
     16      -3.3499      2.00000
     17      -3.1889      2.00000
     18      -2.9145      2.00000
     19      -1.8203      0.00000
     20      -1.5176      0.00000
     21       0.0042      0.00000
     22       0.6426      0.00000
     23       1.0985      0.00000
     24       1.6886      0.00000

 k-point     2 :       0.0000    0.0172    0.0000
  band No.  band energies     occupation 
      1     -16.0127      2.00000
      2     -13.8001      2.00000
      3     -12.1584      2.00000
      4     -12.0705      2.00000
      5     -10.2145      2.00000
      6      -9.2167      2.00000
      7      -7.5736      2.00000
      8      -7.1814      2.00000
      9      -6.8080      2.00000
     10      -6.1561      2.00000
     11      -5.4469      2.00000
     12      -4.9135      2.00000
     13      -4.4863      2.00000
     14      -4.3807      2.00000
     15      -4.2937      2.00000
     16      -3.3489      2.00000
     17      -3.1935      2.00000
     18      -2.9116      2.00000
     19      -1.8163      0.00000
     20      -1.5170      0.00000
     21       0.0033      0.00000
     22       0.6467      0.00000
     23       1.1017      0.00000
     24       1.6893      0.00000

 k-point     3 :       0.0000    0.0345    0.0000
  band No.  band energies     occupation 
      1     -16.0112      2.00000
      2     -13.7987      2.00000
      3     -12.1583      2.00000
      4     -12.0798      2.00000
      5     -10.2194      2.00000
      6      -9.2075      2.00000
      7      -7.5759      2.00000
      8      -7.1806      2.00000
      9      -6.8014      2.00000
     10      -6.1466      2.00000
     11      -5.4437      2.00000
     12      -4.9477      2.00000
     13      -4.5429      2.00000
     14      -4.3945      2.00000
     15      -4.1980      2.00000
     16      -3.3456      2.00000
     17      -3.2066      2.00000
     18      -2.9038      2.00000
     19      -1.8041      0.00000
     20      -1.5152      0.00000
     21       0.0004      0.00000
     22       0.6590      0.00000
     23       1.1110      0.00000
     24       1.6912      0.00000

 k-point     4 :       0.0000    0.0517    0.0000
  band No.  band energies     occupation 
      1     -16.0088      2.00000
      2     -13.7965      2.00000
      3     -12.1581      2.00000
      4     -12.0950      2.00000
      5     -10.2274      2.00000
      6      -9.1925      2.00000
      7      -7.5796      2.00000
      8      -7.1793      2.00000
      9      -6.7904      2.00000
     10      -6.1318      2.00000
     11      -5.4384      2.00000
     12      -4.9991      2.00000
     13      -4.5901      2.00000
     14      -4.4167      2.00000
     15      -4.0907      2.00000
     16      -3.3401      2.00000
     17      -3.2263      2.00000
     18      -2.8940      2.00000
     19      -1.7834      0.00000
     20      -1.5120      0.00000
     21      -0.0044      0.00000
     22       0.6793      0.00000
     23       1.1262      0.00000
     24       1.6945      0.00000

 k-point     5 :       0.0000    0.0690    0.0000
  band No.  band energies     occupation 
      1     -16.0053      2.00000
      2     -13.7934      2.00000
      3     -12.1578      2.00000
      4     -12.1159      2.00000
      5     -10.2384      2.00000
      6      -9.1720      2.00000
      7      -7.5842      2.00000
      8      -7.1776      2.00000
      9      -6.7754      2.00000
     10      -6.1127      2.00000
     11      -5.4310      2.00000
     12      -5.0608      2.00000
     13      -4.6292      2.00000
     14      -4.4461      2.00000
     15      -3.9769      2.00000
     16      -3.3323      2.00000
     17      -3.2508      2.00000
     18      -2.8852      2.00000
     19      -1.7537      0.00000
     20      -1.5075      0.00000
     21      -0.0108      0.00000
     22       0.7073      0.00000
     23       1.1466      0.00000
     24       1.6991      0.00000

 k-point     6 :       0.0000    0.0862    0.0000
  band No.  band energies     occupation 
      1     -16.0009      2.00000
      2     -13.7894      2.00000
      3     -12.1574      2.00000
      4     -12.1418      2.00000
      5     -10.2523      2.00000
      6      -9.1464      2.00000
      7      -7.5894      2.00000
      8      -7.1754      2.00000
      9      -6.7563      2.00000
     10      -6.0913      2.00000
     11      -5.4216      2.00000
     12      -5.1257      2.00000
     13      -4.6639      2.00000
     14      -4.4813      2.00000
     15      -3.8591      2.00000
     16      -3.3218      2.00000
     17      -3.2787      2.00000
     18      -2.8799      2.00000
     19      -1.7146      0.00000
     20      -1.5015      0.00000
     21      -0.0188      0.00000
     22       0.7426      0.00000
     23       1.1713      0.00000
     24       1.7045      0.00000

 k-point     7 :       0.0000    0.1034    0.0000
  band No.  band energies     occupation 
      1     -15.9957      2.00000
      2     -13.7846      2.00000
      3     -12.1725      2.00000
      4     -12.1571      2.00000
      5     -10.2690      2.00000
      6      -9.1164      2.00000
      7      -7.5949      2.00000
      8      -7.1727      2.00000
      9      -6.7335      2.00000
     10      -6.0699      2.00000
     11      -5.4103      2.00000
     12      -5.1881      2.00000
     13      -4.6965      2.00000
     14      -4.5207      2.00000
     15      -3.7392      2.00000
     16      -3.3092      2.00000
     17      -3.3082      2.00000
     18      -2.8799      2.00000
     19      -1.6662      0.00000
     20      -1.4937      0.00000
     21      -0.0281      0.00000
     22       0.7845      0.00000
     23       1.1990      0.00000
     24       1.7114      0.00000

 k-point     8 :       0.0000    0.1207    0.0000
  band No.  band energies     occupation 
      1     -15.9895      2.00000
      2     -13.7790      2.00000
      3     -12.2071      2.00000
      4     -12.1566      2.00000
      5     -10.2880      2.00000
      6      -9.0825      2.00000
      7      -7.6002      2.00000
      8      -7.1696      2.00000
      9      -6.7073      2.00000
     10      -6.0518      2.00000
     11      -5.3973      2.00000
     12      -5.2431      2.00000
     13      -4.7285      2.00000
     14      -4.5628      2.00000
     15      -3.6201      2.00000
     16      -3.3417      2.00000
     17      -3.2898      2.00000
     18      -2.8862      2.00000
     19      -1.6089      0.00000
     20      -1.4841      0.00000
     21      -0.0385      0.00000
     22       0.8324      0.00000
     23       1.2277      0.00000
     24       1.7191      0.00000

 k-point     9 :       0.0000    0.1379    0.0000
  band No.  band energies     occupation 
      1     -15.9826      2.00000
      2     -13.7728      2.00000
      3     -12.2452      2.00000
      4     -12.1562      2.00000
      5     -10.3093      2.00000
      6      -9.0454      2.00000
      7      -7.6050      2.00000
      8      -7.1661      2.00000
      9      -6.6782      2.00000
     10      -6.0405      2.00000
     11      -5.3826      2.00000
     12      -5.2866      2.00000
     13      -4.7601      2.00000
     14      -4.6058      2.00000
     15      -3.5063      2.00000
     16      -3.3759      2.00000
     17      -3.2632      2.00000
     18      -2.8991      2.00000
     19      -1.5437      0.00000
     20      -1.4722      0.00000
     21      -0.0495      0.00000
     22       0.8851      0.00000
     23       1.2544      0.00000
     24       1.7275      0.00000

 k-point    10 :       0.0000    0.1552    0.0000
  band No.  band energies     occupation 
      1     -15.9749      2.00000
      2     -13.7658      2.00000
      3     -12.2860      2.00000
      4     -12.1558      2.00000
      5     -10.3325      2.00000
      6      -9.0057      2.00000
      7      -7.6090      2.00000
      8      -7.1624      2.00000
      9      -6.6466      2.00000
     10      -6.0396      2.00000
     11      -5.3667      2.00000
     12      -5.3156      2.00000
     13      -4.7909      2.00000
     14      -4.6482      2.00000
     15      -3.4116      2.00000
     16      -3.4085      2.00000
     17      -3.2189      2.00000
     18      -2.9182      2.00000
     19      -1.4722      0.00000
     20      -1.4576      0.00000
     21      -0.0607      0.00000
     22       0.9412      0.00000
     23       1.2746      0.00000
     24       1.7369      0.00000

 k-point    11 :       0.0000    0.1724    0.0000
  band No.  band energies     occupation 
      1     -15.9665      2.00000
      2     -13.7583      2.00000
      3     -12.3290      2.00000
      4     -12.1553      2.00000
      5     -10.3573      2.00000
      6      -8.9640      2.00000
      7      -7.6119      2.00000
      8      -7.1584      2.00000
      9      -6.6130      2.00000
     10      -6.0510      2.00000
     11      -5.3498      2.00000
     12      -5.3291      2.00000
     13      -4.8198      2.00000
     14      -4.6882      2.00000
     15      -3.4484      2.00000
     16      -3.3408      2.00000
     17      -3.1437      2.00000
     18      -2.9430      2.00000
     19      -1.4399      0.00000
     20      -1.3960      0.00000
     21      -0.0719      0.00000
     22       0.9992      0.00000
     23       1.2813      0.00000
     24       1.7466      0.00000

 k-point    12 :       0.0000    0.1897    0.0000
  band No.  band energies     occupation 
      1     -15.9575      2.00000
      2     -13.7502      2.00000
      3     -12.3736      2.00000
      4     -12.1549      2.00000
      5     -10.3834      2.00000
      6      -8.9209      2.00000
      7      -7.6135      2.00000
      8      -7.1543      2.00000
      9      -6.5782      2.00000
     10      -6.0748      2.00000
     11      -5.3323      2.00000
     12      -5.3288      2.00000
     13      -4.8451      2.00000
     14      -4.7243      2.00000
     15      -3.4861      2.00000
     16      -3.2998      2.00000
     17      -3.0424      2.00000
     18      -2.9725      2.00000
     19      -1.4183      0.00000
     20      -1.3175      0.00000
     21      -0.0826      0.00000
     22       1.0565      0.00000
     23       1.2659      0.00000
     24       1.7571      0.00000

 k-point    13 :       0.0000    0.2069    0.0000
  band No.  band energies     occupation 
      1     -15.9481      2.00000
      2     -13.7416      2.00000
      3     -12.4191      2.00000
      4     -12.1546      2.00000
      5     -10.4104      2.00000
      6      -8.8770      2.00000
      7      -7.6138      2.00000
      8      -7.1501      2.00000
      9      -6.5430      2.00000
     10      -6.1091      2.00000
     11      -5.3197      2.00000
     12      -5.3150      2.00000
     13      -4.8641      2.00000
     14      -4.7548      2.00000
     15      -3.5245      2.00000
     16      -3.2709      2.00000
     17      -3.0058      2.00000
     18      -2.9308      2.00000
     19      -1.3921      0.00000
     20      -1.2392      0.00000
     21      -0.0924      0.00000
     22       1.1102      0.00000
     23       1.2253      0.00000
     24       1.7693      0.00000

 k-point    14 :       0.0000    0.2241    0.0000
  band No.  band energies     occupation 
      1     -15.9382      2.00000
      2     -13.7327      2.00000
      3     -12.4650      2.00000
      4     -12.1543      2.00000
      5     -10.4380      2.00000
      6      -8.8327      2.00000
      7      -7.6127      2.00000
      8      -7.1460      2.00000
      9      -6.5080      2.00000
     10      -6.1507      2.00000
     11      -5.3083      2.00000
     12      -5.2983      2.00000
     13      -4.8733      2.00000
     14      -4.7780      2.00000
     15      -3.5633      2.00000
     16      -3.2466      2.00000
     17      -3.0420      2.00000
     18      -2.8180      2.00000
     19      -1.3605      0.00000
     20      -1.1639      0.00000
     21      -0.1009      0.00000
     22       1.1562      0.00000
     23       1.1632      0.00000
     24       1.7789      0.00000

 k-point    15 :       0.0000    0.2414    0.0000
  band No.  band energies     occupation 
      1     -15.9280      2.00000
      2     -13.7235      2.00000
      3     -12.5109      2.00000
      4     -12.1541      2.00000
      5     -10.4659      2.00000
      6      -8.7886      2.00000
      7      -7.6102      2.00000
      8      -7.1421      2.00000
      9      -6.4743      2.00000
     10      -6.1969      2.00000
     11      -5.3010      2.00000
     12      -5.2830      2.00000
     13      -4.8692      2.00000
     14      -4.7925      2.00000
     15      -3.6021      2.00000
     16      -3.2242      2.00000
     17      -3.0803      2.00000
     18      -2.7083      2.00000
     19      -1.3225      0.00000
     20      -1.0951      0.00000
     21      -0.1075      0.00000
     22       1.0907      0.00000
     23       1.1891      0.00000
     24       1.7932      0.00000

 k-point    16 :       0.0000    0.2586    0.0000
  band No.  band energies     occupation 
      1     -15.9175      2.00000
      2     -13.7141      2.00000
      3     -12.5561      2.00000
      4     -12.1540      2.00000
      5     -10.4937      2.00000
      6      -8.7450      2.00000
      7      -7.6065      2.00000
      8      -7.1384      2.00000
      9      -6.4427      2.00000
     10      -6.2452      2.00000
     11      -5.3025      2.00000
     12      -5.2693      2.00000
     13      -4.8500      2.00000
     14      -4.7974      2.00000
     15      -3.6406      2.00000
     16      -3.2028      2.00000
     17      -3.1198      2.00000
     18      -2.6041      2.00000
     19      -1.2774      0.00000
     20      -1.0364      0.00000
     21      -0.1121      0.00000
     22       1.0190      0.00000
     23       1.2032      0.00000
     24       1.8326      0.00000

 k-point    17 :       0.0000    0.2759    0.0000
  band No.  band energies     occupation 
      1     -15.9070      2.00000
      2     -13.7047      2.00000
      3     -12.6003      2.00000
      4     -12.1540      2.00000
      5     -10.5212      2.00000
      6      -8.7023      2.00000
      7      -7.6015      2.00000
      8      -7.1351      2.00000
      9      -6.4139      2.00000
     10      -6.2938      2.00000
     11      -5.3136      2.00000
     12      -5.2573      2.00000
     13      -4.8165      2.00000
     14      -4.7923      2.00000
     15      -3.6783      2.00000
     16      -3.1820      2.00000
     17      -3.1598      2.00000
     18      -2.5072      2.00000
     19      -1.2246      0.00000
     20      -0.9920      0.00000
     21      -0.1140      0.00000
     22       0.9573      0.00000
     23       1.1936      0.00000
     24       1.8216      0.00000

 k-point    18 :       0.0000    0.2931    0.0000
  band No.  band energies     occupation 
      1     -15.8965      2.00000
      2     -13.6953      2.00000
      3     -12.6430      2.00000
      4     -12.1541      2.00000
      5     -10.5479      2.00000
      6      -8.6609      2.00000
      7      -7.5955      2.00000
      8      -7.1322      2.00000
      9      -6.3886      2.00000
     10      -6.3416      2.00000
     11      -5.3327      2.00000
     12      -5.2465      2.00000
     13      -4.7777      2.00000
     14      -4.7721      2.00000
     15      -3.7148      2.00000
     16      -3.1994      2.00000
     17      -3.1619      2.00000
     18      -2.4189      2.00000
     19      -1.1641      0.00000
     20      -0.9654      0.00000
     21      -0.1129      0.00000
     22       0.9124      0.00000
     23       1.1587      0.00000
     24       1.8254      0.00000

 k-point    19 :       0.0000    0.3103    0.0000
  band No.  band energies     occupation 
      1     -15.8862      2.00000
      2     -13.6860      2.00000
      3     -12.6839      2.00000
      4     -12.1543      2.00000
      5     -10.5737      2.00000
      6      -8.6212      2.00000
      7      -7.5886      2.00000
      8      -7.1299      2.00000
      9      -6.3875      2.00000
     10      -6.3673      2.00000
     11      -5.3571      2.00000
     12      -5.2361      2.00000
     13      -4.7549      2.00000
     14      -4.7206      2.00000
     15      -3.7496      2.00000
     16      -3.2381      2.00000
     17      -3.1426      2.00000
     18      -2.3396      2.00000
     19      -1.0965      0.00000
     20      -0.9590      0.00000
     21      -0.1081      0.00000
     22       0.8890      0.00000
     23       1.1011      0.00000
     24       1.8350      0.00000

 k-point    20 :       0.0000    0.3276    0.0000
  band No.  band energies     occupation 
      1     -15.8762      2.00000
      2     -13.6770      2.00000
      3     -12.7225      2.00000
      4     -12.1546      2.00000
      5     -10.5982      2.00000
      6      -8.5835      2.00000
      7      -7.5810      2.00000
      8      -7.1281      2.00000
      9      -6.4308      2.00000
     10      -6.3501      2.00000
     11      -5.3845      2.00000
     12      -5.2254      2.00000
     13      -4.7255      2.00000
     14      -4.6654      2.00000
     15      -3.7821      2.00000
     16      -3.2752      2.00000
     17      -3.1243      2.00000
     18      -2.2693      2.00000
     19      -1.0234      0.00000
     20      -0.9735      0.00000
     21      -0.0992      0.00000
     22       0.8890      0.00000
     23       1.0263      0.00000
     24       1.8400      0.00000

 k-point    21 :       0.0000    0.3448    0.0000
  band No.  band energies     occupation 
      1     -15.8666      2.00000
      2     -13.6684      2.00000
      3     -12.7585      2.00000
      4     -12.1549      2.00000
      5     -10.6211      2.00000
      6      -8.5480      2.00000
      7      -7.5731      2.00000
      8      -7.1270      2.00000
      9      -6.4711      2.00000
     10      -6.3369      2.00000
     11      -5.4130      2.00000
     12      -5.2136      2.00000
     13      -4.6917      2.00000
     14      -4.6092      2.00000
     15      -3.8117      2.00000
     16      -3.3102      2.00000
     17      -3.1072      2.00000
     18      -2.2076      2.00000
     19      -1.0070      0.00000
     20      -0.9472      0.00000
     21      -0.0853      0.00000
     22       0.9115      0.00000
     23       0.9406      0.00000
     24       1.8448      0.00000

 k-point    22 :       0.0000    0.3621    0.0000
  band No.  band energies     occupation 
      1     -15.8576      2.00000
      2     -13.6604      2.00000
      3     -12.7916      2.00000
      4     -12.1553      2.00000
      5     -10.6423      2.00000
      6      -8.5151      2.00000
      7      -7.5649      2.00000
      8      -7.1264      2.00000
      9      -6.5079      2.00000
     10      -6.3275      2.00000
     11      -5.4411      2.00000
     12      -5.2007      2.00000
     13      -4.6556      2.00000
     14      -4.5541      2.00000
     15      -3.8378      2.00000
     16      -3.3426      2.00000
     17      -3.0916      2.00000
     18      -2.1536      2.00000
     19      -1.0555      0.00000
     20      -0.8708      0.00000
     21      -0.0658      0.00000
     22       0.8496      0.00000
     23       0.9535      0.00000
     24       1.8496      0.00000

 k-point    23 :       0.0000    0.3793    0.0000
  band No.  band energies     occupation 
      1     -15.8492      2.00000
      2     -13.6529      2.00000
      3     -12.8216      2.00000
      4     -12.1558      2.00000
      5     -10.6615      2.00000
      6      -8.4852      2.00000
      7      -7.5569      2.00000
      8      -7.1263      2.00000
      9      -6.5411      2.00000
     10      -6.3213      2.00000
     11      -5.4679      2.00000
     12      -5.1868      2.00000
     13      -4.6195      2.00000
     14      -4.5017      2.00000
     15      -3.8596      2.00000
     16      -3.3718      2.00000
     17      -3.0776      2.00000
     18      -2.1065      2.00000
     19      -1.1142      0.00000
     20      -0.7977      0.00000
     21      -0.0401      0.00000
     22       0.7577      0.00000
     23       1.0102      0.00000
     24       1.8553      0.00000

 k-point    24 :       0.0000    0.3966    0.0000
  band No.  band energies     occupation 
      1     -15.8417      2.00000
      2     -13.6462      2.00000
      3     -12.8481      2.00000
      4     -12.1563      2.00000
      5     -10.6785      2.00000
      6      -8.4584      2.00000
      7      -7.5493      2.00000
      8      -7.1267      2.00000
      9      -6.5702      2.00000
     10      -6.3176      2.00000
     11      -5.4925      2.00000
     12      -5.1724      2.00000
     13      -4.5854      2.00000
     14      -4.4536      2.00000
     15      -3.8768      2.00000
     16      -3.3976      2.00000
     17      -3.0655      2.00000
     18      -2.0656      2.00000
     19      -1.1778      0.00000
     20      -0.7310      0.00000
     21      -0.0078      0.00000
     22       0.6685      0.00000
     23       1.0764      0.00000
     24       1.8626      0.00000

 k-point    25 :       0.0000    0.4138    0.0000
  band No.  band energies     occupation 
      1     -15.8351      2.00000
      2     -13.6403      2.00000
      3     -12.8709      2.00000
      4     -12.1567      2.00000
      5     -10.6932      2.00000
      6      -8.4352      2.00000
      7      -7.5422      2.00000
      8      -7.1274      2.00000
      9      -6.5952      2.00000
     10      -6.3158      2.00000
     11      -5.5143      2.00000
     12      -5.1583      2.00000
     13      -4.5552      2.00000
     14      -4.4109      2.00000
     15      -3.8891      2.00000
     16      -3.4195      2.00000
     17      -3.0553      2.00000
     18      -2.0304      2.00000
     19      -1.2413      0.00000
     20      -0.6736      0.00000
     21       0.0305      0.00000
     22       0.5846      0.00000
     23       1.1469      0.00000
     24       1.8726      0.00000

 k-point    26 :       0.0000    0.4310    0.0000
  band No.  band energies     occupation 
      1     -15.8296      2.00000
      2     -13.6354      2.00000
      3     -12.8898      2.00000
      4     -12.1571      2.00000
      5     -10.7054      2.00000
      6      -8.4157      2.00000
      7      -7.5361      2.00000
      8      -7.1283      2.00000
      9      -6.6158      2.00000
     10      -6.3153      2.00000
     11      -5.5328      2.00000
     12      -5.1451      2.00000
     13      -4.5302      2.00000
     14      -4.3745      2.00000
     15      -3.8968      2.00000
     16      -3.4374      2.00000
     17      -3.0471      2.00000
     18      -2.0010      2.00000
     19      -1.3001      0.00000
     20      -0.6269      0.00000
     21       0.0736      0.00000
     22       0.5078      0.00000
     23       1.2162      0.00000
     24       1.8850      0.00000

 k-point    27 :       0.0000    0.4483    0.0000
  band No.  band energies     occupation 
      1     -15.8252      2.00000
      2     -13.6314      2.00000
      3     -12.9048      2.00000
      4     -12.1575      2.00000
      5     -10.7151      2.00000
      6      -8.4002      2.00000
      7      -7.5311      2.00000
      8      -7.1291      2.00000
      9      -6.6320      2.00000
     10      -6.3155      2.00000
     11      -5.5476      2.00000
     12      -5.1338      2.00000
     13      -4.5110      2.00000
     14      -4.3454      2.00000
     15      -3.9007      2.00000
     16      -3.4513      2.00000
     17      -3.0408      2.00000
     18      -1.9774      2.00000
     19      -1.3503      0.00000
     20      -0.5915      0.00000
     21       0.1192      0.00000
     22       0.4392      0.00000
     23       1.2786      0.00000
     24       1.8992      0.00000

 k-point    28 :       0.0000    0.4655    0.0000
  band No.  band energies     occupation 
      1     -15.8220      2.00000
      2     -13.6286      2.00000
      3     -12.9155      2.00000
      4     -12.1578      2.00000
      5     -10.7220      2.00000
      6      -8.3890      2.00000
      7      -7.5273      2.00000
      8      -7.1299      2.00000
      9      -6.6436      2.00000
     10      -6.3160      2.00000
     11      -5.5583      2.00000
     12      -5.1251      2.00000
     13      -4.4978      2.00000
     14      -4.3240      2.00000
     15      -3.9020      2.00000
     16      -3.4610      2.00000
     17      -3.0363      2.00000
     18      -1.9600      2.00000
     19      -1.3887      0.00000
     20      -0.5669      0.00000
     21       0.1648      0.00000
     22       0.3795      0.00000
     23       1.3287      0.00000
     24       1.9134      0.00000

 k-point    29 :       0.0000    0.4828    0.0000
  band No.  band energies     occupation 
      1     -15.8200      2.00000
      2     -13.6268      2.00000
      3     -12.9220      2.00000
      4     -12.1579      2.00000
      5     -10.7262      2.00000
      6      -8.3822      2.00000
      7      -7.5250      2.00000
      8      -7.1304      2.00000
      9      -6.6506      2.00000
     10      -6.3164      2.00000
     11      -5.5649      2.00000
     12      -5.1196      2.00000
     13      -4.4901      2.00000
     14      -4.3111      2.00000
     15      -3.9021      2.00000
     16      -3.4668      2.00000
     17      -3.0337      2.00000
     18      -1.9494      2.00000
     19      -1.4128      0.00000
     20      -0.5526      0.00000
     21       0.2071      0.00000
     22       0.3298      0.00000
     23       1.3614      0.00000
     24       1.9243      0.00000

 k-point    30 :       0.0000    0.5000    0.0000
  band No.  band energies     occupation 
      1     -15.8194      2.00000
      2     -13.6262      2.00000
      3     -12.9242      2.00000
      4     -12.1580      2.00000
      5     -10.7276      2.00000
      6      -8.3799      2.00000
      7      -7.5242      2.00000
      8      -7.1306      2.00000
      9      -6.6529      2.00000
     10      -6.3165      2.00000
     11      -5.5671      2.00000
     12      -5.1177      2.00000
     13      -4.4876      2.00000
     14      -4.3067      2.00000
     15      -3.9020      2.00000
     16      -3.4687      2.00000
     17      -3.0328      2.00000
     18      -1.9458      2.00000
     19      -1.4210      0.00000
     20      -0.5479      0.00000
     21       0.2310      0.00000
     22       0.3036      0.00000
     23       1.3727      0.00000
     24       1.9283      0.00000

 k-point    31 :       0.0000    0.5000    0.0000
  band No.  band energies     occupation 
      1     -15.8194      2.00000
      2     -13.6262      2.00000
      3     -12.9242      2.00000
      4     -12.1580      2.00000
      5     -10.7276      2.00000
      6      -8.3799      2.00000
      7      -7.5242      2.00000
      8      -7.1306      2.00000
      9      -6.6529      2.00000
     10      -6.3165      2.00000
     11      -5.5671      2.00000
     12      -5.1177      2.00000
     13      -4.4876      2.00000
     14      -4.3067      2.00000
     15      -3.9020      2.00000
     16      -3.4687      2.00000
     17      -3.0328      2.00000
     18      -1.9458      2.00000
     19      -1.4210      0.00000
     20      -0.5479      0.00000
     21       0.2310      0.00000
     22       0.3036      0.00000
     23       1.3728      0.00000
     24       1.9286      0.00000

 k-point    32 :       0.0172    0.5000    0.0000
  band No.  band energies     occupation 
      1     -15.8181      2.00000
      2     -13.6279      2.00000
      3     -12.9233      2.00000
      4     -12.1593      2.00000
      5     -10.7272      2.00000
      6      -8.3878      2.00000
      7      -7.5196      2.00000
      8      -7.1283      2.00000
      9      -6.6694      2.00000
     10      -6.3165      2.00000
     11      -5.5464      2.00000
     12      -5.1156      2.00000
     13      -4.4910      2.00000
     14      -4.3079      2.00000
     15      -3.8967      2.00000
     16      -3.4629      2.00000
     17      -3.0346      2.00000
     18      -1.9475      2.00000
     19      -1.4160      0.00000
     20      -0.5472      0.00000
     21       0.2257      0.00000
     22       0.3094      0.00000
     23       1.3692      0.00000
     24       1.9254      0.00000

 k-point    33 :       0.0345    0.5000    0.0000
  band No.  band energies     occupation 
      1     -15.8145      2.00000
      2     -13.6330      2.00000
      3     -12.9207      2.00000
      4     -12.1630      2.00000
      5     -10.7259      2.00000
      6      -8.4108      2.00000
      7      -7.5062      2.00000
      8      -7.1218      2.00000
      9      -6.7148      2.00000
     10      -6.3166      2.00000
     11      -5.4880      2.00000
     12      -5.1093      2.00000
     13      -4.5004      2.00000
     14      -4.3115      2.00000
     15      -3.8815      2.00000
     16      -3.4455      2.00000
     17      -3.0400      2.00000
     18      -1.9526      2.00000
     19      -1.4009      0.00000
     20      -0.5454      0.00000
     21       0.2132      0.00000
     22       0.3233      0.00000
     23       1.3585      0.00000
     24       1.9130      0.00000

 k-point    34 :       0.0517    0.5000    0.0000
  band No.  band energies     occupation 
      1     -15.8084      2.00000
      2     -13.6415      2.00000
      3     -12.9163      2.00000
      4     -12.1690      2.00000
      5     -10.7239      2.00000
      6      -8.4478      2.00000
      7      -7.4850      2.00000
      8      -7.1128      2.00000
      9      -6.7799      2.00000
     10      -6.3166      2.00000
     11      -5.4005      2.00000
     12      -5.0986      2.00000
     13      -4.5133      2.00000
     14      -4.3173      2.00000
     15      -3.8587      2.00000
     16      -3.4169      2.00000
     17      -3.0486      2.00000
     18      -1.9609      2.00000
     19      -1.3759      0.00000
     20      -0.5428      0.00000
     21       0.1983      0.00000
     22       0.3410      0.00000
     23       1.3411      0.00000
     24       1.8953      0.00000

 k-point    35 :       0.0690    0.5000    0.0000
  band No.  band energies     occupation 
      1     -15.7998      2.00000
      2     -13.6535      2.00000
      3     -12.9101      2.00000
      4     -12.1770      2.00000
      5     -10.7211      2.00000
      6      -8.4969      2.00000
      7      -7.4583      2.00000
      8      -7.1031      2.00000
      9      -6.8543      2.00000
     10      -6.3166      2.00000
     11      -5.2928      2.00000
     12      -5.0833      2.00000
     13      -4.5268      2.00000
     14      -4.3250      2.00000
     15      -3.8308      2.00000
     16      -3.3779      2.00000
     17      -3.0603      2.00000
     18      -1.9724      2.00000
     19      -1.3408      0.00000
     20      -0.5400      0.00000
     21       0.1836      0.00000
     22       0.3606      0.00000
     23       1.3168      0.00000
     24       1.8724      0.00000

 k-point    36 :       0.0862    0.5000    0.0000
  band No.  band energies     occupation 
      1     -15.7889      2.00000
      2     -13.6690      2.00000
      3     -12.9023      2.00000
      4     -12.1867      2.00000
      5     -10.7175      2.00000
      6      -8.5561      2.00000
      7      -7.4311      2.00000
      8      -7.0951      2.00000
      9      -6.9270      2.00000
     10      -6.3162      2.00000
     11      -5.1719      2.00000
     12      -5.0634      2.00000
     13      -4.5380      2.00000
     14      -4.3343      2.00000
     15      -3.7994      2.00000
     16      -3.3296      2.00000
     17      -3.0746      2.00000
     18      -1.9870      2.00000
     19      -1.2957      0.00000
     20      -0.5377      0.00000
     21       0.1706      0.00000
     22       0.3813      0.00000
     23       1.2860      0.00000
     24       1.8464      0.00000

 k-point    37 :       0.1034    0.5000    0.0000
  band No.  band energies     occupation 
      1     -15.7755      2.00000
      2     -13.6882      2.00000
      3     -12.8928      2.00000
      4     -12.1977      2.00000
      5     -10.7131      2.00000
      6      -8.6235      2.00000
      7      -7.4126      2.00000
      8      -7.0910      2.00000
      9      -6.9847      2.00000
     10      -6.3152      2.00000
     11      -5.0438      2.00000
     12      -5.0391      2.00000
     13      -4.5446      2.00000
     14      -4.3440      2.00000
     15      -3.7657      2.00000
     16      -3.2736      2.00000
     17      -3.0909      2.00000
     18      -2.0044      2.00000
     19      -1.2407      0.00000
     20      -0.5367      0.00000
     21       0.1604      0.00000
     22       0.4030      0.00000
     23       1.2489      0.00000
     24       1.8184      0.00000

 k-point    38 :       0.1207    0.5000    0.0000
  band No.  band energies     occupation 
      1     -15.7597      2.00000
      2     -13.7111      2.00000
      3     -12.8816      2.00000
      4     -12.2094      2.00000
      5     -10.7079      2.00000
      6      -8.6973      2.00000
      7      -7.4174      2.00000
      8      -7.0928      2.00000
      9      -7.0106      2.00000
     10      -6.3128      2.00000
     11      -5.0109      2.00000
     12      -4.9138      2.00000
     13      -4.5447      2.00000
     14      -4.3522      2.00000
     15      -3.7300      2.00000
     16      -3.2117      2.00000
     17      -3.1085      2.00000
     18      -2.0245      2.00000
     19      -1.1759      0.00000
     20      -0.5377      0.00000
     21       0.1541      0.00000
     22       0.4255      0.00000
     23       1.2055      0.00000
     24       1.7888      0.00000

 k-point    39 :       0.1379    0.5000    0.0000
  band No.  band energies     occupation 
      1     -15.7416      2.00000
      2     -13.7377      2.00000
      3     -12.8689      2.00000
      4     -12.2215      2.00000
      5     -10.7021      2.00000
      6      -8.7759      2.00000
      7      -7.4539      2.00000
      8      -7.1020      2.00000
      9      -6.9946      2.00000
     10      -6.3084      2.00000
     11      -4.9797      2.00000
     12      -4.7895      2.00000
     13      -4.5372      2.00000
     14      -4.3541      2.00000
     15      -3.6920      2.00000
     16      -3.1456      2.00000
     17      -3.1264      2.00000
     18      -2.0472      2.00000
     19      -1.1017      0.00000
     20      -0.5412      0.00000
     21       0.1524      0.00000
     22       0.4488      0.00000
     23       1.1559      0.00000
     24       1.7600      0.00000

 k-point    40 :       0.1552    0.5000    0.0000
  band No.  band energies     occupation 
      1     -15.7210      2.00000
      2     -13.7681      2.00000
      3     -12.8546      2.00000
      4     -12.2335      2.00000
      5     -10.6956      2.00000
      6      -8.8581      2.00000
      7      -7.5148      2.00000
      8      -7.1193      2.00000
      9      -6.9434      2.00000
     10      -6.3012      2.00000
     11      -4.9467      2.00000
     12      -4.6840      2.00000
     13      -4.5209      2.00000
     14      -4.3389      2.00000
     15      -3.6517      2.00000
     16      -3.1434      2.00000
     17      -3.0768      2.00000
     18      -2.0724      2.00000
     19      -1.0185      0.00000
     20      -0.5475      0.00000
     21       0.1556      0.00000
     22       0.4729      0.00000
     23       1.0999      0.00000
     24       1.7334      0.00000

 k-point    41 :       0.1724    0.5000    0.0000
  band No.  band energies     occupation 
      1     -15.6981      2.00000
      2     -13.8022      2.00000
      3     -12.8388      2.00000
      4     -12.2451      2.00000
      5     -10.6884      2.00000
      6      -8.9428      2.00000
      7      -7.5876      2.00000
      8      -7.1451      2.00000
      9      -6.8690      2.00000
     10      -6.2908      2.00000
     11      -4.9131      2.00000
     12      -4.6172      2.00000
     13      -4.4954      2.00000
     14      -4.2893      2.00000
     15      -3.6085      2.00000
     16      -3.1577      2.00000
     17      -3.0067      2.00000
     18      -2.1000      2.00000
     19      -0.9268      0.00000
     20      -0.5564      0.00000
     21       0.1639      0.00000
     22       0.4976      0.00000
     23       1.0358      0.00000
     24       1.7045      0.00000

 k-point    42 :       0.1897    0.5000    0.0000
  band No.  band energies     occupation 
      1     -15.6729      2.00000
      2     -13.8400      2.00000
      3     -12.8215      2.00000
      4     -12.2560      2.00000
      5     -10.6805      2.00000
      6      -9.0289      2.00000
      7      -7.6644      2.00000
      8      -7.1791      2.00000
      9      -6.7794      2.00000
     10      -6.2768      2.00000
     11      -4.8802      2.00000
     12      -4.5950      2.00000
     13      -4.4608      2.00000
     14      -4.2024      2.00000
     15      -3.5623      2.00000
     16      -3.1670      2.00000
     17      -2.9361      2.00000
     18      -2.1299      2.00000
     19      -0.8277      0.00000
     20      -0.5674      0.00000
     21       0.1772      0.00000
     22       0.5228      0.00000
     23       0.9629      0.00000
     24       1.6739      0.00000

 k-point    43 :       0.2069    0.5000    0.0000
  band No.  band energies     occupation 
      1     -15.6454      2.00000
      2     -13.8814      2.00000
      3     -12.8030      2.00000
      4     -12.2659      2.00000
      5     -10.6720      2.00000
      6      -9.1159      2.00000
      7      -7.7406      2.00000
      8      -7.2206      2.00000
      9      -6.6792      2.00000
     10      -6.2591      2.00000
     11      -4.8486      2.00000
     12      -4.6013      2.00000
     13      -4.4179      2.00000
     14      -4.0980      2.00000
     15      -3.5129      2.00000
     16      -3.1681      2.00000
     17      -2.8659      2.00000
     18      -2.1619      2.00000
     19      -0.7221      0.00000
     20      -0.5796      0.00000
     21       0.1949      0.00000
     22       0.5482      0.00000
     23       0.8790      0.00000
     24       1.5280      0.00000

 k-point    44 :       0.2241    0.5000    0.0000
  band No.  band energies     occupation 
      1     -15.6156      2.00000
      2     -13.9260      2.00000
      3     -12.7832      2.00000
      4     -12.2749      2.00000
      5     -10.6629      2.00000
      6      -9.2031      2.00000
      7      -7.8139      2.00000
      8      -7.2684      2.00000
      9      -6.5711      2.00000
     10      -6.2379      2.00000
     11      -4.8184      2.00000
     12      -4.6216      2.00000
     13      -4.3681      2.00000
     14      -3.9956      2.00000
     15      -3.4604      2.00000
     16      -3.1565      2.00000
     17      -2.7968      2.00000
     18      -2.1960      2.00000
     19      -0.6117      0.00000
     20      -0.5920      0.00000
     21       0.2166      0.00000
     22       0.5732      0.00000
     23       0.7827      0.00000
     24       1.3585      0.00000

 k-point    45 :       0.2414    0.5000    0.0000
  band No.  band energies     occupation 
      1     -15.5835      2.00000
      2     -13.9738      2.00000
      3     -12.7622      2.00000
      4     -12.2828      2.00000
      5     -10.6531      2.00000
      6      -9.2898      2.00000
      7      -7.8828      2.00000
      8      -7.3214      2.00000
      9      -6.4570      2.00000
     10      -6.2133      2.00000
     11      -4.7894      2.00000
     12      -4.6493      2.00000
     13      -4.3131      2.00000
     14      -3.9073      2.00000
     15      -3.4051      2.00000
     16      -3.1274      2.00000
     17      -2.7292      2.00000
     18      -2.2318      2.00000
     19      -0.6034      0.00000
     20      -0.4983      0.00000
     21       0.2414      0.00000
     22       0.5972      0.00000
     23       0.6740      0.00000
     24       1.2456      0.00000

 k-point    46 :       0.2586    0.5000    0.0000
  band No.  band energies     occupation 
      1     -15.5492      2.00000
      2     -14.0245      2.00000
      3     -12.7402      2.00000
      4     -12.2898      2.00000
      5     -10.6426      2.00000
      6      -9.3757      2.00000
      7      -7.9465      2.00000
      8      -7.3785      2.00000
      9      -6.3384      2.00000
     10      -6.1857      2.00000
     11      -4.7614      2.00000
     12      -4.6809      2.00000
     13      -4.2547      2.00000
     14      -3.8409      2.00000
     15      -3.3475      2.00000
     16      -3.0771      2.00000
     17      -2.6638      2.00000
     18      -2.2691      2.00000
     19      -0.6126      0.00000
     20      -0.3849      0.00000
     21       0.2687      0.00000
     22       0.5572      0.00000
     23       0.6192      0.00000
     24       1.1491      0.00000

 k-point    47 :       0.2759    0.5000    0.0000
  band No.  band energies     occupation 
      1     -15.5127      2.00000
      2     -14.0778      2.00000
      3     -12.7172      2.00000
      4     -12.2959      2.00000
      5     -10.6313      2.00000
      6      -9.4602      2.00000
      7      -8.0042      2.00000
      8      -7.4385      2.00000
      9      -6.2172      2.00000
     10      -6.1553      2.00000
     11      -4.7339      2.00000
     12      -4.7144      2.00000
     13      -4.1945      2.00000
     14      -3.7984      2.00000
     15      -3.2885      2.00000
     16      -3.0065      2.00000
     17      -2.6012      2.00000
     18      -2.3071      2.00000
     19      -0.6182      0.00000
     20      -0.2758      0.00000
     21       0.2977      0.00000
     22       0.4396      0.00000
     23       0.6384      0.00000
     24       1.0800      0.00000

 k-point    48 :       0.2931    0.5000    0.0000
  band No.  band energies     occupation 
      1     -15.4741      2.00000
      2     -14.1333      2.00000
      3     -12.6935      2.00000
      4     -12.3014      2.00000
      5     -10.6190      2.00000
      6      -9.5431      2.00000
      7      -8.0555      2.00000
      8      -7.5004      2.00000
      9      -6.1225      2.00000
     10      -6.0949      2.00000
     11      -4.7481      2.00000
     12      -4.7068      2.00000
     13      -4.1339      2.00000
     14      -3.7770      2.00000
     15      -3.2293      2.00000
     16      -2.9214      2.00000
     17      -2.5420      2.00000
     18      -2.3446      2.00000
     19      -0.6188      0.00000
     20      -0.1791      0.00000
     21       0.3274      0.00000
     22       0.3322      0.00000
     23       0.6539      0.00000
     24       1.0119      0.00000

 k-point    49 :       0.3103    0.5000    0.0000
  band No.  band energies     occupation 
      1     -15.4334      2.00000
      2     -14.1907      2.00000
      3     -12.6692      2.00000
      4     -12.3065      2.00000
      5     -10.6057      2.00000
      6      -9.6241      2.00000
      7      -8.1000      2.00000
      8      -7.5632      2.00000
      9      -6.0873      2.00000
     10      -5.9738      2.00000
     11      -4.7803      2.00000
     12      -4.6799      2.00000
     13      -4.0741      2.00000
     14      -3.7712      2.00000
     15      -3.1714      2.00000
     16      -2.8314      2.00000
     17      -2.4871      2.00000
     18      -2.3791      2.00000
     19      -0.6130      0.00000
     20      -0.1109      0.00000
     21       0.2535      0.00000
     22       0.3567      0.00000
     23       0.6657      0.00000
     24       0.9649      0.00000

 k-point    50 :       0.3276    0.5000    0.0000
  band No.  band energies     occupation 
      1     -15.3906      2.00000
      2     -14.2497      2.00000
      3     -12.6444      2.00000
      4     -12.3115      2.00000
      5     -10.5912      2.00000
      6      -9.7028      2.00000
      7      -8.1376      2.00000
      8      -7.6262      2.00000
      9      -6.0501      2.00000
     10      -5.8568      2.00000
     11      -4.8085      2.00000
     12      -4.6532      2.00000
     13      -4.0162      2.00000
     14      -3.7760      2.00000
     15      -3.1166      2.00000
     16      -2.7488      2.00000
     17      -2.4374      2.00000
     18      -2.4050      2.00000
     19      -0.5993      0.00000
     20      -0.0956      0.00000
     21       0.2287      0.00000
     22       0.3838      0.00000
     23       0.6748      0.00000
     24       0.9259      0.00000

 k-point    51 :       0.3448    0.5000    0.0000
  band No.  band energies     occupation 
      1     -15.3459      2.00000
      2     -14.3101      2.00000
      3     -12.6193      2.00000
      4     -12.3167      2.00000
      5     -10.5751      2.00000
      6      -9.7789      2.00000
      7      -8.1682      2.00000
      8      -7.6886      2.00000
      9      -6.0111      2.00000
     10      -5.7478      2.00000
     11      -4.8297      2.00000
     12      -4.6268      2.00000
     13      -3.9611      2.00000
     14      -3.7870      2.00000
     15      -3.0672      2.00000
     16      -2.6905      2.00000
     17      -2.4111      2.00000
     18      -2.3936      2.00000
     19      -0.5765      0.00000
     20      -0.1276      0.00000
     21       0.2519      0.00000
     22       0.4067      0.00000
     23       0.6836      0.00000
     24       0.8978      0.00000

 k-point    52 :       0.3621    0.5000    0.0000
  band No.  band energies     occupation 
      1     -15.2992      2.00000
      2     -14.3714      2.00000
      3     -12.5941      2.00000
      4     -12.3224      2.00000
      5     -10.5573      2.00000
      6      -9.8523      2.00000
      7      -8.1915      2.00000
      8      -7.7499      2.00000
      9      -5.9704      2.00000
     10      -5.6523      2.00000
     11      -4.8396      2.00000
     12      -4.6009      2.00000
     13      -3.9097      2.00000
     14      -3.8013      2.00000
     15      -3.0253      2.00000
     16      -2.6719      2.00000
     17      -2.3859      2.00000
     18      -2.3560      2.00000
     19      -0.5433      0.00000
     20      -0.1706      0.00000
     21       0.2867      0.00000
     22       0.4226      0.00000
     23       0.6957      0.00000
     24       0.8796      0.00000

 k-point    53 :       0.3793    0.5000    0.0000
  band No.  band energies     occupation 
      1     -15.2507      2.00000
      2     -14.4334      2.00000
      3     -12.5690      2.00000
      4     -12.3289      2.00000
      5     -10.5374      2.00000
      6      -9.9227      2.00000
      7      -8.2077      2.00000
      8      -7.8093      2.00000
      9      -5.9283      2.00000
     10      -5.5765      2.00000
     11      -4.8330      2.00000
     12      -4.5759      2.00000
     13      -3.8632      2.00000
     14      -3.8166      2.00000
     15      -2.9929      2.00000
     16      -2.6871      2.00000
     17      -2.3382      2.00000
     18      -2.3241      2.00000
     19      -0.4993      0.00000
     20      -0.2022      0.00000
     21       0.3121      0.00000
     22       0.4298      0.00000
     23       0.7144      0.00000
     24       0.8654      0.00000

 k-point    54 :       0.3966    0.5000    0.0000
  band No.  band energies     occupation 
      1     -15.2003      2.00000
      2     -14.4959      2.00000
      3     -12.5442      2.00000
      4     -12.3364      2.00000
      5     -10.5152      2.00000
      6      -9.9899      2.00000
      7      -8.2169      2.00000
      8      -7.8664      2.00000
      9      -5.8850      2.00000
     10      -5.5259      2.00000
     11      -4.8064      2.00000
     12      -4.5525      2.00000
     13      -3.8306      2.00000
     14      -3.8231      2.00000
     15      -2.9714      2.00000
     16      -2.7194      2.00000
     17      -2.2967      2.00000
     18      -2.2866      2.00000
     19      -0.4445      0.00000
     20      -0.2142      0.00000
     21       0.3231      0.00000
     22       0.4277      0.00000
     23       0.7410      0.00000
     24       0.8509      0.00000

 k-point    55 :       0.4138    0.5000    0.0000
  band No.  band energies     occupation 
      1     -15.1483      2.00000
      2     -14.5584      2.00000
      3     -12.5199      2.00000
      4     -12.3453      2.00000
      5     -10.4904      2.00000
      6     -10.0537      2.00000
      7      -8.2191      2.00000
      8      -7.9206      2.00000
      9      -5.8408      2.00000
     10      -5.5019      2.00000
     11      -4.7607      2.00000
     12      -4.5312      2.00000
     13      -3.8416      2.00000
     14      -3.7912      2.00000
     15      -2.9602      2.00000
     16      -2.7584      2.00000
     17      -2.2723      2.00000
     18      -2.2415      2.00000
     19      -0.3803      0.00000
     20      -0.2048      0.00000
     21       0.3210      0.00000
     22       0.4177      0.00000
     23       0.7744      0.00000
     24       0.8287      0.00000

 k-point    56 :       0.4310    0.5000    0.0000
  band No.  band energies     occupation 
      1     -15.0946      2.00000
      2     -14.6209      2.00000
      3     -12.4964      2.00000
      4     -12.3556      2.00000
      5     -10.4626      2.00000
      6     -10.1140      2.00000
      7      -8.2147      2.00000
      8      -7.9717      2.00000
      9      -5.7959      2.00000
     10      -5.5009      2.00000
     11      -4.7025      2.00000
     12      -4.5133      2.00000
     13      -3.8473      2.00000
     14      -3.7694      2.00000
     15      -2.9571      2.00000
     16      -2.7994      2.00000
     17      -2.2495      2.00000
     18      -2.2071      2.00000
     19      -0.3090      0.00000
     20      -0.1760      0.00000
     21       0.3090      0.00000
     22       0.4011      0.00000
     23       0.8033      0.00000
     24       0.8108      0.00000

 k-point    57 :       0.4483    0.5000    0.0000
  band No.  band energies     occupation 
      1     -15.0394      2.00000
      2     -14.6831      2.00000
      3     -12.4738      2.00000
      4     -12.3675      2.00000
      5     -10.4317      2.00000
      6     -10.1707      2.00000
      7      -8.2037      2.00000
      8      -8.0190      2.00000
      9      -5.7507      2.00000
     10      -5.5169      2.00000
     11      -4.6410      2.00000
     12      -4.5001      2.00000
     13      -3.8460      2.00000
     14      -3.7597      2.00000
     15      -2.9574      2.00000
     16      -2.8394      2.00000
     17      -2.2278      2.00000
     18      -2.1844      2.00000
     19      -0.2344      0.00000
     20      -0.1339      0.00000
     21       0.2909      0.00000
     22       0.3781      0.00000
     23       0.7734      0.00000
     24       0.8394      0.00000

 k-point    58 :       0.4655    0.5000    0.0000
  band No.  band energies     occupation 
      1     -14.9828      2.00000
      2     -14.7448      2.00000
      3     -12.4523      2.00000
      4     -12.3812      2.00000
      5     -10.3975      2.00000
      6     -10.2236      2.00000
      7      -8.1865      2.00000
      8      -8.0622      2.00000
      9      -5.7057      2.00000
     10      -5.5444      2.00000
     11      -4.5851      2.00000
     12      -4.4937      2.00000
     13      -3.8365      2.00000
     14      -3.7627      2.00000
     15      -2.9559      2.00000
     16      -2.8762      2.00000
     17      -2.2077      2.00000
     18      -2.1729      2.00000
     19      -0.1621      0.00000
     20      -0.0887      0.00000
     21       0.2726      0.00000
     22       0.3481      0.00000
     23       0.7497      0.00000
     24       0.8286      0.00000

 k-point    59 :       0.4828    0.5000    0.0000
  band No.  band energies     occupation 
      1     -14.9249      2.00000
      2     -14.8058      2.00000
      3     -12.4322      2.00000
      4     -12.3965      2.00000
      5     -10.3596      2.00000
      6     -10.2727      2.00000
      7      -8.1635      2.00000
      8      -8.1010      2.00000
      9      -5.6616      2.00000
     10      -5.5794      2.00000
     11      -4.5411      2.00000
     12      -4.4966      2.00000
     13      -3.8193      2.00000
     14      -3.7768      2.00000
     15      -2.9482      2.00000
     16      -2.9078      2.00000
     17      -2.1904      2.00000
     18      -2.1712      2.00000
     19      -0.1003      0.00000
     20      -0.0582      0.00000
     21       0.2649      0.00000
     22       0.3125      0.00000
     23       0.7483      0.00000
     24       0.7908      0.00000

 k-point    60 :       0.5000    0.5000    0.0000
  band No.  band energies     occupation 
      1     -14.8659      2.00000
      2     -14.8658      2.00000
      3     -12.4136      2.00000
      4     -12.4135      2.00000
      5     -10.3181      2.00000
      6     -10.3180      2.00000
      7      -8.1348      2.00000
      8      -8.1348      2.00000
      9      -5.6190      2.00000
     10      -5.6190      2.00000
     11      -4.5117      2.00000
     12      -4.5117      2.00000
     13      -3.7976      2.00000
     14      -3.7976      2.00000
     15      -2.9322      2.00000
     16      -2.9322      2.00000
     17      -2.1776      2.00000
     18      -2.1776      2.00000
     19      -0.0613      0.00000
     20      -0.0613      0.00000
     21       0.2794      0.00000
     22       0.2795      0.00000
     23       0.7473      0.00000
     24       0.7494      0.00000

 k-point    61 :       0.5000    0.5000    0.0000
  band No.  band energies     occupation 
      1     -14.8659      2.00000
      2     -14.8658      2.00000
      3     -12.4136      2.00000
      4     -12.4135      2.00000
      5     -10.3181      2.00000
      6     -10.3180      2.00000
      7      -8.1348      2.00000
      8      -8.1348      2.00000
      9      -5.6190      2.00000
     10      -5.6190      2.00000
     11      -4.5117      2.00000
     12      -4.5117      2.00000
     13      -3.7976      2.00000
     14      -3.7976      2.00000
     15      -2.9322      2.00000
     16      -2.9322      2.00000
     17      -2.1776      2.00000
     18      -2.1776      2.00000
     19      -0.0613      0.00000
     20      -0.0613      0.00000
     21       0.2794      0.00000
     22       0.2796      0.00000
     23       0.7475      0.00000
     24       0.7582      0.00000

 k-point    62 :       0.5000    0.4828    0.0000
  band No.  band energies     occupation 
      1     -14.8685      2.00000
      2     -14.8643      2.00000
      3     -12.4216      2.00000
      4     -12.4035      2.00000
      5     -10.3265      2.00000
      6     -10.3092      2.00000
      7      -8.1326      2.00000
      8      -8.1315      2.00000
      9      -5.6253      2.00000
     10      -5.6162      2.00000
     11      -4.5308      2.00000
     12      -4.5001      2.00000
     13      -3.8144      2.00000
     14      -3.7814      2.00000
     15      -2.9409      2.00000
     16      -2.9350      2.00000
     17      -2.1891      2.00000
     18      -2.1650      2.00000
     19      -0.0764      0.00000
     20      -0.0381      0.00000
     21       0.2309      0.00000
     22       0.3290      0.00000
     23       0.7446      0.00000
     24       0.7611      0.00000

 k-point    63 :       0.5000    0.4655    0.0000
  band No.  band energies     occupation 
      1     -14.8723      2.00000
      2     -14.8638      2.00000
      3     -12.4278      2.00000
      4     -12.3917      2.00000
      5     -10.3344      2.00000
      6     -10.3001      2.00000
      7      -8.1249      2.00000
      8      -8.1227      2.00000
      9      -5.6349      2.00000
     10      -5.6168      2.00000
     11      -4.5574      2.00000
     12      -4.4961      2.00000
     13      -3.8325      2.00000
     14      -3.7656      2.00000
     15      -2.9588      2.00000
     16      -2.9498      2.00000
     17      -2.1990      2.00000
     18      -2.1530      2.00000
     19      -0.0807      0.00000
     20      -0.0123      0.00000
     21       0.1911      0.00000
     22       0.3741      0.00000
     23       0.7440      0.00000
     24       0.7695      0.00000

 k-point    64 :       0.5000    0.4483    0.0000
  band No.  band energies     occupation 
      1     -14.8770      2.00000
      2     -14.8644      2.00000
      3     -12.4318      2.00000
      4     -12.3783      2.00000
      5     -10.3416      2.00000
      6     -10.2907      2.00000
      7      -8.1118      2.00000
      8      -8.1083      2.00000
      9      -5.6478      2.00000
     10      -5.6208      2.00000
     11      -4.5912      2.00000
     12      -4.4995      2.00000
     13      -3.8526      2.00000
     14      -3.7500      2.00000
     15      -2.9824      2.00000
     16      -2.9753      2.00000
     17      -2.2091      2.00000
     18      -2.1447      2.00000
     19      -0.0729      0.00000
     20       0.0045      0.00000
     21       0.1734      0.00000
     22       0.4090      0.00000
     23       0.7505      0.00000
     24       0.7787      0.00000

 k-point    65 :       0.5000    0.4310    0.0000
  band No.  band energies     occupation 
      1     -14.8826      2.00000
      2     -14.8661      2.00000
      3     -12.4338      2.00000
      4     -12.3635      2.00000
      5     -10.3480      2.00000
      6     -10.2812      2.00000
      7      -8.0935      2.00000
      8      -8.0883      2.00000
      9      -5.6641      2.00000
     10      -5.6284      2.00000
     11      -4.6320      2.00000
     12      -4.5103      2.00000
     13      -3.8755      2.00000
     14      -3.7349      2.00000
     15      -3.0086      2.00000
     16      -3.0082      2.00000
     17      -2.2222      2.00000
     18      -2.1430      2.00000
     19      -0.0533      0.00000
     20       0.0006      0.00000
     21       0.1905      0.00000
     22       0.4336      0.00000
     23       0.7701      0.00000
     24       0.7971      0.00000

 k-point    66 :       0.5000    0.4138    0.0000
  band No.  band energies     occupation 
      1     -14.8890      2.00000
      2     -14.8689      2.00000
      3     -12.4338      2.00000
      4     -12.3474      2.00000
      5     -10.3534      2.00000
      6     -10.2714      2.00000
      7      -8.0702      2.00000
      8      -8.0630      2.00000
      9      -5.6835      2.00000
     10      -5.6396      2.00000
     11      -4.6791      2.00000
     12      -4.5282      2.00000
     13      -3.9019      2.00000
     14      -3.7208      2.00000
     15      -3.0466      2.00000
     16      -3.0330      2.00000
     17      -2.2410      2.00000
     18      -2.1500      2.00000
     19      -0.0236      0.00000
     20      -0.0175      0.00000
     21       0.2354      0.00000
     22       0.4488      0.00000
     23       0.7904      0.00000
     24       0.8080      0.00000

 k-point    67 :       0.5000    0.3966    0.0000
  band No.  band energies     occupation 
      1     -14.8961      2.00000
      2     -14.8728      2.00000
      3     -12.4318      2.00000
      4     -12.3304      2.00000
      5     -10.3575      2.00000
      6     -10.2614      2.00000
      7      -8.0421      2.00000
      8      -8.0323      2.00000
      9      -5.7062      2.00000
     10      -5.6544      2.00000
     11      -4.7321      2.00000
     12      -4.5527      2.00000
     13      -3.9321      2.00000
     14      -3.7082      2.00000
     15      -3.0859      2.00000
     16      -3.0545      2.00000
     17      -2.2678      2.00000
     18      -2.1667      2.00000
     19      -0.0374      0.00000
     20       0.0117      0.00000
     21       0.2946      0.00000
     22       0.4625      0.00000
     23       0.8050      0.00000
     24       0.8384      0.00000

 k-point    68 :       0.5000    0.3793    0.0000
  band No.  band energies     occupation 
      1     -14.9039      2.00000
      2     -14.8776      2.00000
      3     -12.4278      2.00000
      4     -12.3126      2.00000
      5     -10.3601      2.00000
      6     -10.2510      2.00000
      7      -8.0094      2.00000
      8      -7.9965      2.00000
      9      -5.7320      2.00000
     10      -5.6730      2.00000
     11      -4.7901      2.00000
     12      -4.5834      2.00000
     13      -3.9664      2.00000
     14      -3.6982      2.00000
     15      -3.1241      2.00000
     16      -3.0713      2.00000
     17      -2.3037      2.00000
     18      -2.1931      2.00000
     19      -0.0541      0.00000
     20       0.0460      0.00000
     21       0.3586      0.00000
     22       0.4823      0.00000
     23       0.8148      0.00000
     24       0.8681      0.00000

 k-point    69 :       0.5000    0.3621    0.0000
  band No.  band energies     occupation 
      1     -14.9121      2.00000
      2     -14.8834      2.00000
      3     -12.4221      2.00000
      4     -12.2945      2.00000
      5     -10.3611      2.00000
      6     -10.2404      2.00000
      7      -7.9724      2.00000
      8      -7.9558      2.00000
      9      -5.7609      2.00000
     10      -5.6956      2.00000
     11      -4.8521      2.00000
     12      -4.6195      2.00000
     13      -4.0044      2.00000
     14      -3.6918      2.00000
     15      -3.1589      2.00000
     16      -3.0831      2.00000
     17      -2.3483      2.00000
     18      -2.2283      2.00000
     19      -0.0665      0.00000
     20       0.0716      0.00000
     21       0.4221      0.00000
     22       0.5160      0.00000
     23       0.8044      0.00000
     24       0.8896      0.00000

 k-point    70 :       0.5000    0.3448    0.0000
  band No.  band energies     occupation 
      1     -14.9208      2.00000
      2     -14.8899      2.00000
      3     -12.4147      2.00000
      4     -12.2762      2.00000
      5     -10.3602      2.00000
      6     -10.2294      2.00000
      7      -7.9313      2.00000
      8      -7.9103      2.00000
      9      -5.7929      2.00000
     10      -5.7224      2.00000
     11      -4.9169      2.00000
     12      -4.6601      2.00000
     13      -4.0459      2.00000
     14      -3.6903      2.00000
     15      -3.1893      2.00000
     16      -3.0902      2.00000
     17      -2.4004      2.00000
     18      -2.2706      2.00000
     19      -0.0751      0.00000
     20       0.0841      0.00000
     21       0.4784      0.00000
     22       0.5598      0.00000
     23       0.8058      0.00000
     24       0.9526      0.00000

 k-point    71 :       0.5000    0.3276    0.0000
  band No.  band energies     occupation 
      1     -14.9297      2.00000
      2     -14.8972      2.00000
      3     -12.4058      2.00000
      4     -12.2580      2.00000
      5     -10.3573      2.00000
      6     -10.2179      2.00000
      7      -7.8864      2.00000
      8      -7.8603      2.00000
      9      -5.8278      2.00000
     10      -5.7538      2.00000
     11      -4.9833      2.00000
     12      -4.7042      2.00000
     13      -4.0904      2.00000
     14      -3.6946      2.00000
     15      -3.2146      2.00000
     16      -3.0936      2.00000
     17      -2.4576      2.00000
     18      -2.3179      2.00000
     19      -0.0810      0.00000
     20       0.0840      0.00000
     21       0.5219      0.00000
     22       0.5959      0.00000
     23       0.8331      0.00000
     24       0.9942      0.00000

 k-point    72 :       0.5000    0.3103    0.0000
  band No.  band energies     occupation 
      1     -14.9388      2.00000
      2     -14.9050      2.00000
      3     -12.3955      2.00000
      4     -12.2403      2.00000
      5     -10.3522      2.00000
      6     -10.2060      2.00000
      7      -7.8381      2.00000
      8      -7.8061      2.00000
      9      -5.8655      2.00000
     10      -5.7900      2.00000
     11      -5.0496      2.00000
     12      -4.7507      2.00000
     13      -4.1376      2.00000
     14      -3.7055      2.00000
     15      -3.2356      2.00000
     16      -3.0948      2.00000
     17      -2.5170      2.00000
     18      -2.3678      2.00000
     19      -0.0853      0.00000
     20       0.0748      0.00000
     21       0.5499      0.00000
     22       0.6052      0.00000
     23       0.8967      0.00000
     24       1.0187      0.00000

 k-point    73 :       0.5000    0.2931    0.0000
  band No.  band energies     occupation 
      1     -14.9480      2.00000
      2     -14.9134      2.00000
      3     -12.3841      2.00000
      4     -12.2233      2.00000
      5     -10.3448      2.00000
      6     -10.1935      2.00000
      7      -7.7867      2.00000
      8      -7.7480      2.00000
      9      -5.9059      2.00000
     10      -5.8314      2.00000
     11      -5.1146      2.00000
     12      -4.7984      2.00000
     13      -4.1872      2.00000
     14      -3.7236      2.00000
     15      -3.2536      2.00000
     16      -3.0953      2.00000
     17      -2.5750      2.00000
     18      -2.4179      2.00000
     19      -0.0890      0.00000
     20       0.0603      0.00000
     21       0.5638      0.00000
     22       0.5934      0.00000
     23       0.9975      0.00000
     24       1.0346      0.00000

 k-point    74 :       0.5000    0.2759    0.0000
  band No.  band energies     occupation 
      1     -14.9571      2.00000
      2     -14.9221      2.00000
      3     -12.3716      2.00000
      4     -12.2073      2.00000
      5     -10.3351      2.00000
      6     -10.1806      2.00000
      7      -7.7326      2.00000
      8      -7.6864      2.00000
      9      -5.9487      2.00000
     10      -5.8782      2.00000
     11      -5.1767      2.00000
     12      -4.8462      2.00000
     13      -4.2391      2.00000
     14      -3.7490      2.00000
     15      -3.2707      2.00000
     16      -3.0969      2.00000
     17      -2.6282      2.00000
     18      -2.4657      2.00000
     19      -0.0927      0.00000
     20       0.0430      0.00000
     21       0.5663      0.00000
     22       0.5721      0.00000
     23       1.0469      0.00000
     24       1.1246      0.00000

 k-point    75 :       0.5000    0.2586    0.0000
  band No.  band energies     occupation 
      1     -14.9660      2.00000
      2     -14.9311      2.00000
      3     -12.3583      2.00000
      4     -12.1924      2.00000
      5     -10.3230      2.00000
      6     -10.1672      2.00000
      7      -7.6762      2.00000
      8      -7.6214      2.00000
      9      -5.9935      2.00000
     10      -5.9303      2.00000
     11      -5.2348      2.00000
     12      -4.8931      2.00000
     13      -4.2933      2.00000
     14      -3.7819      2.00000
     15      -3.2889      2.00000
     16      -3.1015      2.00000
     17      -2.6730      2.00000
     18      -2.5087      2.00000
     19      -0.0969      0.00000
     20       0.0246      0.00000
     21       0.5474      0.00000
     22       0.5607      0.00000
     23       1.0721      0.00000
     24       1.1591      0.00000

 k-point    76 :       0.5000    0.2414    0.0000
  band No.  band energies     occupation 
      1     -14.9747      2.00000
      2     -14.9403      2.00000
      3     -12.3444      2.00000
      4     -12.1789      2.00000
      5     -10.3086      2.00000
      6     -10.1534      2.00000
      7      -7.6178      2.00000
      8      -7.5536      2.00000
      9      -6.0399      2.00000
     10      -5.9875      2.00000
     11      -5.2882      2.00000
     12      -4.9383      2.00000
     13      -4.3495      2.00000
     14      -3.8227      2.00000
     15      -3.3096      2.00000
     16      -3.1106      2.00000
     17      -2.7069      2.00000
     18      -2.5450      2.00000
     19      -0.1016      0.00000
     20       0.0062      0.00000
     21       0.5218      0.00000
     22       0.5498      0.00000
     23       1.1069      0.00000
     24       1.2124      0.00000

 k-point    77 :       0.5000    0.2241    0.0000
  band No.  band energies     occupation 
      1     -14.9830      2.00000
      2     -14.9495      2.00000
      3     -12.3300      2.00000
      4     -12.1670      2.00000
      5     -10.2922      2.00000
      6     -10.1394      2.00000
      7      -7.5580      2.00000
      8      -7.4834      2.00000
      9      -6.0873      2.00000
     10      -6.0491      2.00000
     11      -5.3363      2.00000
     12      -4.9813      2.00000
     13      -4.4075      2.00000
     14      -3.8715      2.00000
     15      -3.3328      2.00000
     16      -3.1251      2.00000
     17      -2.7291      2.00000
     18      -2.5731      2.00000
     19      -0.1070      0.00000
     20      -0.0116      0.00000
     21       0.4969      0.00000
     22       0.5354      0.00000
     23       1.1347      0.00000
     24       1.2535      0.00000

 k-point    78 :       0.5000    0.2069    0.0000
  band No.  band energies     occupation 
      1     -14.9910      2.00000
      2     -14.9586      2.00000
      3     -12.3153      2.00000
      4     -12.1566      2.00000
      5     -10.2738      2.00000
      6     -10.1253      2.00000
      7      -7.4973      2.00000
      8      -7.4112      2.00000
      9      -6.1351      2.00000
     10      -6.1142      2.00000
     11      -5.3791      2.00000
     12      -5.0219      2.00000
     13      -4.4669      2.00000
     14      -3.9281      2.00000
     15      -3.3572      2.00000
     16      -3.1450      2.00000
     17      -2.7401      2.00000
     18      -2.5927      2.00000
     19      -0.1127      0.00000
     20      -0.0284      0.00000
     21       0.4732      0.00000
     22       0.5192      0.00000
     23       1.1698      0.00000
     24       1.2538      0.00000

 k-point    79 :       0.5000    0.1897    0.0000
  band No.  band energies     occupation 
      1     -14.9984      2.00000
      2     -14.9676      2.00000
      3     -12.3004      2.00000
      4     -12.1480      2.00000
      5     -10.2538      2.00000
      6     -10.1113      2.00000
      7      -7.4362      2.00000
      8      -7.3376      2.00000
      9      -6.1824      2.00000
     10      -6.1815      2.00000
     11      -5.4166      2.00000
     12      -5.0600      2.00000
     13      -4.5268      2.00000
     14      -3.9922      2.00000
     15      -3.3811      2.00000
     16      -3.1698      2.00000
     17      -2.7416      2.00000
     18      -2.6046      2.00000
     19      -0.1187      0.00000
     20      -0.0441      0.00000
     21       0.4512      0.00000
     22       0.5022      0.00000
     23       1.2063      0.00000
     24       1.2820      0.00000

 k-point    80 :       0.5000    0.1724    0.0000
  band No.  band energies     occupation 
      1     -15.0052      2.00000
      2     -14.9762      2.00000
      3     -12.2855      2.00000
      4     -12.1412      2.00000
      5     -10.2325      2.00000
      6     -10.0976      2.00000
      7      -7.3754      2.00000
      8      -7.2632      2.00000
      9      -6.2497      2.00000
     10      -6.2287      2.00000
     11      -5.4491      2.00000
     12      -5.0961      2.00000
     13      -4.5860      2.00000
     14      -4.0626      2.00000
     15      -3.4030      2.00000
     16      -3.1979      2.00000
     17      -2.7359      2.00000
     18      -2.6100      2.00000
     19      -0.1247      0.00000
     20      -0.0586      0.00000
     21       0.4314      0.00000
     22       0.4849      0.00000
     23       1.2430      0.00000
     24       1.3076      0.00000

 k-point    81 :       0.5000    0.1552    0.0000
  band No.  band energies     occupation 
      1     -15.0114      2.00000
      2     -14.9846      2.00000
      3     -12.2707      2.00000
      4     -12.1361      2.00000
      5     -10.2103      2.00000
      6     -10.0845      2.00000
      7      -7.3153      2.00000
      8      -7.1887      2.00000
      9      -6.3176      2.00000
     10      -6.2731      2.00000
     11      -5.4768      2.00000
     12      -5.1310      2.00000
     13      -4.6430      2.00000
     14      -4.1376      2.00000
     15      -3.4217      2.00000
     16      -3.2278      2.00000
     17      -2.7250      2.00000
     18      -2.6106      2.00000
     19      -0.1305      0.00000
     20      -0.0719      0.00000
     21       0.4138      0.00000
     22       0.4680      0.00000
     23       1.2793      0.00000
     24       1.3337      0.00000

 k-point    82 :       0.5000    0.1379    0.0000
  band No.  band energies     occupation 
      1     -15.0169      2.00000
      2     -14.9924      2.00000
      3     -12.2562      2.00000
      4     -12.1327      2.00000
      5     -10.1876      2.00000
      6     -10.0723      2.00000
      7      -7.2567      2.00000
      8      -7.1151      2.00000
      9      -6.3839      2.00000
     10      -6.3150      2.00000
     11      -5.4998      2.00000
     12      -5.1657      2.00000
     13      -4.6955      2.00000
     14      -4.2156      2.00000
     15      -3.4368      2.00000
     16      -3.2581      2.00000
     17      -2.7107      2.00000
     18      -2.6083      2.00000
     19      -0.1358      0.00000
     20      -0.0841      0.00000
     21       0.3986      0.00000
     22       0.4517      0.00000
     23       1.3135      0.00000
     24       1.3565      0.00000

 k-point    83 :       0.5000    0.1207    0.0000
  band No.  band energies     occupation 
      1     -15.0216      2.00000
      2     -14.9997      2.00000
      3     -12.2421      2.00000
      4     -12.1311      2.00000
      5     -10.1650      2.00000
      6     -10.0615      2.00000
      7      -7.2001      2.00000
      8      -7.0436      2.00000
      9      -6.4472      2.00000
     10      -6.3539      2.00000
     11      -5.5181      2.00000
     12      -5.2014      2.00000
     13      -4.7412      2.00000
     14      -4.2946      2.00000
     15      -3.4481      2.00000
     16      -3.2878      2.00000
     17      -2.6946      2.00000
     18      -2.6042      2.00000
     19      -0.1404      0.00000
     20      -0.0952      0.00000
     21       0.3860      0.00000
     22       0.4364      0.00000
     23       1.3456      0.00000
     24       1.3786      0.00000

 k-point    84 :       0.5000    0.1034    0.0000
  band No.  band energies     occupation 
      1     -15.0256      2.00000
      2     -15.0065      2.00000
      3     -12.2284      2.00000
      4     -12.1310      2.00000
      5     -10.1430      2.00000
      6     -10.0522      2.00000
      7      -7.1461      2.00000
      8      -6.9759      2.00000
      9      -6.5059      2.00000
     10      -6.3897      2.00000
     11      -5.5315      2.00000
     12      -5.2394      2.00000
     13      -4.7775      2.00000
     14      -4.3729      2.00000
     15      -3.4558      2.00000
     16      -3.3160      2.00000
     17      -2.6779      2.00000
     18      -2.5997      2.00000
     19      -0.1442      0.00000
     20      -0.1053      0.00000
     21       0.3758      0.00000
     22       0.4220      0.00000
     23       1.3747      0.00000
     24       1.3987      0.00000

 k-point    85 :       0.5000    0.0862    0.0000
  band No.  band energies     occupation 
      1     -15.0287      2.00000
      2     -15.0126      2.00000
      3     -12.2152      2.00000
      4     -12.1326      2.00000
      5     -10.1220      2.00000
      6     -10.0449      2.00000
      7      -7.0950      2.00000
      8      -6.9146      2.00000
      9      -6.5580      2.00000
     10      -6.4225      2.00000
     11      -5.5395      2.00000
     12      -5.2801      2.00000
     13      -4.8025      2.00000
     14      -4.4488      2.00000
     15      -3.4601      2.00000
     16      -3.3422      2.00000
     17      -2.6613      2.00000
     18      -2.5957      2.00000
     19      -0.1471      0.00000
     20      -0.1143      0.00000
     21       0.3682      0.00000
     22       0.4089      0.00000
     23       1.4002      0.00000
     24       1.4167      0.00000

 k-point    86 :       0.5000    0.0690    0.0000
  band No.  band energies     occupation 
      1     -15.0310      2.00000
      2     -15.0179      2.00000
      3     -12.2027      2.00000
      4     -12.1356      2.00000
      5     -10.1025      2.00000
      6     -10.0400      2.00000
      7      -7.0470      2.00000
      8      -6.8644      2.00000
      9      -6.5994      2.00000
     10      -6.4527      2.00000
     11      -5.5417      2.00000
     12      -5.3231      2.00000
     13      -4.8149      2.00000
     14      -4.5207      2.00000
     15      -3.4611      2.00000
     16      -3.3660      2.00000
     17      -2.6456      2.00000
     18      -2.5928      2.00000
     19      -0.1489      0.00000
     20      -0.1224      0.00000
     21       0.3631      0.00000
     22       0.3971      0.00000
     23       1.4216      0.00000
     24       1.4322      0.00000

 k-point    87 :       0.5000    0.0517    0.0000
  band No.  band energies     occupation 
      1     -15.0324      2.00000
      2     -15.0225      2.00000
      3     -12.1909      2.00000
      4     -12.1400      2.00000
      5     -10.0850      2.00000
      6     -10.0376      2.00000
      7      -7.0021      2.00000
      8      -6.8340      2.00000
      9      -6.6225      2.00000
     10      -6.4814      2.00000
     11      -5.5374      2.00000
     12      -5.3667      2.00000
     13      -4.8146      2.00000
     14      -4.5873      2.00000
     15      -3.4591      2.00000
     16      -3.3874      2.00000
     17      -2.6313      2.00000
     18      -2.5916      2.00000
     19      -0.1495      0.00000
     20      -0.1295      0.00000
     21       0.3603      0.00000
     22       0.3867      0.00000
     23       1.4386      0.00000
     24       1.4448      0.00000

 k-point    88 :       0.5000    0.0345    0.0000
  band No.  band energies     occupation 
      1     -15.0330      2.00000
      2     -15.0263      2.00000
      3     -12.1800      2.00000
      4     -12.1458      2.00000
      5     -10.0699      2.00000
      6     -10.0380      2.00000
      7      -6.9599      2.00000
      8      -6.8315      2.00000
      9      -6.6201      2.00000
     10      -6.5097      2.00000
     11      -5.5260      2.00000
     12      -5.4090      2.00000
     13      -4.8021      2.00000
     14      -4.6475      2.00000
     15      -3.4541      2.00000
     16      -3.4062      2.00000
     17      -2.6190      2.00000
     18      -2.5924      2.00000
     19      -0.1490      0.00000
     20      -0.1356      0.00000
     21       0.3598      0.00000
     22       0.3778      0.00000
     23       1.4507      0.00000
     24       1.4541      0.00000

 k-point    89 :       0.5000    0.0172    0.0000
  band No.  band energies     occupation 
      1     -15.0326      2.00000
      2     -15.0293      2.00000
      3     -12.1699      2.00000
      4     -12.1527      2.00000
      5     -10.0575      2.00000
      6     -10.0414      2.00000
      7      -6.9204      2.00000
      8      -6.8520      2.00000
      9      -6.5980      2.00000
     10      -6.5387      2.00000
     11      -5.5071      2.00000
     12      -5.4476      2.00000
     13      -4.7783      2.00000
     14      -4.7000      2.00000
     15      -3.4462      2.00000
     16      -3.4222      2.00000
     17      -2.6088      2.00000
     18      -2.5954      2.00000
     19      -0.1474      0.00000
     20      -0.1406      0.00000
     21       0.3615      0.00000
     22       0.3706      0.00000
     23       1.4583      0.00000
     24       1.4597      0.00000

 k-point    90 :       0.5000    0.0000    0.0000
  band No.  band energies     occupation 
      1     -15.0314      2.00000
      2     -15.0314      2.00000
      3     -12.1608      2.00000
      4     -12.1608      2.00000
      5     -10.0480      2.00000
      6     -10.0479      2.00000
      7      -6.8837      2.00000
      8      -6.8837      2.00000
      9      -6.5687      2.00000
     10      -6.5687      2.00000
     11      -5.4808      2.00000
     12      -5.4808      2.00000
     13      -4.7439      2.00000
     14      -4.7439      2.00000
     15      -3.4356      2.00000
     16      -3.4356      2.00000
     17      -2.6009      2.00000
     18      -2.6009      2.00000
     19      -0.1446      0.00000
     20      -0.1445      0.00000
     21       0.3651      0.00000
     22       0.3651      0.00000
     23       1.4612      0.00000
     24       1.4614      0.00000

 k-point    91 :       0.5000    0.0000    0.0000
  band No.  band energies     occupation 
      1     -15.0314      2.00000
      2     -15.0314      2.00000
      3     -12.1608      2.00000
      4     -12.1608      2.00000
      5     -10.0480      2.00000
      6     -10.0479      2.00000
      7      -6.8837      2.00000
      8      -6.8837      2.00000
      9      -6.5687      2.00000
     10      -6.5687      2.00000
     11      -5.4808      2.00000
     12      -5.4808      2.00000
     13      -4.7439      2.00000
     14      -4.7439      2.00000
     15      -3.4356      2.00000
     16      -3.4356      2.00000
     17      -2.6009      2.00000
     18      -2.6009      2.00000
     19      -0.1446      0.00000
     20      -0.1445      0.00000
     21       0.3651      0.00000
     22       0.3651      0.00000
     23       1.4612      0.00000
     24       1.4612      0.00000

 k-point    92 :       0.4828    0.0000    0.0000
  band No.  band energies     occupation 
      1     -15.0926      2.00000
      2     -14.9692      2.00000
      3     -12.1821      2.00000
      4     -12.1403      2.00000
      5     -10.0485      2.00000
      6     -10.0447      2.00000
      7      -6.9223      2.00000
      8      -6.8543      2.00000
      9      -6.5855      2.00000
     10      -6.5385      2.00000
     11      -5.5287      2.00000
     12      -5.4329      2.00000
     13      -4.8217      2.00000
     14      -4.6680      2.00000
     15      -3.5077      2.00000
     16      -3.3733      2.00000
     17      -2.6227      2.00000
     18      -2.5724      2.00000
     19      -0.2376      0.00000
     20      -0.0582      0.00000
     21       0.3362      0.00000
     22       0.4031      0.00000
     23       1.3716      0.00000
     24       1.5309      0.00000

 k-point    93 :       0.4655    0.0000    0.0000
  band No.  band energies     occupation 
      1     -15.1525      2.00000
      2     -14.9060      2.00000
      3     -12.2039      2.00000
      4     -12.1208      2.00000
      5     -10.0469      2.00000
      6     -10.0384      2.00000
      7      -6.9658      2.00000
      8      -6.8390      2.00000
      9      -6.5842      2.00000
     10      -6.4994      2.00000
     11      -5.5758      2.00000
     12      -5.3862      2.00000
     13      -4.9009      2.00000
     14      -4.5943      2.00000
     15      -3.5841      2.00000
     16      -3.3270      2.00000
     17      -2.6353      2.00000
     18      -2.5401      2.00000
     19      -0.3256      0.00000
     20       0.0032      0.00000
     21       0.3247      0.00000
     22       0.4456      0.00000
     23       1.2777      0.00000
     24       1.5701      0.00000

 k-point    94 :       0.4483    0.0000    0.0000
  band No.  band energies     occupation 
      1     -15.2110      2.00000
      2     -14.8421      2.00000
      3     -12.2257      2.00000
      4     -12.1028      2.00000
      5     -10.0435      2.00000
      6     -10.0288      2.00000
      7      -7.0112      2.00000
      8      -6.8386      2.00000
      9      -6.5641      2.00000
     10      -6.4547      2.00000
     11      -5.6212      2.00000
     12      -5.3425      2.00000
     13      -4.9803      2.00000
     14      -4.5229      2.00000
     15      -3.6598      2.00000
     16      -3.3014      2.00000
     17      -2.6375      2.00000
     18      -2.5061      2.00000
     19      -0.4010      0.00000
     20       0.0213      0.00000
     21       0.3340      0.00000
     22       0.4901      0.00000
     23       1.1994      0.00000
     24       1.5735      0.00000

 k-point    95 :       0.4310    0.0000    0.0000
  band No.  band energies     occupation 
      1     -15.2681      2.00000
      2     -14.7777      2.00000
      3     -12.2474      2.00000
      4     -12.0863      2.00000
      5     -10.0388      2.00000
      6     -10.0155      2.00000
      7      -7.0569      2.00000
      8      -6.8485      2.00000
      9      -6.5305      2.00000
     10      -6.4065      2.00000
     11      -5.6637      2.00000
     12      -5.3054      2.00000
     13      -5.0562      2.00000
     14      -4.4542      2.00000
     15      -3.7310      2.00000
     16      -3.2980      2.00000
     17      -2.6315      2.00000
     18      -2.4723      2.00000
     19      -0.4582      0.00000
     20      -0.0035      0.00000
     21       0.3447      0.00000
     22       0.5351      0.00000
     23       1.1595      0.00000
     24       1.5431      0.00000

 k-point    96 :       0.4138    0.0000    0.0000
  band No.  band energies     occupation 
      1     -15.3235      2.00000
      2     -14.7130      2.00000
      3     -12.2684      2.00000
      4     -12.0717      2.00000
      5     -10.0333      2.00000
      6      -9.9985      2.00000
      7      -7.1019      2.00000
      8      -6.8631      2.00000
      9      -6.4896      2.00000
     10      -6.3573      2.00000
     11      -5.7019      2.00000
     12      -5.2869      2.00000
     13      -5.1168      2.00000
     14      -4.3887      2.00000
     15      -3.7948      2.00000
     16      -3.3148      2.00000
     17      -2.6223      2.00000
     18      -2.4403      2.00000
     19      -0.4932      0.00000
     20      -0.0602      0.00000
     21       0.3318      0.00000
     22       0.5794      0.00000
     23       1.1741      0.00000
     24       1.4850      0.00000

 k-point    97 :       0.3966    0.0000    0.0000
  band No.  band energies     occupation 
      1     -15.3772      2.00000
      2     -14.6482      2.00000
      3     -12.2884      2.00000
      4     -12.0589      2.00000
      5     -10.0274      2.00000
      6      -9.9775      2.00000
      7      -7.1454      2.00000
      8      -6.8789      2.00000
      9      -6.4458      2.00000
     10      -6.3096      2.00000
     11      -5.7333      2.00000
     12      -5.3125      2.00000
     13      -5.1359      2.00000
     14      -4.3272      2.00000
     15      -3.8490      2.00000
     16      -3.3475      2.00000
     17      -2.6160      2.00000
     18      -2.4115      2.00000
     19      -0.5040      0.00000
     20      -0.1432      0.00000
     21       0.2948      0.00000
     22       0.6217      0.00000
     23       1.2385      0.00000
     24       1.4070      0.00000

 k-point    98 :       0.3793    0.0000    0.0000
  band No.  band energies     occupation 
      1     -15.4291      2.00000
      2     -14.5837      2.00000
      3     -12.3070      2.00000
      4     -12.0481      2.00000
      5     -10.0217      2.00000
      6      -9.9526      2.00000
      7      -7.1870      2.00000
      8      -6.8943      2.00000
      9      -6.4022      2.00000
     10      -6.2670      2.00000
     11      -5.7549      2.00000
     12      -5.3763      2.00000
     13      -5.1183      2.00000
     14      -4.2710      2.00000
     15      -3.8921      2.00000
     16      -3.3912      2.00000
     17      -2.6170      2.00000
     18      -2.3872      2.00000
     19      -0.4911      0.00000
     20      -0.2499      0.00000
     21       0.2490      0.00000
     22       0.6600      0.00000
     23       1.3182      0.00000
     24       1.3343      0.00000

 k-point    99 :       0.3621    0.0000    0.0000
  band No.  band energies     occupation 
      1     -15.4792      2.00000
      2     -14.5198      2.00000
      3     -12.3239      2.00000
      4     -12.0394      2.00000
      5     -10.0166      2.00000
      6      -9.9239      2.00000
      7      -7.2261      2.00000
      8      -6.9087      2.00000
      9      -6.3608      2.00000
     10      -6.2341      2.00000
     11      -5.7624      2.00000
     12      -5.4510      2.00000
     13      -5.0893      2.00000
     14      -4.2222      2.00000
     15      -3.9233      2.00000
     16      -3.4410      2.00000
     17      -2.6269      2.00000
     18      -2.3687      2.00000
     19      -0.4582      0.00000
     20      -0.3753      0.00000
     21       0.2062      0.00000
     22       0.6919      0.00000
     23       1.2282      0.00000
     24       1.4417      0.00000

 k-point   100 :       0.3448    0.0000    0.0000
  band No.  band energies     occupation 
      1     -15.5273      2.00000
      2     -14.4567      2.00000
      3     -12.3387      2.00000
      4     -12.0325      2.00000
      5     -10.0124      2.00000
      6      -9.8916      2.00000
      7      -7.2625      2.00000
      8      -6.9224      2.00000
      9      -6.3239      2.00000
     10      -6.2152      2.00000
     11      -5.7517      2.00000
     12      -5.5245      2.00000
     13      -5.0583      2.00000
     14      -4.1841      2.00000
     15      -3.9425      2.00000
     16      -3.4917      2.00000
     17      -2.6452      2.00000
     18      -2.3579      2.00000
     19      -0.5125      0.00000
     20      -0.4124      0.00000
     21       0.1704      0.00000
     22       0.7135      0.00000
     23       1.1488      0.00000
     24       1.5453      0.00000

 k-point   101 :       0.3276    0.0000    0.0000
  band No.  band energies     occupation 
      1     -15.5733      2.00000
      2     -14.3949      2.00000
      3     -12.3510      2.00000
      4     -12.0276      2.00000
      5     -10.0096      2.00000
      6      -9.8558      2.00000
      7      -7.2959      2.00000
      8      -6.9361      2.00000
      9      -6.2933      2.00000
     10      -6.2121      2.00000
     11      -5.7214      2.00000
     12      -5.5908      2.00000
     13      -5.0275      2.00000
     14      -4.1614      2.00000
     15      -3.9500      2.00000
     16      -3.5375      2.00000
     17      -2.6695      2.00000
     18      -2.3564      2.00000
     19      -0.6539      0.00000
     20      -0.3640      0.00000
     21       0.1417      0.00000
     22       0.7213      0.00000
     23       1.0928      0.00000
     24       1.6293      0.00000

 k-point   102 :       0.3103    0.0000    0.0000
  band No.  band energies     occupation 
      1     -15.6173      2.00000
      2     -14.3346      2.00000
      3     -12.3606      2.00000
      4     -12.0244      2.00000
      5     -10.0085      2.00000
      6      -9.8170      2.00000
      7      -7.3258      2.00000
      8      -6.9511      2.00000
      9      -6.2708      2.00000
     10      -6.2227      2.00000
     11      -5.6739      2.00000
     12      -5.6456      2.00000
     13      -4.9973      2.00000
     14      -4.1594      2.00000
     15      -3.9467      2.00000
     16      -3.5715      2.00000
     17      -2.6972      2.00000
     18      -2.3665      2.00000
     19      -0.7934      0.00000
     20      -0.3269      0.00000
     21       0.1191      0.00000
     22       0.7191      0.00000
     23       1.0686      0.00000
     24       1.6808      0.00000

 k-point   103 :       0.2931    0.0000    0.0000
  band No.  band energies     occupation 
      1     -15.6592      2.00000
      2     -14.2764      2.00000
      3     -12.3671      2.00000
      4     -12.0228      2.00000
      5     -10.0093      2.00000
      6      -9.7755      2.00000
      7      -7.3520      2.00000
      8      -6.9689      2.00000
      9      -6.2571      2.00000
     10      -6.2434      2.00000
     11      -5.6854      2.00000
     12      -5.6136      2.00000
     13      -4.9673      2.00000
     14      -4.1821      2.00000
     15      -3.9338      2.00000
     16      -3.5890      2.00000
     17      -2.7256      2.00000
     18      -2.3905      2.00000
     19      -0.9255      0.00000
     20      -0.3162      0.00000
     21       0.1015      0.00000
     22       0.7222      0.00000
     23       1.0736      0.00000
     24       1.6993      0.00000

 k-point   104 :       0.2759    0.0000    0.0000
  band No.  band energies     occupation 
      1     -15.6989      2.00000
      2     -14.2205      2.00000
      3     -12.3704      2.00000
      4     -12.0226      2.00000
      5     -10.0123      2.00000
      6      -9.7319      2.00000
      7      -7.3743      2.00000
      8      -6.9911      2.00000
      9      -6.2705      2.00000
     10      -6.2515      2.00000
     11      -5.7085      2.00000
     12      -5.5446      2.00000
     13      -4.9369      2.00000
     14      -4.2288      2.00000
     15      -3.9130      2.00000
     16      -3.5895      2.00000
     17      -2.7525      2.00000
     18      -2.4307      2.00000
     19      -1.0457      0.00000
     20      -0.3424      0.00000
     21       0.0879      0.00000
     22       0.7462      0.00000
     23       1.1008      0.00000
     24       1.6582      0.00000

 k-point   105 :       0.2586    0.0000    0.0000
  band No.  band energies     occupation 
      1     -15.7364      2.00000
      2     -14.1674      2.00000
      3     -12.3702      2.00000
      4     -12.0236      2.00000
      5     -10.0176      2.00000
      6      -9.6866      2.00000
      7      -7.3924      2.00000
      8      -7.0194      2.00000
      9      -6.3015      2.00000
     10      -6.2512      2.00000
     11      -5.7156      2.00000
     12      -5.4704      2.00000
     13      -4.9053      2.00000
     14      -4.2940      2.00000
     15      -3.8858      2.00000
     16      -3.5772      2.00000
     17      -2.7760      2.00000
     18      -2.4890      2.00000
     19      -1.1506      0.00000
     20      -0.4059      0.00000
     21       0.0775      0.00000
     22       0.7923      0.00000
     23       1.1474      0.00000
     24       1.5889      0.00000

 k-point   106 :       0.2414    0.0000    0.0000
  band No.  band energies     occupation 
      1     -15.7716      2.00000
      2     -14.1174      2.00000
      3     -12.3664      2.00000
      4     -12.0256      2.00000
      5     -10.0252      2.00000
      6      -9.6403      2.00000
      7      -7.4058      2.00000
      8      -7.0544      2.00000
      9      -6.3349      2.00000
     10      -6.2523      2.00000
     11      -5.7089      2.00000
     12      -5.3939      2.00000
     13      -4.8722      2.00000
     14      -4.3709      2.00000
     15      -3.8540      2.00000
     16      -3.5571      2.00000
     17      -2.7950      2.00000
     18      -2.5657      2.00000
     19      -1.2383      0.00000
     20      -0.4990      0.00000
     21       0.0695      0.00000
     22       0.8489      0.00000
     23       1.2158      0.00000
     24       1.5112      0.00000

 k-point   107 :       0.2241    0.0000    0.0000
  band No.  band energies     occupation 
      1     -15.8045      2.00000
      2     -14.0708      2.00000
      3     -12.3590      2.00000
      4     -12.0285      2.00000
      5     -10.0352      2.00000
      6      -9.5936      2.00000
      7      -7.4145      2.00000
      8      -7.0961      2.00000
      9      -6.3699      2.00000
     10      -6.2515      2.00000
     11      -5.6908      2.00000
     12      -5.3181      2.00000
     13      -4.8374      2.00000
     14      -4.4527      2.00000
     15      -3.8193      2.00000
     16      -3.5335      2.00000
     17      -2.8089      2.00000
     18      -2.6598      2.00000
     19      -1.3088      0.00000
     20      -0.6120      0.00000
     21       0.0633      0.00000
     22       0.9020      0.00000
     23       1.3081      0.00000
     24       1.4187      0.00000

 k-point   108 :       0.2069    0.0000    0.0000
  band No.  band energies     occupation 
      1     -15.8351      2.00000
      2     -14.0278      2.00000
      3     -12.3481      2.00000
      4     -12.0320      2.00000
      5     -10.0474      2.00000
      6      -9.5472      2.00000
      7      -7.4182      2.00000
      8      -7.1433      2.00000
      9      -6.4057      2.00000
     10      -6.2473      2.00000
     11      -5.6632      2.00000
     12      -5.2468      2.00000
     13      -4.8011      2.00000
     14      -4.5328      2.00000
     15      -3.7835      2.00000
     16      -3.5090      2.00000
     17      -2.8176      2.00000
     18      -2.7682      2.00000
     19      -1.3637      0.00000
     20      -0.7367      0.00000
     21       0.0581      0.00000
     22       0.9448      0.00000
     23       1.3252      0.00000
     24       1.4258      0.00000

 k-point   109 :       0.1897    0.0000    0.0000
  band No.  band energies     occupation 
      1     -15.8633      2.00000
      2     -13.9887      2.00000
      3     -12.3340      2.00000
      4     -12.0359      2.00000
      5     -10.0616      2.00000
      6      -9.5017      2.00000
      7      -7.4166      2.00000
      8      -7.1945      2.00000
      9      -6.4423      2.00000
     10      -6.2395      2.00000
     11      -5.6271      2.00000
     12      -5.1861      2.00000
     13      -4.7634      2.00000
     14      -4.6031      2.00000
     15      -3.7489      2.00000
     16      -3.4851      2.00000
     17      -2.8869      2.00000
     18      -2.8217      2.00000
     19      -1.4053      0.00000
     20      -0.8674      0.00000
     21       0.0536      0.00000
     22       0.9775      0.00000
     23       1.2311      0.00000
     24       1.5478      0.00000

 k-point   110 :       0.1724    0.0000    0.0000
  band No.  band energies     occupation 
      1     -15.8892      2.00000
      2     -13.9536      2.00000
      3     -12.3171      2.00000
      4     -12.0400      2.00000
      5     -10.0776      2.00000
      6      -9.4578      2.00000
      7      -7.4096      2.00000
      8      -7.2476      2.00000
      9      -6.4795      2.00000
     10      -6.2290      2.00000
     11      -5.5828      2.00000
     12      -5.1455      2.00000
     13      -4.7251      2.00000
     14      -4.6529      2.00000
     15      -3.7184      2.00000
     16      -3.4618      2.00000
     17      -3.0107      2.00000
     18      -2.8221      2.00000
     19      -1.4364      0.00000
     20      -0.9997      0.00000
     21       0.0492      0.00000
     22       1.0027      0.00000
     23       1.1398      0.00000
     24       1.7096      0.00000

 k-point   111 :       0.1552    0.0000    0.0000
  band No.  band energies     occupation 
      1     -15.9126      2.00000
      2     -13.9224      2.00000
      3     -12.2979      2.00000
      4     -12.0442      2.00000
      5     -10.0950      2.00000
      6      -9.4162      2.00000
      7      -7.3973      2.00000
      8      -7.3007      2.00000
      9      -6.5174      2.00000
     10      -6.2172      2.00000
     11      -5.5301      2.00000
     12      -5.1359      2.00000
     13      -4.6868      2.00000
     14      -4.6706      2.00000
     15      -3.6966      2.00000
     16      -3.4390      2.00000
     17      -3.1326      2.00000
     18      -2.8203      2.00000
     19      -1.4594      0.00000
     20      -1.1304      0.00000
     21       0.0446      0.00000
     22       1.0226      0.00000
     23       1.0529      0.00000
     24       1.8775      0.00000

 k-point   112 :       0.1379    0.0000    0.0000
  band No.  band energies     occupation 
      1     -15.9336      2.00000
      2     -13.8952      2.00000
      3     -12.2771      2.00000
      4     -12.0484      2.00000
      5     -10.1132      2.00000
      6      -9.3774      2.00000
      7      -7.3798      2.00000
      8      -7.3520      2.00000
      9      -6.5559      2.00000
     10      -6.2052      2.00000
     11      -5.4692      2.00000
     12      -5.1588      2.00000
     13      -4.6542      2.00000
     14      -4.6494      2.00000
     15      -3.6923      2.00000
     16      -3.4156      2.00000
     17      -3.2420      2.00000
     18      -2.8181      2.00000
     19      -1.4765      0.00000
     20      -1.2567      0.00000
     21       0.0395      0.00000
     22       0.9719      0.00000
     23       1.0389      0.00000
     24       1.8448      0.00000

 k-point   113 :       0.1207    0.0000    0.0000
  band No.  band energies     occupation 
      1     -15.9522      2.00000
      2     -13.8718      2.00000
      3     -12.2555      2.00000
      4     -12.0524      2.00000
      5     -10.1317      2.00000
      6      -9.3420      2.00000
      7      -7.4000      2.00000
      8      -7.3574      2.00000
      9      -6.5950      2.00000
     10      -6.1941      2.00000
     11      -5.4001      2.00000
     12      -5.2031      2.00000
     13      -4.6145      2.00000
     14      -4.6136      2.00000
     15      -3.7196      2.00000
     16      -3.3905      2.00000
     17      -3.3233      2.00000
     18      -2.8176      2.00000
     19      -1.4890      0.00000
     20      -1.3760      0.00000
     21       0.0340      0.00000
     22       0.8981      0.00000
     23       1.0526      0.00000
     24       1.8054      0.00000

 k-point   114 :       0.1034    0.0000    0.0000
  band No.  band energies     occupation 
      1     -15.9684      2.00000
      2     -13.8520      2.00000
      3     -12.2340      2.00000
      4     -12.0561      2.00000
      5     -10.1499      2.00000
      6      -9.3105      2.00000
      7      -7.4436      2.00000
      8      -7.3306      2.00000
      9      -6.6347      2.00000
     10      -6.1843      2.00000
     11      -5.3237      2.00000
     12      -5.2558      2.00000
     13      -4.5801      2.00000
     14      -4.5649      2.00000
     15      -3.7884      2.00000
     16      -3.3655      2.00000
     17      -3.3628      2.00000
     18      -2.8207      2.00000
     19      -1.4983      0.00000
     20      -1.4858      0.00000
     21       0.0282      0.00000
     22       0.8324      0.00000
     23       1.0644      0.00000
     24       1.7746      0.00000

 k-point   115 :       0.0862    0.0000    0.0000
  band No.  band energies     occupation 
      1     -15.9821      2.00000
      2     -13.8358      2.00000
      3     -12.2136      2.00000
      4     -12.0593      2.00000
      5     -10.1670      2.00000
      6      -9.2833      2.00000
      7      -7.4818      2.00000
      8      -7.3005      2.00000
      9      -6.6744      2.00000
     10      -6.1762      2.00000
     11      -5.3084      2.00000
     12      -5.2412      2.00000
     13      -4.5498      2.00000
     14      -4.5141      2.00000
     15      -3.8887      2.00000
     16      -3.3769      2.00000
     17      -3.3317      2.00000
     18      -2.8289      2.00000
     19      -1.5834      0.00000
     20      -1.5051      0.00000
     21       0.0223      0.00000
     22       0.7756      0.00000
     23       1.0743      0.00000
     24       1.7484      0.00000

 k-point   116 :       0.0690    0.0000    0.0000
  band No.  band energies     occupation 
      1     -15.9933      2.00000
      2     -13.8228      2.00000
      3     -12.1952      2.00000
      4     -12.0621      2.00000
      5     -10.1823      2.00000
      6      -9.2607      2.00000
      7      -7.5139      2.00000
      8      -7.2686      2.00000
      9      -6.7133      2.00000
     10      -6.1698      2.00000
     11      -5.3558      2.00000
     12      -5.1546      2.00000
     13      -4.5228      2.00000
     14      -4.4676      2.00000
     15      -4.0029      2.00000
     16      -3.3736      2.00000
     17      -3.2975      2.00000
     18      -2.8433      2.00000
     19      -1.6666      0.00000
     20      -1.5101      0.00000
     21       0.0166      0.00000
     22       0.7283      0.00000
     23       1.0827      0.00000
     24       1.7271      0.00000

 k-point   117 :       0.0517    0.0000    0.0000
  band No.  band energies     occupation 
      1     -16.0020      2.00000
      2     -13.8129      2.00000
      3     -12.1798      2.00000
      4     -12.0644      2.00000
      5     -10.1952      2.00000
      6      -9.2429      2.00000
      7      -7.5394      2.00000
      8      -7.2369      2.00000
      9      -6.7496      2.00000
     10      -6.1651      2.00000
     11      -5.3950      2.00000
     12      -5.0677      2.00000
     13      -4.4993      2.00000
     14      -4.4289      2.00000
     15      -4.1183      2.00000
     16      -3.3654      2.00000
     17      -3.2613      2.00000
     18      -2.8633      2.00000
     19      -1.7330      0.00000
     20      -1.5136      0.00000
     21       0.0116      0.00000
     22       0.6911      0.00000
     23       1.0895      0.00000
     24       1.7101      0.00000

 k-point   118 :       0.0345    0.0000    0.0000
  band No.  band energies     occupation 
      1     -16.0083      2.00000
      2     -13.8060      2.00000
      3     -12.1682      2.00000
      4     -12.0660      2.00000
      5     -10.2048      2.00000
      6      -9.2301      2.00000
      7      -7.5579      2.00000
      8      -7.2089      2.00000
      9      -6.7807      2.00000
     10      -6.1618      2.00000
     11      -5.4241      2.00000
     12      -4.9872      2.00000
     13      -4.4782      2.00000
     14      -4.3999      2.00000
     15      -4.2250      2.00000
     16      -3.3574      2.00000
     17      -3.2265      2.00000
     18      -2.8864      2.00000
     19      -1.7813      0.00000
     20      -1.5159      0.00000
     21       0.0076      0.00000
     22       0.6642      0.00000
     23       1.0944      0.00000
     24       1.6983      0.00000

 k-point   119 :       0.0172    0.0000    0.0000
  band No.  band energies     occupation 
      1     -16.0120      2.00000
      2     -13.8019      2.00000
      3     -12.1609      2.00000
      4     -12.0670      2.00000
      5     -10.2108      2.00000
      6      -9.2224      2.00000
      7      -7.5691      2.00000
      8      -7.1890      2.00000
      9      -6.8023      2.00000
     10      -6.1599      2.00000
     11      -5.4419      2.00000
     12      -4.9256      2.00000
     13      -4.4575      2.00000
     14      -4.3821      2.00000
     15      -4.3107      2.00000
     16      -3.3519      2.00000
     17      -3.1995      2.00000
     18      -2.9063      2.00000
     19      -1.8105      0.00000
     20      -1.5172      0.00000
     21       0.0051      0.00000
     22       0.6480      0.00000
     23       1.0975      0.00000
     24       1.6912      0.00000

 k-point   120 :       0.0000    0.0000    0.0000
  band No.  band energies     occupation 
      1     -16.0132      2.00000
      2     -13.8005      2.00000
      3     -12.1584      2.00000
      4     -12.0674      2.00000
      5     -10.2129      2.00000
      6      -9.2198      2.00000
      7      -7.5728      2.00000
      8      -7.1816      2.00000
      9      -6.8102      2.00000
     10      -6.1593      2.00000
     11      -5.4480      2.00000
     12      -4.9015      2.00000
     13      -4.4438      2.00000
     14      -4.3761      2.00000
     15      -4.3497      2.00000
     16      -3.3499      2.00000
     17      -3.1889      2.00000
     18      -2.9145      2.00000
     19      -1.8203      0.00000
     20      -1.5176      0.00000
     21       0.0042      0.00000
     22       0.6426      0.00000
     23       1.0985      0.00000
     24       1.6886      0.00000

 k-point   121 :       0.0000    0.0000    0.0000
  band No.  band energies     occupation 
      1     -16.0132      2.00000
      2     -13.8005      2.00000
      3     -12.1584      2.00000
      4     -12.0674      2.00000
      5     -10.2129      2.00000
      6      -9.2198      2.00000
      7      -7.5728      2.00000
      8      -7.1816      2.00000
      9      -6.8102      2.00000
     10      -6.1593      2.00000
     11      -5.4480      2.00000
     12      -4.9015      2.00000
     13      -4.4438      2.00000
     14      -4.3761      2.00000
     15      -4.3497      2.00000
     16      -3.3499      2.00000
     17      -3.1889      2.00000
     18      -2.9145      2.00000
     19      -1.8203      0.00000
     20      -1.5176      0.00000
     21       0.0042      0.00000
     22       0.6426      0.00000
     23       1.0985      0.00000
     24       1.6886      0.00000

 k-point   122 :       0.0172    0.0172    0.0000
  band No.  band energies     occupation 
      1     -16.0116      2.00000
      2     -13.8015      2.00000
      3     -12.1602      2.00000
      4     -12.0694      2.00000
      5     -10.2137      2.00000
      6      -9.2208      2.00000
      7      -7.5695      2.00000
      8      -7.1929      2.00000
      9      -6.7935      2.00000
     10      -6.1589      2.00000
     11      -5.4444      2.00000
     12      -4.9445      2.00000
     13      -4.4311      2.00000
     14      -4.3860      2.00000
     15      -4.3122      2.00000
     16      -3.3518      2.00000
     17      -3.1925      2.00000
     18      -2.9137      2.00000
     19      -1.8050      0.00000
     20      -1.5166      0.00000
     21       0.0036      0.00000
     22       0.6505      0.00000
     23       1.1001      0.00000
     24       1.6901      0.00000

 k-point   123 :       0.0345    0.0345    0.0000
  band No.  band energies     occupation 
      1     -16.0065      2.00000
      2     -13.8045      2.00000
      3     -12.1654      2.00000
      4     -12.0755      2.00000
      5     -10.2161      2.00000
      6      -9.2242      2.00000
      7      -7.5595      2.00000
      8      -7.2210      2.00000
      9      -6.7489      2.00000
     10      -6.1585      2.00000
     11      -5.4339      2.00000
     12      -5.0425      2.00000
     13      -4.4150      2.00000
     14      -4.4130      2.00000
     15      -4.2101      2.00000
     16      -3.3570      2.00000
     17      -3.2026      2.00000
     18      -2.9106      2.00000
     19      -1.7606      0.00000
     20      -1.5137      0.00000
     21       0.0017      0.00000
     22       0.6741      0.00000
     23       1.1048      0.00000
     24       1.6944      0.00000

 k-point   124 :       0.0517    0.0517    0.0000
  band No.  band energies     occupation 
      1     -15.9982      2.00000
      2     -13.8096      2.00000
      3     -12.1738      2.00000
      4     -12.0855      2.00000
      5     -10.2202      2.00000
      6      -9.2301      2.00000
      7      -7.5432      2.00000
      8      -7.2559      2.00000
      9      -6.6867      2.00000
     10      -6.1601      2.00000
     11      -5.4177      2.00000
     12      -5.1563      2.00000
     13      -4.4602      2.00000
     14      -4.3936      2.00000
     15      -4.0766      2.00000
     16      -3.3652      2.00000
     17      -3.2179      2.00000
     18      -2.9044      2.00000
     19      -1.6911      0.00000
     20      -1.5091      0.00000
     21      -0.0013      0.00000
     22       0.7130      0.00000
     23       1.1121      0.00000
     24       1.7015      0.00000

 k-point   125 :       0.0690    0.0690    0.0000
  band No.  band energies     occupation 
      1     -15.9865      2.00000
      2     -13.8169      2.00000
      3     -12.1849      2.00000
      4     -12.0991      2.00000
      5     -10.2262      2.00000
      6      -9.2393      2.00000
      7      -7.5212      2.00000
      8      -7.2902      2.00000
      9      -6.6141      2.00000
     10      -6.1672      2.00000
     11      -5.3981      2.00000
     12      -5.2654      2.00000
     13      -4.5168      2.00000
     14      -4.3698      2.00000
     15      -3.9323      2.00000
     16      -3.3753      2.00000
     17      -3.2365      2.00000
     18      -2.8943      2.00000
     19      -1.6013      0.00000
     20      -1.5033      0.00000
     21      -0.0049      0.00000
     22       0.7666      0.00000
     23       1.1214      0.00000
     24       1.7110      0.00000

 k-point   126 :       0.0862    0.0862    0.0000
  band No.  band energies     occupation 
      1     -15.9715      2.00000
      2     -13.8265      2.00000
      3     -12.1982      2.00000
      4     -12.1158      2.00000
      5     -10.2342      2.00000
      6      -9.2523      2.00000
      7      -7.4948      2.00000
      8      -7.3196      2.00000
      9      -6.5358      2.00000
     10      -6.1842      2.00000
     11      -5.3787      2.00000
     12      -5.3578      2.00000
     13      -4.5778      2.00000
     14      -4.3409      2.00000
     15      -3.7865      2.00000
     16      -3.3854      2.00000
     17      -3.2564      2.00000
     18      -2.8797      2.00000
     19      -1.4967      0.00000
     20      -1.4962      0.00000
     21      -0.0088      0.00000
     22       0.8341      0.00000
     23       1.1316      0.00000
     24       1.7227      0.00000

 k-point   127 :       0.1034    0.1034    0.0000
  band No.  band energies     occupation 
      1     -15.9533      2.00000
      2     -13.8387      2.00000
      3     -12.2130      2.00000
      4     -12.1353      2.00000
      5     -10.2442      2.00000
      6      -9.2698      2.00000
      7      -7.4658      2.00000
      8      -7.3419      2.00000
      9      -6.4544      2.00000
     10      -6.2146      2.00000
     11      -5.4253      2.00000
     12      -5.3654      2.00000
     13      -4.6341      2.00000
     14      -4.3070      2.00000
     15      -3.6463      2.00000
     16      -3.3910      2.00000
     17      -3.2763      2.00000
     18      -2.8606      2.00000
     19      -1.4897      0.00000
     20      -1.3799      0.00000
     21      -0.0121      0.00000
     22       0.9140      0.00000
     23       1.1411      0.00000
     24       1.7357      0.00000

 k-point   128 :       0.1207    0.1207    0.0000
  band No.  band energies     occupation 
      1     -15.9319      2.00000
      2     -13.8536      2.00000
      3     -12.2287      2.00000
      4     -12.1571      2.00000
      5     -10.2563      2.00000
      6      -9.2923      2.00000
      7      -7.4368      2.00000
      8      -7.3563      2.00000
      9      -6.3720      2.00000
     10      -6.2584      2.00000
     11      -5.4641      2.00000
     12      -5.3656      2.00000
     13      -4.6747      2.00000
     14      -4.2690      2.00000
     15      -3.5292      2.00000
     16      -3.3759      2.00000
     17      -3.2951      2.00000
     18      -2.8371      2.00000
     19      -1.4827      0.00000
     20      -1.2558      0.00000
     21      -0.0142      0.00000
     22       1.0041      0.00000
     23       1.1481      0.00000
     24       1.7509      0.00000

 k-point   129 :       0.1379    0.1379    0.0000
  band No.  band energies     occupation 
      1     -15.9073      2.00000
      2     -13.8715      2.00000
      3     -12.2445      2.00000
      4     -12.1805      2.00000
      5     -10.2704      2.00000
      6      -9.3199      2.00000
      7      -7.4119      2.00000
      8      -7.3627      2.00000
      9      -6.3095      2.00000
     10      -6.2907      2.00000
     11      -5.4759      2.00000
     12      -5.3853      2.00000
     13      -4.6898      2.00000
     14      -4.2281      2.00000
     15      -3.4754      2.00000
     16      -3.3121      2.00000
     17      -3.2992      2.00000
     18      -2.8093      2.00000
     19      -1.4758      0.00000
     20      -1.1265      0.00000
     21      -0.0139      0.00000
     22       1.1012      0.00000
     23       1.1494      0.00000
     24       1.7578      0.00000

 k-point   130 :       0.1552    0.1552    0.0000
  band No.  band energies     occupation 
      1     -15.8797      2.00000
      2     -13.8925      2.00000
      3     -12.2599      2.00000
      4     -12.2052      2.00000
      5     -10.2864      2.00000
      6      -9.3527      2.00000
      7      -7.3964      2.00000
      8      -7.3619      2.00000
      9      -6.3574      2.00000
     10      -6.2131      2.00000
     11      -5.4663      2.00000
     12      -5.4238      2.00000
     13      -4.6759      2.00000
     14      -4.1861      2.00000
     15      -3.4629      2.00000
     16      -3.3267      2.00000
     17      -3.1823      2.00000
     18      -2.7775      2.00000
     19      -1.4687      0.00000
     20      -0.9939      0.00000
     21      -0.0103      0.00000
     22       1.1412      0.00000
     23       1.2006      0.00000
     24       1.6688      0.00000

 k-point   131 :       0.1724    0.1724    0.0000
  band No.  band energies     occupation 
      1     -15.8491      2.00000
      2     -13.9168      2.00000
      3     -12.2744      2.00000
      4     -12.2304      2.00000
      5     -10.3040      2.00000
      6      -9.3904      2.00000
      7      -7.3964      2.00000
      8      -7.3557      2.00000
      9      -6.3905      2.00000
     10      -6.1436      2.00000
     11      -5.4713      2.00000
     12      -5.4412      2.00000
     13      -4.6365      2.00000
     14      -4.1451      2.00000
     15      -3.4534      2.00000
     16      -3.3384      2.00000
     17      -3.0620      2.00000
     18      -2.7418      2.00000
     19      -1.4606      0.00000
     20      -0.8596      0.00000
     21      -0.0024      0.00000
     22       1.1177      0.00000
     23       1.2950      0.00000
     24       1.5538      0.00000

 k-point   132 :       0.1897    0.1897    0.0000
  band No.  band energies     occupation 
      1     -15.8156      2.00000
      2     -13.9445      2.00000
      3     -12.2875      2.00000
      4     -12.2558      2.00000
      5     -10.3228      2.00000
      6      -9.4325      2.00000
      7      -7.4164      2.00000
      8      -7.3462      2.00000
      9      -6.3999      2.00000
     10      -6.0899      2.00000
     11      -5.5115      2.00000
     12      -5.4061      2.00000
     13      -4.5788      2.00000
     14      -4.1078      2.00000
     15      -3.4359      2.00000
     16      -3.3469      2.00000
     17      -2.9483      2.00000
     18      -2.7023      2.00000
     19      -1.4501      0.00000
     20      -0.7246      0.00000
     21       0.0109      0.00000
     22       1.0717      0.00000
     23       1.3749      0.00000
     24       1.4491      0.00000

 k-point   133 :       0.2069    0.2069    0.0000
  band No.  band energies     occupation 
      1     -15.7792      2.00000
      2     -13.9755      2.00000
      3     -12.2990      2.00000
      4     -12.2809      2.00000
      5     -10.3425      2.00000
      6      -9.4783      2.00000
      7      -7.4573      2.00000
      8      -7.3365      2.00000
      9      -6.3818      2.00000
     10      -6.0616      2.00000
     11      -5.5263      2.00000
     12      -5.3649      2.00000
     13      -4.5096      2.00000
     14      -4.0765      2.00000
     15      -3.4057      2.00000
     16      -3.3516      2.00000
     17      -2.8449      2.00000
     18      -2.6593      2.00000
     19      -1.4351      0.00000
     20      -0.5900      0.00000
     21       0.0304      0.00000
     22       0.9973      0.00000
     23       1.3294      0.00000
     24       1.4253      0.00000

 k-point   134 :       0.2241    0.2241    0.0000
  band No.  band energies     occupation 
      1     -15.7402      2.00000
      2     -14.0100      2.00000
      3     -12.3088      2.00000
      4     -12.3052      2.00000
      5     -10.3625      2.00000
      6      -9.5273      2.00000
      7      -7.5156      2.00000
      8      -7.3300      2.00000
      9      -6.3379      2.00000
     10      -6.0631      2.00000
     11      -5.5046      2.00000
     12      -5.3205      2.00000
     13      -4.4341      2.00000
     14      -4.0523      2.00000
     15      -3.3608      2.00000
     16      -3.3521      2.00000
     17      -2.7548      2.00000
     18      -2.6128      2.00000
     19      -1.4129      0.00000
     20      -0.4569      0.00000
     21       0.0566      0.00000
     22       0.8947      0.00000
     23       1.2219      0.00000
     24       1.4361      0.00000

 k-point   135 :       0.2414    0.2414    0.0000
  band No.  band energies     occupation 
      1     -15.6986      2.00000
      2     -14.0477      2.00000
      3     -12.3283      2.00000
      4     -12.3170      2.00000
      5     -10.3822      2.00000
      6      -9.5787      2.00000
      7      -7.5860      2.00000
      8      -7.3304      2.00000
      9      -6.2727      2.00000
     10      -6.0853      2.00000
     11      -5.4495      2.00000
     12      -5.2754      2.00000
     13      -4.3563      2.00000
     14      -4.0348      2.00000
     15      -3.3482      2.00000
     16      -3.3015      2.00000
     17      -2.6801      2.00000
     18      -2.5632      2.00000
     19      -1.3805      0.00000
     20      -0.3264      0.00000
     21       0.0900      0.00000
     22       0.7714      0.00000
     23       1.1214      0.00000
     24       1.4075      0.00000

 k-point   136 :       0.2586    0.2586    0.0000
  band No.  band energies     occupation 
      1     -15.6545      2.00000
      2     -14.0886      2.00000
      3     -12.3498      2.00000
      4     -12.3236      2.00000
      5     -10.4011      2.00000
      6      -9.6318      2.00000
      7      -7.6627      2.00000
      8      -7.3413      2.00000
      9      -6.1917      2.00000
     10      -6.1131      2.00000
     11      -5.3718      2.00000
     12      -5.2313      2.00000
     13      -4.2795      2.00000
     14      -4.0222      2.00000
     15      -3.3396      2.00000
     16      -3.2300      2.00000
     17      -2.6219      2.00000
     18      -2.5108      2.00000
     19      -1.3353      0.00000
     20      -0.2007      0.00000
     21       0.1307      0.00000
     22       0.6387      0.00000
     23       1.0278      0.00000
     24       1.3423      0.00000

 k-point   137 :       0.2759    0.2759    0.0000
  band No.  band energies     occupation 
      1     -15.6081      2.00000
      2     -14.1324      2.00000
      3     -12.3696      2.00000
      4     -12.3289      2.00000
      5     -10.4186      2.00000
      6      -9.6860      2.00000
      7      -7.7412      2.00000
      8      -7.3653      2.00000
      9      -6.1345      2.00000
     10      -6.0998      2.00000
     11      -5.2808      2.00000
     12      -5.1894      2.00000
     13      -4.2057      2.00000
     14      -4.0121      2.00000
     15      -3.3264      2.00000
     16      -3.1502      2.00000
     17      -2.5797      2.00000
     18      -2.4563      2.00000
     19      -1.2758      0.00000
     20      -0.0842      0.00000
     21       0.1786      0.00000
     22       0.5083      0.00000
     23       0.9400      0.00000
     24       1.2527      0.00000

 k-point   138 :       0.2931    0.2931    0.0000
  band No.  band energies     occupation 
      1     -15.5595      2.00000
      2     -14.1789      2.00000
      3     -12.3872      2.00000
      4     -12.3334      2.00000
      5     -10.4341      2.00000
      6      -9.7408      2.00000
      7      -7.8181      2.00000
      8      -7.4034      2.00000
      9      -6.1431      2.00000
     10      -6.0013      2.00000
     11      -5.1825      2.00000
     12      -5.1504      2.00000
     13      -4.1367      2.00000
     14      -4.0020      2.00000
     15      -3.3090      2.00000
     16      -3.0668      2.00000
     17      -2.5507      2.00000
     18      -2.4005      2.00000
     19      -1.2020      0.00000
     20       0.0118      0.00000
     21       0.2333      0.00000
     22       0.3943      0.00000
     23       0.8622      0.00000
     24       1.1343      0.00000

 k-point   139 :       0.3103    0.3103    0.0000
  band No.  band energies     occupation 
      1     -15.5088      2.00000
      2     -14.2280      2.00000
      3     -12.4026      2.00000
      4     -12.3373      2.00000
      5     -10.4469      2.00000
      6      -9.7957      2.00000
      7      -7.8908      2.00000
      8      -7.4546      2.00000
      9      -6.1370      2.00000
     10      -5.9001      2.00000
     11      -5.1144      2.00000
     12      -5.0808      2.00000
     13      -4.0731      2.00000
     14      -3.9902      2.00000
     15      -3.2881      2.00000
     16      -2.9862      2.00000
     17      -2.5291      2.00000
     18      -2.3450      2.00000
     19      -1.1152      0.00000
     20       0.0541      0.00000
     21       0.2943      0.00000
     22       0.3314      0.00000
     23       0.7989      0.00000
     24       1.0151      0.00000

 k-point   140 :       0.3276    0.3276    0.0000
  band No.  band energies     occupation 
      1     -15.4563      2.00000
      2     -14.2793      2.00000
      3     -12.4154      2.00000
      4     -12.3411      2.00000
      5     -10.4566      2.00000
      6      -9.8503      2.00000
      7      -7.9576      2.00000
      8      -7.5166      2.00000
      9      -6.1167      2.00000
     10      -5.8006      2.00000
     11      -5.0803      2.00000
     12      -4.9788      2.00000
     13      -4.0153      2.00000
     14      -3.9753      2.00000
     15      -3.2645      2.00000
     16      -2.9168      2.00000
     17      -2.5064      2.00000
     18      -2.2916      2.00000
     19      -1.0175      0.00000
     20       0.0136      0.00000
     21       0.3449      0.00000
     22       0.3604      0.00000
     23       0.7577      0.00000
     24       0.8924      0.00000

 k-point   141 :       0.3448    0.3448    0.0000
  band No.  band energies     occupation 
      1     -15.4021      2.00000
      2     -14.3326      2.00000
      3     -12.4258      2.00000
      4     -12.3451      2.00000
      5     -10.4626      2.00000
      6      -9.9043      2.00000
      7      -8.0172      2.00000
      8      -7.5860      2.00000
      9      -6.0846      2.00000
     10      -5.7073      2.00000
     11      -5.0458      2.00000
     12      -4.8794      2.00000
     13      -3.9634      2.00000
     14      -3.9571      2.00000
     15      -3.2387      2.00000
     16      -2.8674      2.00000
     17      -2.4734      2.00000
     18      -2.2428      2.00000
     19      -0.9116      0.00000
     20      -0.0611      0.00000
     21       0.3792      0.00000
     22       0.4295      0.00000
     23       0.7465      0.00000
     24       0.7743      0.00000

 k-point   142 :       0.3621    0.3621    0.0000
  band No.  band energies     occupation 
      1     -15.3463      2.00000
      2     -14.3876      2.00000
      3     -12.4335      2.00000
      4     -12.3497      2.00000
      5     -10.4645      2.00000
      6      -9.9574      2.00000
      7      -8.0685      2.00000
      8      -7.6596      2.00000
      9      -6.0432      2.00000
     10      -5.6259      2.00000
     11      -5.0073      2.00000
     12      -4.7854      2.00000
     13      -3.9359      2.00000
     14      -3.9173      2.00000
     15      -3.2112      2.00000
     16      -2.8422      2.00000
     17      -2.4261      2.00000
     18      -2.2016      2.00000
     19      -0.7999      0.00000
     20      -0.1307      0.00000
     21       0.3939      0.00000
     22       0.4941      0.00000
     23       0.6708      0.00000
     24       0.7681      0.00000

 k-point   143 :       0.3793    0.3793    0.0000
  band No.  band energies     occupation 
      1     -15.2892      2.00000
      2     -14.4442      2.00000
      3     -12.4386      2.00000
      4     -12.3551      2.00000
      5     -10.4620      2.00000
      6     -10.0092      2.00000
      7      -8.1110      2.00000
      8      -7.7344      2.00000
      9      -5.9950      2.00000
     10      -5.5620      2.00000
     11      -4.9607      2.00000
     12      -4.6994      2.00000
     13      -3.9125      2.00000
     14      -3.8774      2.00000
     15      -3.1815      2.00000
     16      -2.8373      2.00000
     17      -2.3689      2.00000
     18      -2.1706      2.00000
     19      -0.6848      0.00000
     20      -0.1818      0.00000
     21       0.3889      0.00000
     22       0.5058      0.00000
     23       0.6326      0.00000
     24       0.8070      0.00000

 k-point   144 :       0.3966    0.3966    0.0000
  band No.  band energies     occupation 
      1     -15.2309      2.00000
      2     -14.5021      2.00000
      3     -12.4412      2.00000
      4     -12.3615      2.00000
      5     -10.4549      2.00000
      6     -10.0596      2.00000
      7      -8.1441      2.00000
      8      -7.8080      2.00000
      9      -5.9424      2.00000
     10      -5.5195      2.00000
     11      -4.9031      2.00000
     12      -4.6240      2.00000
     13      -3.8886      2.00000
     14      -3.8445      2.00000
     15      -3.1489      2.00000
     16      -2.8444      2.00000
     17      -2.3109      2.00000
     18      -2.1516      2.00000
     19      -0.5686      0.00000
     20      -0.2092      0.00000
     21       0.3759      0.00000
     22       0.4391      0.00000
     23       0.6864      0.00000
     24       0.8387      0.00000

 k-point   145 :       0.4138    0.4138    0.0000
  band No.  band energies     occupation 
      1     -15.1715      2.00000
      2     -14.5610      2.00000
      3     -12.4414      2.00000
      4     -12.3688      2.00000
      5     -10.4431      2.00000
      6     -10.1084      2.00000
      7      -8.1674      2.00000
      8      -7.8784      2.00000
      9      -5.8870      2.00000
     10      -5.4992      2.00000
     11      -4.8354      2.00000
     12      -4.5617      2.00000
     13      -3.8656      2.00000
     14      -3.8194      2.00000
     15      -3.1129      2.00000
     16      -2.8568      2.00000
     17      -2.2602      2.00000
     18      -2.1446      2.00000
     19      -0.4534      0.00000
     20      -0.2118      0.00000
     21       0.3622      0.00000
     22       0.3710      0.00000
     23       0.7550      0.00000
     24       0.8543      0.00000

 k-point   146 :       0.4310    0.4310    0.0000
  band No.  band energies     occupation 
      1     -15.1114      2.00000
      2     -14.6209      2.00000
      3     -12.4393      2.00000
      4     -12.3770      2.00000
      5     -10.4267      2.00000
      6     -10.1552      2.00000
      7      -8.1808      2.00000
      8      -7.9439      2.00000
      9      -5.8305      2.00000
     10      -5.4983      2.00000
     11      -4.7615      2.00000
     12      -4.5148      2.00000
     13      -3.8450      2.00000
     14      -3.8026      2.00000
     15      -3.0737      2.00000
     16      -2.8704      2.00000
     17      -2.2216      2.00000
     18      -2.1474      2.00000
     19      -0.3418      0.00000
     20      -0.1922      0.00000
     21       0.3176      0.00000
     22       0.3502      0.00000
     23       0.8194      0.00000
     24       0.8442      0.00000

 k-point   147 :       0.4483    0.4483    0.0000
  band No.  band energies     occupation 
      1     -15.0505      2.00000
      2     -14.6815      2.00000
      3     -12.4351      2.00000
      4     -12.3858      2.00000
      5     -10.4057      2.00000
      6     -10.1999      2.00000
      7      -8.1841      2.00000
      8      -8.0033      2.00000
      9      -5.7743      2.00000
     10      -5.5131      2.00000
     11      -4.6868      2.00000
     12      -4.4853      2.00000
     13      -3.8278      2.00000
     14      -3.7938      2.00000
     15      -3.0329      2.00000
     16      -2.8835      2.00000
     17      -2.1968      2.00000
     18      -2.1561      2.00000
     19      -0.2376      0.00000
     20      -0.1561      0.00000
     21       0.2813      0.00000
     22       0.3388      0.00000
     23       0.8026      0.00000
     24       0.8720      0.00000

 k-point   148 :       0.4655    0.4655    0.0000
  band No.  band energies     occupation 
      1     -14.9892      2.00000
      2     -14.7426      2.00000
      3     -12.4292      2.00000
      4     -12.3951      2.00000
      5     -10.3804      2.00000
      6     -10.2421      2.00000
      7      -8.1775      2.00000
      8      -8.0554      2.00000
      9      -5.7195      2.00000
     10      -5.5400      2.00000
     11      -4.6171      2.00000
     12      -4.4745      2.00000
     13      -3.8145      2.00000
     14      -3.7912      2.00000
     15      -2.9938      2.00000
     16      -2.8967      2.00000
     17      -2.1842      2.00000
     18      -2.1662      2.00000
     19      -0.1480      0.00000
     20      -0.1128      0.00000
     21       0.2623      0.00000
     22       0.3251      0.00000
     23       0.7630      0.00000
     24       0.8641      0.00000

 k-point   149 :       0.4828    0.4828    0.0000
  band No.  band energies     occupation 
      1     -14.9276      2.00000
      2     -14.8041      2.00000
      3     -12.4219      2.00000
      4     -12.4045      2.00000
      5     -10.3511      2.00000
      6     -10.2816      2.00000
      7      -8.1610      2.00000
      8      -8.0995      2.00000
      9      -5.6673      2.00000
     10      -5.5760      2.00000
     11      -4.5573      2.00000
     12      -4.4835      2.00000
     13      -3.8046      2.00000
     14      -3.7929      2.00000
     15      -2.9595      2.00000
     16      -2.9120      2.00000
     17      -2.1796      2.00000
     18      -2.1738      2.00000
     19      -0.0850      0.00000
     20      -0.0756      0.00000
     21       0.2618      0.00000
     22       0.3047      0.00000
     23       0.7441      0.00000
     24       0.7945      0.00000

 k-point   150 :       0.5000    0.5000    0.0000
  band No.  band energies     occupation 
      1     -14.8659      2.00000
      2     -14.8658      2.00000
      3     -12.4136      2.00000
      4     -12.4135      2.00000
      5     -10.3181      2.00000
      6     -10.3180      2.00000
      7      -8.1348      2.00000
      8      -8.1348      2.00000
      9      -5.6190      2.00000
     10      -5.6190      2.00000
     11      -4.5117      2.00000
     12      -4.5117      2.00000
     13      -3.7976      2.00000
     14      -3.7976      2.00000
     15      -2.9322      2.00000
     16      -2.9322      2.00000
     17      -2.1776      2.00000
     18      -2.1776      2.00000
     19      -0.0613      0.00000
     20      -0.0613      0.00000
     21       0.2794      0.00000
     22       0.2796      0.00000
     23       0.7482      0.00000
     24       0.7544      0.00000


--------------------------------------------------------------------------------------------------------


 soft charge-density along one line, spin component           1
         0         1         2         3         4         5         6         7         8         9
 total charge-density along one line
 
 pseudopotential strength for first ion, spin component:           1
 30.137  37.595  -0.008  -0.016  -0.013  -0.012  -0.025  -0.021
 37.595  46.904  -0.010  -0.020  -0.016  -0.015  -0.031  -0.026
 -0.008  -0.010   6.637  -0.001  -0.001  10.264  -0.001  -0.001
 -0.016  -0.020  -0.001   6.641  -0.002  -0.001  10.270  -0.003
 -0.013  -0.016  -0.001  -0.002   6.642  -0.001  -0.003  10.272
 -0.012  -0.015  10.264  -0.001  -0.001  15.891  -0.002  -0.001
 -0.025  -0.031  -0.001  10.270  -0.003  -0.002  15.900  -0.005
 -0.021  -0.026  -0.001  -0.003  10.272  -0.001  -0.005  15.903
 total augmentation occupancy for first ion, spin component:           1
  2.000   0.000   0.000   0.000   0.000   0.000   0.000   0.000
  0.000   0.000   0.000   0.000   0.000   0.000   0.000   0.000
  0.000   0.000   1.000   0.000   0.000   0.000   0.000   0.000
  0.000   0.000   0.000   1.000   0.000   0.000   0.000   0.000
  0.000   0.000   0.000   0.000   1.000   0.000   0.000   0.000
  0.000   0.000   0.000   0.000   0.000   0.000   0.000   0.000
  0.000   0.000   0.000   0.000   0.000   0.000   0.000   0.000
  0.000   0.000   0.000   0.000   0.000   0.000   0.000   0.000


------------------------ aborting loop because EDIFF is reached ----------------------------------------


    CHARGE:  cpu time    0.2900: real time    0.2902
    FORLOC:  cpu time    0.0040: real time    0.0029
    FORNL :  cpu time    2.1367: real time    2.1396
    STRESS:  cpu time   19.9840: real time   20.0149
    FORCOR:  cpu time    0.0280: real time    0.0277
    FORHAR:  cpu time    0.0070: real time    0.0077
    OFIELD:  cpu time    0.0000: real time    0.0001

  FORCE on cell =-STRESS in cart. coord.  units (eV):
  Direction    XX          YY          ZZ          XY          YZ          ZX
  --------------------------------------------------------------------------------------
  Alpha Z     6.76191     6.76191     6.76191
  Ewald    4064.88557  3974.49444 -4809.22177   -23.36968    -0.00031    -0.00935
  Hartree  4180.60981  4128.43682 -4057.24455    -6.06027    -0.00025    -0.00837
  E(xc)    -124.68381  -124.64544  -125.04914     0.17271     0.00000     0.00000
  Local   -8767.85884 -8630.48318  8335.91651    28.02481     0.00060     0.01775
  n-local   398.56984   398.18525   393.59980    -2.18812     0.00002     0.00004
  augment   -78.21391   -78.54412   -78.18120     0.09347     0.00001     0.00002
  Kinetic   321.28803   327.22835   332.57129     2.35154     0.00006     0.00011
  Fock        0.00000     0.00000     0.00000     0.00000     0.00000     0.00000
  -------------------------------------------------------------------------------------
  Total       1.35862     1.43403    -0.84715    -0.97554     0.00000    -0.00000
  in kB       3.45879     3.65078    -2.15669    -2.48354     0.00000    -0.00000
  external pressure =        1.65 kB  Pullay stress =        0.00 kB


 VOLUME and BASIS-vectors are now :
 -----------------------------------------------------------------------------
  energy-cutoff  :      500.00
  volume of cell :      629.34
      direct lattice vectors                 reciprocal lattice vectors
     5.280271118  0.116474754 -0.000005373     0.189463583 -0.003598076 -0.000000032
     0.106518764  5.608950167 -0.000000270    -0.003934377  0.178361200  0.000000067
     0.000003418 -0.000007873 21.258271417     0.000000048  0.000000001  0.047040513

  length of vectors
     5.281555589  5.609961517 21.258271417     0.189497745  0.178404588  0.047040513


 FORCES acting on ions
    electron-ion (+dipol)            ewald-force                    non-local-force                 convergence-correction
 -----------------------------------------------------------------------------------------------
   -.250E+02 0.205E+02 -.209E+03   0.275E+02 -.185E+02 0.211E+03   -.262E+01 -.194E+01 -.263E+01   0.546E-01 -.106E+00 0.490E+00
   0.600E+01 -.477E+02 0.241E+03   -.506E+01 0.490E+02 -.243E+03   -.813E+00 -.144E+01 0.214E+01   -.102E+00 0.615E-01 -.141E+00
   -.250E+02 0.205E+02 0.209E+03   0.275E+02 -.185E+02 -.211E+03   -.262E+01 -.194E+01 0.263E+01   0.543E-01 -.106E+00 -.490E+00
   0.600E+01 -.477E+02 -.241E+03   -.506E+01 0.490E+02 0.243E+03   -.813E+00 -.144E+01 -.214E+01   -.102E+00 0.614E-01 0.141E+00
   0.211E+02 0.334E+02 -.210E+03   -.237E+02 -.377E+02 0.214E+03   0.274E+01 0.456E+01 -.468E+01   -.961E-01 -.141E+00 0.487E+00
   0.211E+02 0.334E+02 0.210E+03   -.237E+02 -.377E+02 -.214E+03   0.274E+01 0.456E+01 0.468E+01   -.957E-01 -.141E+00 -.486E+00
   -.114E+01 -.698E+01 0.118E+03   0.119E+01 0.716E+01 -.116E+03   -.101E+00 -.254E+00 -.179E+01   0.276E-01 0.535E-01 -.841E-01
   -.114E+01 -.698E+01 -.118E+03   0.119E+01 0.716E+01 0.116E+03   -.101E+00 -.254E+00 0.179E+01   0.277E-01 0.535E-01 0.841E-01
 -----------------------------------------------------------------------------------------------
   0.184E+01 -.155E+01 0.926E-03   0.777E-14 0.133E-13 -.142E-13   -.158E+01 0.185E+01 0.155E-05   -.231E+00 -.264E+00 0.676E-04
 
 
 POSITION                                       TOTAL-FORCE (eV/Angst)
 -----------------------------------------------------------------------------------
      5.05774      1.60847     11.68683        -0.064447     -0.076638     -0.387991
      0.10573      3.89255      9.12429         0.019549     -0.048628     -0.027449
      2.41760      1.55024      9.57154        -0.064447     -0.076638      0.387991
      2.74586      3.95078     12.13408         0.019549     -0.048628      0.027449
      2.83518      1.76585     11.76013         0.073702      0.144678     -0.252733
      0.19504      1.70761      9.49824         0.073702      0.144678      0.252733
      2.78079      4.49145      9.48398        -0.028804     -0.019412      0.031794
      0.14066      4.43321     11.77439        -0.028804     -0.019412     -0.031794
 -----------------------------------------------------------------------------------
    total drift:                                0.035287      0.029712      0.000995


--------------------------------------------------------------------------------------------------------



  FREE ENERGIE OF THE ION-ELECTRON SYSTEM (eV)
  ---------------------------------------------------
  free  energy   TOTEN  =       -36.59498548 eV

  energy  without entropy=      -36.59498548  energy(sigma->0) =      -36.59498548
 


--------------------------------------------------------------------------------------------------------


    POTLOK:  cpu time    0.0300: real time    0.0297


--------------------------------------------------------------------------------------------------------


 stress matrix after NEB project (eV)
      1.35862     -0.97554     -0.00000
     -0.97554      1.43403      0.00000
     -0.00000      0.00000     -0.84715
  FORCES: max atom, RMS     0.400704    0.253239
  FORCE total and by dimension    0.716267    0.387991
  Stress total and by dimension    2.554074    1.434031
     LOOP+:  cpu time   89.1834: real time   89.3556
    4ORBIT:  cpu time    0.0000: real time    0.0000

 total amount of memory used by VASP MPI-rank0   580217. kBytes
=======================================================================

   base      :      30000. kBytes
   nonl-proj :     502250. kBytes
   fftplans  :       1977. kBytes
   grid      :       7219. kBytes
   one-center:         64. kBytes
   wavefun   :      38707. kBytes
 
  
  
 General timing and accounting informations for this job:
 ========================================================
  
                  Total CPU time used (sec):       95.543
                            User time (sec):       95.073
                          System time (sec):        0.471
                         Elapsed time (sec):       95.733
  
                   Maximum memory used (kb):      675056.
                   Average memory used (kb):           0.
  
                          Minor page faults:        11600
                          Major page faults:            0
                 Voluntary context switches:          289
