Wencai
1.00000000
   19.5056059608450418    0.0000000000000000    0.0000000000000000
  -18.4854006383440534    6.2256427089628890    0.0000000000000000
    0.0000000000000000    0.0000000000000000   56.1354948355915440
 Mo S
 28 56
Direct
 -0.0000000000000001 -0.0000000000000001  0.1781404088320195
  0.1428571428571427  0.2857142857142856  0.1781404088320195
  0.2857142857142857  0.5714285714285714  0.1781404088320195
  0.4285714285714283  0.8571428571428569  0.1781404088320195
  0.5714285714285714  0.1428571428571428  0.1781404088320195
  0.7142857142857142  0.4285714285714287  0.1781404088320195
  0.8571428571428568  0.7142857142857141  0.1781404088320195
  0.3571428571428570  0.2142857142857141  0.1781404088320195
  0.4999999999999999  0.5000000000000000  0.1781404088320195
  0.6428571428571427  0.7857142857142855  0.1781404088320195
  0.7857142857142857  0.0714285714285714  0.1781404088320195
  0.9285714285714284  0.3571428571428572  0.1781404088320195
  0.0714285714285714  0.6428571428571430  0.1781404088320195
  0.2142857142857141  0.9285714285714286  0.1781404088320195
 -0.0000000000000005 -0.0000000000000005  0.5267210613248029
  0.2142857142857138  0.3571428571428567  0.5267210613248029
  0.4285714285714283  0.7142857142857139  0.5267210613248029
  0.6428571428571425  0.0714285714285709  0.5267210613248029
  0.8571428571428568  0.4285714285714281  0.5267210613248029
  0.0714285714285710  0.7857142857142854  0.5267210613248029
  0.2857142857142855  0.1428571428571423  0.5267210613248029
  0.4999999999999997  0.4999999999999995  0.5267210613248029
  0.7142857142857140  0.8571428571428568  0.5267210613248029
  0.9285714285714282  0.2142857142857137  0.5267210613248029
  0.1428571428571425  0.5714285714285710  0.5267210613248029
  0.3571428571428569  0.9285714285714282  0.5267210613248029
  0.5714285714285713  0.2857142857142850  0.5267210613248029
  0.7857142857142856  0.6428571428571423  0.5267210613248029
  0.2142857142857148  0.2619047619047624  0.4732789386751970
  0.3571428571428577  0.5476190476190481  0.4732789386751970
  0.5000000000000003  0.8333333333333338  0.4732789386751970
  0.6428571428571435  0.1190476190476196  0.4732789386751970
  0.7857142857142865  0.4047619047619056  0.4732789386751970
  0.9285714285714293  0.6904761904761911  0.4732789386751970
  0.0714285714285720  0.9761904761904768  0.4732789386751970
  0.5714285714285720  0.4761904761904768  0.4732789386751970
  0.7142857142857147  0.7619047619047624  0.4732789386751970
  0.8571428571428577  0.0476190476190482  0.4732789386751970
  0.0000000000000005  0.3333333333333340  0.4732789386751970
  0.1428571428571434  0.6190476190476200  0.4732789386751970
  0.2857142857142861  0.9047619047619054  0.4732789386751970
  0.4285714285714293  0.1904761904761912  0.4732789386751970
  0.2142857142857142  0.2619047619047619  0.2060503547622617
  0.3571428571428570  0.5476190476190476  0.2060503547622617
  0.5000000000000000  0.8333333333333334  0.2060503547622617
  0.6428571428571429  0.1190476190476192  0.2060503547622617
  0.7857142857142858  0.4047619047619050  0.2060503547622617
  0.9285714285714286  0.6904761904761906  0.2060503547622617
  0.0714285714285715  0.9761904761904763  0.2060503547622617
  0.5714285714285714  0.4761904761904762  0.2060503547622617
  0.7142857142857142  0.7619047619047620  0.2060503547622617
  0.8571428571428570  0.0476190476190478  0.2060503547622617
 -0.0000000000000001  0.3333333333333336  0.2060503547622617
  0.1428571428571428  0.6190476190476194  0.2060503547622617
  0.2857142857142856  0.9047619047619049  0.2060503547622617
  0.4285714285714287  0.1904761904761906  0.2060503547622617
  0.2380952380952382  0.2857142857142859  0.8218595911679805
  0.4523809523809524  0.6428571428571431  0.8218595911679805
  0.6666666666666669  0.0000000000000001  0.8218595911679805
  0.8809523809523813  0.3571428571428574  0.8218595911679805
  0.0952380952380957  0.7142857142857145  0.8218595911679805
  0.3095238095238101  0.0714285714285717  0.8218595911679805
  0.5238095238095244  0.4285714285714287  0.8218595911679805
  0.7380952380952387  0.7857142857142858  0.8218595911679805
  0.9523809523809528  0.1428571428571425  0.8218595911679805
  0.1666666666666669  0.5000000000000002  0.8218595911679805
  0.3809523809523813  0.8571428571428574  0.8218595911679805
  0.5952380952380957  0.2142857142857151  0.8218595911679805
  0.8095238095238098  0.5714285714285718  0.8218595911679805
  0.0238095238095240  0.9285714285714289  0.8218595911679805
  0.2380952380952376  0.2857142857142854  0.5546310072550451
  0.4523809523809518  0.6428571428571425  0.5546310072550451
  0.6666666666666664 -0.0000000000000003  0.5546310072550451
  0.8809523809523808  0.3571428571428569  0.5546310072550451
  0.0952380952380951  0.7142857142857139  0.5546310072550451
  0.3095238095238095  0.0714285714285711  0.5546310072550451
  0.5238095238095238  0.4285714285714280  0.5546310072550451
  0.7380952380952381  0.7857142857142851  0.5546310072550451
  0.9523809523809523  0.1428571428571419  0.5546310072550451
  0.1666666666666665  0.4999999999999998  0.5546310072550451
  0.3809523809523807  0.8571428571428568  0.5546310072550451
  0.5952380952380951  0.2142857142857145  0.5546310072550451
  0.8095238095238092  0.5714285714285711  0.5546310072550451
  0.0238095238095235  0.9285714285714283  0.5546310072550451
