Wencai
1.00000000
   19.2489087824789920    0.0000000000000000    0.0000000000000000
  -18.7286717008499721    6.3075732413988410    0.0000000000000000
    0.0000000000000000    0.0000000000000000   29.2669548561930490
 Mo S
 28 56
Direct
  0.0000000000000001  0.0000000000000001  0.3952149709760691
  0.1428571428571430  0.2857142857142859  0.3952149709760691
  0.2857142857142860  0.5714285714285716  0.3952149709760691
  0.4285714285714287  0.8571428571428572  0.3952149709760691
  0.5714285714285716  0.1428571428571431  0.3952149709760691
  0.7142857142857146  0.4285714285714289  0.3952149709760691
  0.8571428571428574  0.7142857142857145  0.3952149709760691
  0.3571428571428573  0.2142857142857144  0.3952149709760691
  0.5000000000000001  0.5000000000000002  0.3952149709760691
  0.6428571428571429  0.7857142857142858  0.3952149709760691
  0.7857142857142858  0.0714285714285717  0.3952149709760691
  0.9285714285714286  0.3571428571428575  0.3952149709760691
  0.0714285714285716  0.6428571428571432  0.3952149709760691
  0.2142857142857144  0.9285714285714289  0.3952149709760691
 -0.0000000000000001 -0.0000000000000001  0.6047850290239309
  0.1428571428571428  0.2857142857142856  0.6047850290239309
  0.2857142857142858  0.5714285714285714  0.6047850290239309
  0.4285714285714284  0.8571428571428570  0.6047850290239309
  0.5714285714285714  0.1428571428571429  0.6047850290239309
  0.7142857142857144  0.4285714285714287  0.6047850290239309
  0.8571428571428572  0.7142857142857143  0.6047850290239309
  0.3571428571428571  0.2142857142857142  0.6047850290239309
  0.4999999999999999  0.5000000000000000  0.6047850290239309
  0.6428571428571427  0.7857142857142856  0.6047850290239309
  0.7857142857142856  0.0714285714285715  0.6047850290239309
  0.9285714285714284  0.3571428571428573  0.6047850290239309
  0.0714285714285714  0.6428571428571430  0.6047850290239309
  0.2142857142857142  0.9285714285714287  0.6047850290239309
  0.2142857142857144  0.2619047619047620  0.4487476573025638
  0.3571428571428574  0.5476190476190478  0.4487476573025638
  0.5000000000000001  0.8333333333333335  0.4487476573025638
  0.6428571428571430  0.1190476190476192  0.4487476573025638
  0.7857142857142860  0.4047619047619052  0.4487476573025638
  0.9285714285714288  0.6904761904761908  0.4487476573025638
  0.0714285714285717  0.9761904761904766  0.4487476573025638
  0.5714285714285715  0.4761904761904763  0.4487476573025638
  0.7142857142857144  0.7619047619047621  0.4487476573025638
  0.8571428571428574  0.0476190476190479  0.4487476573025638
  0.0000000000000001  0.3333333333333336  0.4487476573025638
  0.1428571428571430  0.6190476190476196  0.4487476573025638
  0.2857142857142858  0.9047619047619052  0.4487476573025638
  0.4285714285714289  0.1904761904761908  0.4487476573025638
  0.2142857142857144  0.2619047619047620  0.3416822846495745
  0.3571428571428573  0.5476190476190477  0.3416822846495745
  0.5000000000000001  0.8333333333333336  0.3416822846495745
  0.6428571428571430  0.1190476190476194  0.3416822846495745
  0.7857142857142859  0.4047619047619051  0.3416822846495745
  0.9285714285714287  0.6904761904761908  0.3416822846495745
  0.0714285714285717  0.9761904761904766  0.3416822846495745
  0.5714285714285714  0.4761904761904763  0.3416822846495745
  0.7142857142857143  0.7619047619047622  0.3416822846495745
  0.8571428571428573  0.0476190476190480  0.3416822846495745
  0.0000000000000000  0.3333333333333337  0.3416822846495745
  0.1428571428571430  0.6190476190476195  0.3416822846495745
  0.2857142857142858  0.9047619047619051  0.3416822846495745
  0.4285714285714288  0.1904761904761908  0.3416822846495745
  0.2142857142857142  0.2619047619047618  0.6583177153504256
  0.3571428571428572  0.5476190476190476  0.6583177153504256
  0.4999999999999998  0.8333333333333333  0.6583177153504256
  0.6428571428571427  0.1190476190476190  0.6583177153504256
  0.7857142857142857  0.4047619047619050  0.6583177153504256
  0.9285714285714285  0.6904761904761906  0.6583177153504256
  0.0714285714285715  0.9761904761904764  0.6583177153504256
  0.5714285714285712  0.4761904761904761  0.6583177153504256
  0.7142857142857141  0.7619047619047619  0.6583177153504256
  0.8571428571428571  0.0476190476190476  0.6583177153504256
 -0.0000000000000001  0.3333333333333334  0.6583177153504256
  0.1428571428571428  0.6190476190476194  0.6583177153504256
  0.2857142857142855  0.9047619047619050  0.6583177153504256
  0.4285714285714287  0.1904761904761906  0.6583177153504256
  0.2142857142857142  0.2619047619047618  0.5512523426974363
  0.3571428571428570  0.5476190476190474  0.5512523426974363
  0.4999999999999998  0.8333333333333334  0.5512523426974363
  0.6428571428571428  0.1190476190476191  0.5512523426974363
  0.7857142857142857  0.4047619047619049  0.5512523426974363
  0.9285714285714285  0.6904761904761906  0.5512523426974363
  0.0714285714285715  0.9761904761904764  0.5512523426974363
  0.5714285714285712  0.4761904761904761  0.5512523426974363
  0.7142857142857141  0.7619047619047620  0.5512523426974363
  0.8571428571428571  0.0476190476190477  0.5512523426974363
 -0.0000000000000002  0.3333333333333335  0.5512523426974363
  0.1428571428571428  0.6190476190476193  0.5512523426974363
  0.2857142857142855  0.9047619047619049  0.5512523426974363
  0.4285714285714286  0.1904761904761905  0.5512523426974363
