MoS2yuanshi\(0\0\1)                     
   1.00000000000000     
     3.1645011219337347    0.0000000000000000    0.0000000000000000
    -1.5822463644103073    2.7405407656134138    0.0000000000000000
     0.0000000000000000    0.0000000000000000   18.1344860434245199
   Mo   S 
     1     2
Direct
  0.3333343890095644  0.6666656027490899  0.4724200204071421
  0.6666678460875188  0.3333321953112618  0.3860244852992231
  0.6666678362120436  0.3333321869235179  0.5588155408844324
 
  0.00000000E+00  0.00000000E+00  0.00000000E+00
  0.00000000E+00  0.00000000E+00  0.00000000E+00
  0.00000000E+00  0.00000000E+00  0.00000000E+00
