MoS2\(2)
1.0
        6.3000001907         0.0000000000         0.0000000000
       -3.1500000954         5.4559602090         0.0000000000
        0.0000000000         0.0000000000        14.0000000000
   Mo    S
    4    8
Direct
     0.166669995         0.333330005         0.449829996
     0.666670024         0.333330005         0.449829996
     0.166669995         0.833329976         0.449829996
     0.666670024         0.833329976         0.449829996
     0.333330005         0.166669995         0.336490005
     0.333330005         0.166669995         0.563170016
     0.833329976         0.166669995         0.336490005
     0.833329976         0.166669995         0.563170016
     0.333330005         0.666670024         0.336490005
     0.333330005         0.666670024         0.563170016
     0.833329976         0.666670024         0.336490005
     0.833329976         0.666670024         0.563170016
