Generated by VASPKIT code
 1.000000
   17.4047561249943037   -8.2216150641370191    0.0000000000000000
  -14.2402550113589754   13.7026917735616998    0.0000000000000000
    0.0000000000000011    0.0000000000000019   18.1344860434245199
   Mo   S 
    14    28
Direct
    0.0000000000000000    0.0000000000000000    0.0000000000000000     Mo1
    0.1428571428571429    0.2857142857142858    0.0000000000000000     Mo2
    0.2857142857142858    0.5714285714285715    0.0000000000000000     Mo3
    0.4285714285714286    0.8571428571428572    0.0000000000000000     Mo4
    0.5714285714285715    0.1428571428571430    0.0000000000000000     Mo5
    0.7142857142857144    0.4285714285714288    0.0000000000000000     Mo6
    0.8571428571428572    0.7142857142857144    0.0000000000000000     Mo7
    0.3571428571428572    0.2142857142857143    0.0000000000000000     Mo8
    0.5000000000000000    0.5000000000000001    0.0000000000000000     Mo9
    0.6428571428571429    0.7857142857142858    0.0000000000000000    Mo10
    0.7857142857142858    0.0714285714285716    0.0000000000000000    Mo11
    0.9285714285714286    0.3571428571428574    0.0000000000000000    Mo12
    0.0714285714285716    0.6428571428571432    0.0000000000000000    Mo13
    0.2142857142857144    0.9285714285714288    0.0000000000000000    Mo14
    0.2142857142857143    0.2619047619047619    0.9136044648920811      S1
    0.3571428571428572    0.5476190476190477    0.9136044648920811      S2
    0.5000000000000000    0.8333333333333334    0.9136044648920811      S3
    0.6428571428571429    0.1190476190476191    0.9136044648920811      S4
    0.7857142857142859    0.4047619047619051    0.9136044648920811      S5
    0.9285714285714287    0.6904761904761907    0.9136044648920811      S6
    0.0714285714285716    0.9761904761904765    0.9136044648920811      S7
    0.5714285714285714    0.4761904761904763    0.9136044648920811      S8
    0.7142857142857143    0.7619047619047620    0.9136044648920811      S9
    0.8571428571428572    0.0476190476190477    0.9136044648920811     S10
    0.0000000000000000    0.3333333333333335    0.9136044648920811     S11
    0.1428571428571430    0.6190476190476195    0.9136044648920811     S12
    0.2857142857142858    0.9047619047619051    0.9136044648920811     S13
    0.4285714285714288    0.1904761904761907    0.9136044648920811     S14
    0.2142857142857143    0.2619047619047620    0.0863955351079188     S15
    0.3571428571428572    0.5476190476190477    0.0863955351079188     S16
    0.5000000000000001    0.8333333333333335    0.0863955351079188     S17
    0.6428571428571430    0.1190476190476193    0.0863955351079188     S18
    0.7857142857142859    0.4047619047619051    0.0863955351079188     S19
    0.9285714285714287    0.6904761904761907    0.0863955351079188     S20
    0.0714285714285716    0.9761904761904765    0.0863955351079188     S21
    0.5714285714285714    0.4761904761904763    0.0863955351079188     S22
    0.7142857142857143    0.7619047619047621    0.0863955351079188     S23
    0.8571428571428572    0.0476190476190479    0.0863955351079188     S24
    0.0000000000000000    0.3333333333333337    0.0863955351079188     S25
    0.1428571428571430    0.6190476190476195    0.0863955351079188     S26
    0.2857142857142858    0.9047619047619051    0.0863955351079188     S27
    0.4285714285714288    0.1904761904761907    0.0863955351079188     S28
