Generated by VASPKIT code
 1.000000
   19.7623031205821214    0.0000000000000000    0.0000000000000000
  -18.2421259574604200    6.1437228604096576    0.0000000000000000
    0.0000000000000011    0.0000000000000068   18.1344860434245199
   Mo   S 
    14    28
Direct
    0.0000000000000000    0.0000000000000000    0.0431977675539594     Mo1
    0.2142857142857143    0.3571428571428572    0.0431977675539594     Mo2
    0.4285714285714287    0.7142857142857143    0.0431977675539594     Mo3
    0.6428571428571430    0.0714285714285714    0.0431977675539594     Mo4
    0.8571428571428573    0.4285714285714286    0.0431977675539594     Mo5
    0.0714285714285716    0.7857142857142858    0.0431977675539594     Mo6
    0.2857142857142860    0.1428571428571428    0.0431977675539594     Mo7
    0.5000000000000002    0.5000000000000000    0.0431977675539594     Mo8
    0.7142857142857146    0.8571428571428572    0.0431977675539594     Mo9
    0.9285714285714288    0.2142857142857142    0.0431977675539594    Mo10
    0.1428571428571430    0.5714285714285714    0.0431977675539594    Mo11
    0.3571428571428574    0.9285714285714286    0.0431977675539594    Mo12
    0.5714285714285718    0.2857142857142856    0.0431977675539594    Mo13
    0.7857142857142860    0.6428571428571428    0.0431977675539594    Mo14
    0.2380952380952381    0.2857142857142857    0.9568022324460406      S1
    0.4523809523809524    0.6428571428571429    0.9568022324460406      S2
    0.6666666666666667    0.0000000000000000    0.9568022324460406      S3
    0.8809523809523810    0.3571428571428572    0.9568022324460406      S4
    0.0952380952380956    0.7142857142857144    0.9568022324460406      S5
    0.3095238095238100    0.0714285714285716    0.9568022324460406      S6
    0.5238095238095242    0.4285714285714284    0.9568022324460406      S7
    0.7380952380952386    0.7857142857142856    0.9568022324460406      S8
    0.9523809523809528    0.1428571428571423    0.9568022324460406      S9
    0.1666666666666667    0.5000000000000000    0.9568022324460406     S10
    0.3809523809523812    0.8571428571428572    0.9568022324460406     S11
    0.5952380952380956    0.2142857142857149    0.9568022324460406     S12
    0.8095238095238098    0.5714285714285716    0.9568022324460406     S13
    0.0238095238095242    0.9285714285714288    0.9568022324460406     S14
    0.2380952380952381    0.2857142857142858    0.1295933026618783     S15
    0.4523809523809524    0.6428571428571429    0.1295933026618783     S16
    0.6666666666666669    0.0000000000000002    0.1295933026618783     S17
    0.8809523809523812    0.3571428571428574    0.1295933026618783     S18
    0.0952380952380956    0.7142857142857144    0.1295933026618783     S19
    0.3095238095238100    0.0714285714285716    0.1295933026618783     S20
    0.5238095238095242    0.4285714285714284    0.1295933026618783     S21
    0.7380952380952386    0.7857142857142856    0.1295933026618783     S22
    0.9523809523809528    0.1428571428571423    0.1295933026618783     S23
    0.1666666666666670    0.5000000000000002    0.1295933026618783     S24
    0.3809523809523812    0.8571428571428572    0.1295933026618783     S25
    0.5952380952380956    0.2142857142857149    0.1295933026618783     S26
    0.8095238095238098    0.5714285714285716    0.1295933026618783     S27
    0.0238095238095242    0.9285714285714288    0.1295933026618783     S28
