Transfer by qvasp                       
   1.00000000000000     
     2.4631438591400601    0.0000000000000000    0.0000000000000000
     0.0000000000000000    4.2691373988514600    0.0000000000000000
     0.0000000000000000    0.0000000000000000   24.0000000000000000
   C 
     4
Direct
  0.0000000000000000  0.3332108746464257  0.5000000000000000
  0.5000000000000000  0.8332108746464257  0.5000000000000000
  0.0000000000000000  0.6667891253535743  0.5000000000000000
  0.5000000000000000  0.1667891253535743  0.5000000000000000
 
  0.00000000E+00  0.00000000E+00  0.00000000E+00
  0.00000000E+00  0.00000000E+00  0.00000000E+00
  0.00000000E+00  0.00000000E+00  0.00000000E+00
  0.00000000E+00  0.00000000E+00  0.00000000E+00
