Kpoints for BZ
        3136
rec
    0.50000000      0.50000000      0.00000000   1
    0.50000000      0.48181818      0.00000000   1
    0.50000000      0.46363636      0.00000000   1
    0.50000000      0.44545455      0.00000000   1
    0.50000000      0.42727273      0.00000000   1
    0.50000000      0.40909091      0.00000000   1
    0.50000000      0.39090909      0.00000000   1
    0.50000000      0.37272728      0.00000000   1
    0.50000000      0.35454546      0.00000000   1
    0.50000000      0.33636364      0.00000000   1
    0.50000000      0.31818182      0.00000000   1
    0.50000000      0.30000001      0.00000000   1
    0.50000000      0.28181819      0.00000000   1
    0.50000000      0.26363637      0.00000000   1
    0.50000000      0.24545455      0.00000000   1
    0.50000000      0.22727274      0.00000000   1
    0.50000000      0.20909092      0.00000000   1
    0.50000000      0.19090910      0.00000000   1
    0.50000000      0.17272728      0.00000000   1
    0.50000000      0.15454547      0.00000000   1
    0.50000000      0.13636365      0.00000000   1
    0.50000000      0.11818183      0.00000000   1
    0.50000000      0.10000001      0.00000000   1
    0.50000000      0.08181820      0.00000000   1
    0.50000000      0.06363638      0.00000000   1
    0.50000000      0.04545456      0.00000000   1
    0.50000000      0.02727274      0.00000000   1
    0.50000000      0.00909092      0.00000000   1
    0.50000000     -0.00909089      0.00000000   1
    0.50000000     -0.02727271      0.00000000   1
    0.50000000     -0.04545453      0.00000000   1
    0.50000000     -0.06363635      0.00000000   1
    0.50000000     -0.08181816      0.00000000   1
    0.50000000     -0.09999998      0.00000000   1
    0.50000000     -0.11818180      0.00000000   1
    0.50000000     -0.13636362      0.00000000   1
    0.50000000     -0.15454543      0.00000000   1
    0.50000000     -0.17272725      0.00000000   1
    0.50000000     -0.19090907      0.00000000   1
    0.50000000     -0.20909089      0.00000000   1
    0.50000000     -0.22727270      0.00000000   1
    0.50000000     -0.24545452      0.00000000   1
    0.50000000     -0.26363634      0.00000000   1
    0.50000000     -0.28181816      0.00000000   1
    0.50000000     -0.29999997      0.00000000   1
    0.50000000     -0.31818179      0.00000000   1
    0.50000000     -0.33636361      0.00000000   1
    0.50000000     -0.35454543      0.00000000   1
    0.50000000     -0.37272725      0.00000000   1
    0.50000000     -0.39090906      0.00000000   1
    0.50000000     -0.40909088      0.00000000   1
    0.50000000     -0.42727270      0.00000000   1
    0.50000000     -0.44545452      0.00000000   1
    0.50000000     -0.46363633      0.00000000   1
    0.50000000     -0.48181815      0.00000000   1
    0.50000000     -0.49999997      0.00000000   1
    0.48181818      0.50000000      0.00000000   1
    0.48181818      0.48181818      0.00000000   1
    0.48181818      0.46363636      0.00000000   1
    0.48181818      0.44545455      0.00000000   1
    0.48181818      0.42727273      0.00000000   1
    0.48181818      0.40909091      0.00000000   1
    0.48181818      0.39090909      0.00000000   1
    0.48181818      0.37272728      0.00000000   1
    0.48181818      0.35454546      0.00000000   1
    0.48181818      0.33636364      0.00000000   1
    0.48181818      0.31818182      0.00000000   1
    0.48181818      0.30000001      0.00000000   1
    0.48181818      0.28181819      0.00000000   1
    0.48181818      0.26363637      0.00000000   1
    0.48181818      0.24545455      0.00000000   1
    0.48181818      0.22727274      0.00000000   1
    0.48181818      0.20909092      0.00000000   1
    0.48181818      0.19090910      0.00000000   1
    0.48181818      0.17272728      0.00000000   1
    0.48181818      0.15454547      0.00000000   1
    0.48181818      0.13636365      0.00000000   1
    0.48181818      0.11818183      0.00000000   1
    0.48181818      0.10000001      0.00000000   1
    0.48181818      0.08181820      0.00000000   1
    0.48181818      0.06363638      0.00000000   1
    0.48181818      0.04545456      0.00000000   1
    0.48181818      0.02727274      0.00000000   1
    0.48181818      0.00909092      0.00000000   1
    0.48181818     -0.00909089      0.00000000   1
    0.48181818     -0.02727271      0.00000000   1
    0.48181818     -0.04545453      0.00000000   1
    0.48181818     -0.06363635      0.00000000   1
    0.48181818     -0.08181816      0.00000000   1
    0.48181818     -0.09999998      0.00000000   1
    0.48181818     -0.11818180      0.00000000   1
    0.48181818     -0.13636362      0.00000000   1
    0.48181818     -0.15454543      0.00000000   1
    0.48181818     -0.17272725      0.00000000   1
    0.48181818     -0.19090907      0.00000000   1
    0.48181818     -0.20909089      0.00000000   1
    0.48181818     -0.22727270      0.00000000   1
    0.48181818     -0.24545452      0.00000000   1
    0.48181818     -0.26363634      0.00000000   1
    0.48181818     -0.28181816      0.00000000   1
    0.48181818     -0.29999997      0.00000000   1
    0.48181818     -0.31818179      0.00000000   1
    0.48181818     -0.33636361      0.00000000   1
    0.48181818     -0.35454543      0.00000000   1
    0.48181818     -0.37272725      0.00000000   1
    0.48181818     -0.39090906      0.00000000   1
    0.48181818     -0.40909088      0.00000000   1
    0.48181818     -0.42727270      0.00000000   1
    0.48181818     -0.44545452      0.00000000   1
    0.48181818     -0.46363633      0.00000000   1
    0.48181818     -0.48181815      0.00000000   1
    0.48181818     -0.49999997      0.00000000   1
    0.46363636      0.50000000      0.00000000   1
    0.46363636      0.48181818      0.00000000   1
    0.46363636      0.46363636      0.00000000   1
    0.46363636      0.44545455      0.00000000   1
    0.46363636      0.42727273      0.00000000   1
    0.46363636      0.40909091      0.00000000   1
    0.46363636      0.39090909      0.00000000   1
    0.46363636      0.37272728      0.00000000   1
    0.46363636      0.35454546      0.00000000   1
    0.46363636      0.33636364      0.00000000   1
    0.46363636      0.31818182      0.00000000   1
    0.46363636      0.30000001      0.00000000   1
    0.46363636      0.28181819      0.00000000   1
    0.46363636      0.26363637      0.00000000   1
    0.46363636      0.24545455      0.00000000   1
    0.46363636      0.22727274      0.00000000   1
    0.46363636      0.20909092      0.00000000   1
    0.46363636      0.19090910      0.00000000   1
    0.46363636      0.17272728      0.00000000   1
    0.46363636      0.15454547      0.00000000   1
    0.46363636      0.13636365      0.00000000   1
    0.46363636      0.11818183      0.00000000   1
    0.46363636      0.10000001      0.00000000   1
    0.46363636      0.08181820      0.00000000   1
    0.46363636      0.06363638      0.00000000   1
    0.46363636      0.04545456      0.00000000   1
    0.46363636      0.02727274      0.00000000   1
    0.46363636      0.00909092      0.00000000   1
    0.46363636     -0.00909089      0.00000000   1
    0.46363636     -0.02727271      0.00000000   1
    0.46363636     -0.04545453      0.00000000   1
    0.46363636     -0.06363635      0.00000000   1
    0.46363636     -0.08181816      0.00000000   1
    0.46363636     -0.09999998      0.00000000   1
    0.46363636     -0.11818180      0.00000000   1
    0.46363636     -0.13636362      0.00000000   1
    0.46363636     -0.15454543      0.00000000   1
    0.46363636     -0.17272725      0.00000000   1
    0.46363636     -0.19090907      0.00000000   1
    0.46363636     -0.20909089      0.00000000   1
    0.46363636     -0.22727270      0.00000000   1
    0.46363636     -0.24545452      0.00000000   1
    0.46363636     -0.26363634      0.00000000   1
    0.46363636     -0.28181816      0.00000000   1
    0.46363636     -0.29999997      0.00000000   1
    0.46363636     -0.31818179      0.00000000   1
    0.46363636     -0.33636361      0.00000000   1
    0.46363636     -0.35454543      0.00000000   1
    0.46363636     -0.37272725      0.00000000   1
    0.46363636     -0.39090906      0.00000000   1
    0.46363636     -0.40909088      0.00000000   1
    0.46363636     -0.42727270      0.00000000   1
    0.46363636     -0.44545452      0.00000000   1
    0.46363636     -0.46363633      0.00000000   1
    0.46363636     -0.48181815      0.00000000   1
    0.46363636     -0.49999997      0.00000000   1
    0.44545455      0.50000000      0.00000000   1
    0.44545455      0.48181818      0.00000000   1
    0.44545455      0.46363636      0.00000000   1
    0.44545455      0.44545455      0.00000000   1
    0.44545455      0.42727273      0.00000000   1
    0.44545455      0.40909091      0.00000000   1
    0.44545455      0.39090909      0.00000000   1
    0.44545455      0.37272728      0.00000000   1
    0.44545455      0.35454546      0.00000000   1
    0.44545455      0.33636364      0.00000000   1
    0.44545455      0.31818182      0.00000000   1
    0.44545455      0.30000001      0.00000000   1
    0.44545455      0.28181819      0.00000000   1
    0.44545455      0.26363637      0.00000000   1
    0.44545455      0.24545455      0.00000000   1
    0.44545455      0.22727274      0.00000000   1
    0.44545455      0.20909092      0.00000000   1
    0.44545455      0.19090910      0.00000000   1
    0.44545455      0.17272728      0.00000000   1
    0.44545455      0.15454547      0.00000000   1
    0.44545455      0.13636365      0.00000000   1
    0.44545455      0.11818183      0.00000000   1
    0.44545455      0.10000001      0.00000000   1
    0.44545455      0.08181820      0.00000000   1
    0.44545455      0.06363638      0.00000000   1
    0.44545455      0.04545456      0.00000000   1
    0.44545455      0.02727274      0.00000000   1
    0.44545455      0.00909092      0.00000000   1
    0.44545455     -0.00909089      0.00000000   1
    0.44545455     -0.02727271      0.00000000   1
    0.44545455     -0.04545453      0.00000000   1
    0.44545455     -0.06363635      0.00000000   1
    0.44545455     -0.08181816      0.00000000   1
    0.44545455     -0.09999998      0.00000000   1
    0.44545455     -0.11818180      0.00000000   1
    0.44545455     -0.13636362      0.00000000   1
    0.44545455     -0.15454543      0.00000000   1
    0.44545455     -0.17272725      0.00000000   1
    0.44545455     -0.19090907      0.00000000   1
    0.44545455     -0.20909089      0.00000000   1
    0.44545455     -0.22727270      0.00000000   1
    0.44545455     -0.24545452      0.00000000   1
    0.44545455     -0.26363634      0.00000000   1
    0.44545455     -0.28181816      0.00000000   1
    0.44545455     -0.29999997      0.00000000   1
    0.44545455     -0.31818179      0.00000000   1
    0.44545455     -0.33636361      0.00000000   1
    0.44545455     -0.35454543      0.00000000   1
    0.44545455     -0.37272725      0.00000000   1
    0.44545455     -0.39090906      0.00000000   1
    0.44545455     -0.40909088      0.00000000   1
    0.44545455     -0.42727270      0.00000000   1
    0.44545455     -0.44545452      0.00000000   1
    0.44545455     -0.46363633      0.00000000   1
    0.44545455     -0.48181815      0.00000000   1
    0.44545455     -0.49999997      0.00000000   1
    0.42727273      0.50000000      0.00000000   1
    0.42727273      0.48181818      0.00000000   1
    0.42727273      0.46363636      0.00000000   1
    0.42727273      0.44545455      0.00000000   1
    0.42727273      0.42727273      0.00000000   1
    0.42727273      0.40909091      0.00000000   1
    0.42727273      0.39090909      0.00000000   1
    0.42727273      0.37272728      0.00000000   1
    0.42727273      0.35454546      0.00000000   1
    0.42727273      0.33636364      0.00000000   1
    0.42727273      0.31818182      0.00000000   1
    0.42727273      0.30000001      0.00000000   1
    0.42727273      0.28181819      0.00000000   1
    0.42727273      0.26363637      0.00000000   1
    0.42727273      0.24545455      0.00000000   1
    0.42727273      0.22727274      0.00000000   1
    0.42727273      0.20909092      0.00000000   1
    0.42727273      0.19090910      0.00000000   1
    0.42727273      0.17272728      0.00000000   1
    0.42727273      0.15454547      0.00000000   1
    0.42727273      0.13636365      0.00000000   1
    0.42727273      0.11818183      0.00000000   1
    0.42727273      0.10000001      0.00000000   1
    0.42727273      0.08181820      0.00000000   1
    0.42727273      0.06363638      0.00000000   1
    0.42727273      0.04545456      0.00000000   1
    0.42727273      0.02727274      0.00000000   1
    0.42727273      0.00909092      0.00000000   1
    0.42727273     -0.00909089      0.00000000   1
    0.42727273     -0.02727271      0.00000000   1
    0.42727273     -0.04545453      0.00000000   1
    0.42727273     -0.06363635      0.00000000   1
    0.42727273     -0.08181816      0.00000000   1
    0.42727273     -0.09999998      0.00000000   1
    0.42727273     -0.11818180      0.00000000   1
    0.42727273     -0.13636362      0.00000000   1
    0.42727273     -0.15454543      0.00000000   1
    0.42727273     -0.17272725      0.00000000   1
    0.42727273     -0.19090907      0.00000000   1
    0.42727273     -0.20909089      0.00000000   1
    0.42727273     -0.22727270      0.00000000   1
    0.42727273     -0.24545452      0.00000000   1
    0.42727273     -0.26363634      0.00000000   1
    0.42727273     -0.28181816      0.00000000   1
    0.42727273     -0.29999997      0.00000000   1
    0.42727273     -0.31818179      0.00000000   1
    0.42727273     -0.33636361      0.00000000   1
    0.42727273     -0.35454543      0.00000000   1
    0.42727273     -0.37272725      0.00000000   1
    0.42727273     -0.39090906      0.00000000   1
    0.42727273     -0.40909088      0.00000000   1
    0.42727273     -0.42727270      0.00000000   1
    0.42727273     -0.44545452      0.00000000   1
    0.42727273     -0.46363633      0.00000000   1
    0.42727273     -0.48181815      0.00000000   1
    0.42727273     -0.49999997      0.00000000   1
    0.40909091      0.50000000      0.00000000   1
    0.40909091      0.48181818      0.00000000   1
    0.40909091      0.46363636      0.00000000   1
    0.40909091      0.44545455      0.00000000   1
    0.40909091      0.42727273      0.00000000   1
    0.40909091      0.40909091      0.00000000   1
    0.40909091      0.39090909      0.00000000   1
    0.40909091      0.37272728      0.00000000   1
    0.40909091      0.35454546      0.00000000   1
    0.40909091      0.33636364      0.00000000   1
    0.40909091      0.31818182      0.00000000   1
    0.40909091      0.30000001      0.00000000   1
    0.40909091      0.28181819      0.00000000   1
    0.40909091      0.26363637      0.00000000   1
    0.40909091      0.24545455      0.00000000   1
    0.40909091      0.22727274      0.00000000   1
    0.40909091      0.20909092      0.00000000   1
    0.40909091      0.19090910      0.00000000   1
    0.40909091      0.17272728      0.00000000   1
    0.40909091      0.15454547      0.00000000   1
    0.40909091      0.13636365      0.00000000   1
    0.40909091      0.11818183      0.00000000   1
    0.40909091      0.10000001      0.00000000   1
    0.40909091      0.08181820      0.00000000   1
    0.40909091      0.06363638      0.00000000   1
    0.40909091      0.04545456      0.00000000   1
    0.40909091      0.02727274      0.00000000   1
    0.40909091      0.00909092      0.00000000   1
    0.40909091     -0.00909089      0.00000000   1
    0.40909091     -0.02727271      0.00000000   1
    0.40909091     -0.04545453      0.00000000   1
    0.40909091     -0.06363635      0.00000000   1
    0.40909091     -0.08181816      0.00000000   1
    0.40909091     -0.09999998      0.00000000   1
    0.40909091     -0.11818180      0.00000000   1
    0.40909091     -0.13636362      0.00000000   1
    0.40909091     -0.15454543      0.00000000   1
    0.40909091     -0.17272725      0.00000000   1
    0.40909091     -0.19090907      0.00000000   1
    0.40909091     -0.20909089      0.00000000   1
    0.40909091     -0.22727270      0.00000000   1
    0.40909091     -0.24545452      0.00000000   1
    0.40909091     -0.26363634      0.00000000   1
    0.40909091     -0.28181816      0.00000000   1
    0.40909091     -0.29999997      0.00000000   1
    0.40909091     -0.31818179      0.00000000   1
    0.40909091     -0.33636361      0.00000000   1
    0.40909091     -0.35454543      0.00000000   1
    0.40909091     -0.37272725      0.00000000   1
    0.40909091     -0.39090906      0.00000000   1
    0.40909091     -0.40909088      0.00000000   1
    0.40909091     -0.42727270      0.00000000   1
    0.40909091     -0.44545452      0.00000000   1
    0.40909091     -0.46363633      0.00000000   1
    0.40909091     -0.48181815      0.00000000   1
    0.40909091     -0.49999997      0.00000000   1
    0.39090909      0.50000000      0.00000000   1
    0.39090909      0.48181818      0.00000000   1
    0.39090909      0.46363636      0.00000000   1
    0.39090909      0.44545455      0.00000000   1
    0.39090909      0.42727273      0.00000000   1
    0.39090909      0.40909091      0.00000000   1
    0.39090909      0.39090909      0.00000000   1
    0.39090909      0.37272728      0.00000000   1
    0.39090909      0.35454546      0.00000000   1
    0.39090909      0.33636364      0.00000000   1
    0.39090909      0.31818182      0.00000000   1
    0.39090909      0.30000001      0.00000000   1
    0.39090909      0.28181819      0.00000000   1
    0.39090909      0.26363637      0.00000000   1
    0.39090909      0.24545455      0.00000000   1
    0.39090909      0.22727274      0.00000000   1
    0.39090909      0.20909092      0.00000000   1
    0.39090909      0.19090910      0.00000000   1
    0.39090909      0.17272728      0.00000000   1
    0.39090909      0.15454547      0.00000000   1
    0.39090909      0.13636365      0.00000000   1
    0.39090909      0.11818183      0.00000000   1
    0.39090909      0.10000001      0.00000000   1
    0.39090909      0.08181820      0.00000000   1
    0.39090909      0.06363638      0.00000000   1
    0.39090909      0.04545456      0.00000000   1
    0.39090909      0.02727274      0.00000000   1
    0.39090909      0.00909092      0.00000000   1
    0.39090909     -0.00909089      0.00000000   1
    0.39090909     -0.02727271      0.00000000   1
    0.39090909     -0.04545453      0.00000000   1
    0.39090909     -0.06363635      0.00000000   1
    0.39090909     -0.08181816      0.00000000   1
    0.39090909     -0.09999998      0.00000000   1
    0.39090909     -0.11818180      0.00000000   1
    0.39090909     -0.13636362      0.00000000   1
    0.39090909     -0.15454543      0.00000000   1
    0.39090909     -0.17272725      0.00000000   1
    0.39090909     -0.19090907      0.00000000   1
    0.39090909     -0.20909089      0.00000000   1
    0.39090909     -0.22727270      0.00000000   1
    0.39090909     -0.24545452      0.00000000   1
    0.39090909     -0.26363634      0.00000000   1
    0.39090909     -0.28181816      0.00000000   1
    0.39090909     -0.29999997      0.00000000   1
    0.39090909     -0.31818179      0.00000000   1
    0.39090909     -0.33636361      0.00000000   1
    0.39090909     -0.35454543      0.00000000   1
    0.39090909     -0.37272725      0.00000000   1
    0.39090909     -0.39090906      0.00000000   1
    0.39090909     -0.40909088      0.00000000   1
    0.39090909     -0.42727270      0.00000000   1
    0.39090909     -0.44545452      0.00000000   1
    0.39090909     -0.46363633      0.00000000   1
    0.39090909     -0.48181815      0.00000000   1
    0.39090909     -0.49999997      0.00000000   1
    0.37272728      0.50000000      0.00000000   1
    0.37272728      0.48181818      0.00000000   1
    0.37272728      0.46363636      0.00000000   1
    0.37272728      0.44545455      0.00000000   1
    0.37272728      0.42727273      0.00000000   1
    0.37272728      0.40909091      0.00000000   1
    0.37272728      0.39090909      0.00000000   1
    0.37272728      0.37272728      0.00000000   1
    0.37272728      0.35454546      0.00000000   1
    0.37272728      0.33636364      0.00000000   1
    0.37272728      0.31818182      0.00000000   1
    0.37272728      0.30000001      0.00000000   1
    0.37272728      0.28181819      0.00000000   1
    0.37272728      0.26363637      0.00000000   1
    0.37272728      0.24545455      0.00000000   1
    0.37272728      0.22727274      0.00000000   1
    0.37272728      0.20909092      0.00000000   1
    0.37272728      0.19090910      0.00000000   1
    0.37272728      0.17272728      0.00000000   1
    0.37272728      0.15454547      0.00000000   1
    0.37272728      0.13636365      0.00000000   1
    0.37272728      0.11818183      0.00000000   1
    0.37272728      0.10000001      0.00000000   1
    0.37272728      0.08181820      0.00000000   1
    0.37272728      0.06363638      0.00000000   1
    0.37272728      0.04545456      0.00000000   1
    0.37272728      0.02727274      0.00000000   1
    0.37272728      0.00909092      0.00000000   1
    0.37272728     -0.00909089      0.00000000   1
    0.37272728     -0.02727271      0.00000000   1
    0.37272728     -0.04545453      0.00000000   1
    0.37272728     -0.06363635      0.00000000   1
    0.37272728     -0.08181816      0.00000000   1
    0.37272728     -0.09999998      0.00000000   1
    0.37272728     -0.11818180      0.00000000   1
    0.37272728     -0.13636362      0.00000000   1
    0.37272728     -0.15454543      0.00000000   1
    0.37272728     -0.17272725      0.00000000   1
    0.37272728     -0.19090907      0.00000000   1
    0.37272728     -0.20909089      0.00000000   1
    0.37272728     -0.22727270      0.00000000   1
    0.37272728     -0.24545452      0.00000000   1
    0.37272728     -0.26363634      0.00000000   1
    0.37272728     -0.28181816      0.00000000   1
    0.37272728     -0.29999997      0.00000000   1
    0.37272728     -0.31818179      0.00000000   1
    0.37272728     -0.33636361      0.00000000   1
    0.37272728     -0.35454543      0.00000000   1
    0.37272728     -0.37272725      0.00000000   1
    0.37272728     -0.39090906      0.00000000   1
    0.37272728     -0.40909088      0.00000000   1
    0.37272728     -0.42727270      0.00000000   1
    0.37272728     -0.44545452      0.00000000   1
    0.37272728     -0.46363633      0.00000000   1
    0.37272728     -0.48181815      0.00000000   1
    0.37272728     -0.49999997      0.00000000   1
    0.35454546      0.50000000      0.00000000   1
    0.35454546      0.48181818      0.00000000   1
    0.35454546      0.46363636      0.00000000   1
    0.35454546      0.44545455      0.00000000   1
    0.35454546      0.42727273      0.00000000   1
    0.35454546      0.40909091      0.00000000   1
    0.35454546      0.39090909      0.00000000   1
    0.35454546      0.37272728      0.00000000   1
    0.35454546      0.35454546      0.00000000   1
    0.35454546      0.33636364      0.00000000   1
    0.35454546      0.31818182      0.00000000   1
    0.35454546      0.30000001      0.00000000   1
    0.35454546      0.28181819      0.00000000   1
    0.35454546      0.26363637      0.00000000   1
    0.35454546      0.24545455      0.00000000   1
    0.35454546      0.22727274      0.00000000   1
    0.35454546      0.20909092      0.00000000   1
    0.35454546      0.19090910      0.00000000   1
    0.35454546      0.17272728      0.00000000   1
    0.35454546      0.15454547      0.00000000   1
    0.35454546      0.13636365      0.00000000   1
    0.35454546      0.11818183      0.00000000   1
    0.35454546      0.10000001      0.00000000   1
    0.35454546      0.08181820      0.00000000   1
    0.35454546      0.06363638      0.00000000   1
    0.35454546      0.04545456      0.00000000   1
    0.35454546      0.02727274      0.00000000   1
    0.35454546      0.00909092      0.00000000   1
    0.35454546     -0.00909089      0.00000000   1
    0.35454546     -0.02727271      0.00000000   1
    0.35454546     -0.04545453      0.00000000   1
    0.35454546     -0.06363635      0.00000000   1
    0.35454546     -0.08181816      0.00000000   1
    0.35454546     -0.09999998      0.00000000   1
    0.35454546     -0.11818180      0.00000000   1
    0.35454546     -0.13636362      0.00000000   1
    0.35454546     -0.15454543      0.00000000   1
    0.35454546     -0.17272725      0.00000000   1
    0.35454546     -0.19090907      0.00000000   1
    0.35454546     -0.20909089      0.00000000   1
    0.35454546     -0.22727270      0.00000000   1
    0.35454546     -0.24545452      0.00000000   1
    0.35454546     -0.26363634      0.00000000   1
    0.35454546     -0.28181816      0.00000000   1
    0.35454546     -0.29999997      0.00000000   1
    0.35454546     -0.31818179      0.00000000   1
    0.35454546     -0.33636361      0.00000000   1
    0.35454546     -0.35454543      0.00000000   1
    0.35454546     -0.37272725      0.00000000   1
    0.35454546     -0.39090906      0.00000000   1
    0.35454546     -0.40909088      0.00000000   1
    0.35454546     -0.42727270      0.00000000   1
    0.35454546     -0.44545452      0.00000000   1
    0.35454546     -0.46363633      0.00000000   1
    0.35454546     -0.48181815      0.00000000   1
    0.35454546     -0.49999997      0.00000000   1
    0.33636364      0.50000000      0.00000000   1
    0.33636364      0.48181818      0.00000000   1
    0.33636364      0.46363636      0.00000000   1
    0.33636364      0.44545455      0.00000000   1
    0.33636364      0.42727273      0.00000000   1
    0.33636364      0.40909091      0.00000000   1
    0.33636364      0.39090909      0.00000000   1
    0.33636364      0.37272728      0.00000000   1
    0.33636364      0.35454546      0.00000000   1
    0.33636364      0.33636364      0.00000000   1
    0.33636364      0.31818182      0.00000000   1
    0.33636364      0.30000001      0.00000000   1
    0.33636364      0.28181819      0.00000000   1
    0.33636364      0.26363637      0.00000000   1
    0.33636364      0.24545455      0.00000000   1
    0.33636364      0.22727274      0.00000000   1
    0.33636364      0.20909092      0.00000000   1
    0.33636364      0.19090910      0.00000000   1
    0.33636364      0.17272728      0.00000000   1
    0.33636364      0.15454547      0.00000000   1
    0.33636364      0.13636365      0.00000000   1
    0.33636364      0.11818183      0.00000000   1
    0.33636364      0.10000001      0.00000000   1
    0.33636364      0.08181820      0.00000000   1
    0.33636364      0.06363638      0.00000000   1
    0.33636364      0.04545456      0.00000000   1
    0.33636364      0.02727274      0.00000000   1
    0.33333333      0.00000000      0.00000000   1
    0.33636364     -0.00909089      0.00000000   1
    0.33636364     -0.02727271      0.00000000   1
    0.33636364     -0.04545453      0.00000000   1
    0.33636364     -0.06363635      0.00000000   1
    0.33636364     -0.08181816      0.00000000   1
    0.33636364     -0.09999998      0.00000000   1
    0.33636364     -0.11818180      0.00000000   1
    0.33636364     -0.13636362      0.00000000   1
    0.33636364     -0.15454543      0.00000000   1
    0.33636364     -0.17272725      0.00000000   1
    0.33636364     -0.19090907      0.00000000   1
    0.33636364     -0.20909089      0.00000000   1
    0.33636364     -0.22727270      0.00000000   1
    0.33636364     -0.24545452      0.00000000   1
    0.33636364     -0.26363634      0.00000000   1
    0.33636364     -0.28181816      0.00000000   1
    0.33636364     -0.29999997      0.00000000   1
    0.33636364     -0.31818179      0.00000000   1
    0.33636364     -0.33636361      0.00000000   1
    0.33636364     -0.35454543      0.00000000   1
    0.33636364     -0.37272725      0.00000000   1
    0.33636364     -0.39090906      0.00000000   1
    0.33636364     -0.40909088      0.00000000   1
    0.33636364     -0.42727270      0.00000000   1
    0.33636364     -0.44545452      0.00000000   1
    0.33636364     -0.46363633      0.00000000   1
    0.33636364     -0.48181815      0.00000000   1
    0.33636364     -0.49999997      0.00000000   1
    0.31818182      0.50000000      0.00000000   1
    0.31818182      0.48181818      0.00000000   1
    0.31818182      0.46363636      0.00000000   1
    0.31818182      0.44545455      0.00000000   1
    0.31818182      0.42727273      0.00000000   1
    0.31818182      0.40909091      0.00000000   1
    0.31818182      0.39090909      0.00000000   1
    0.31818182      0.37272728      0.00000000   1
    0.31818182      0.35454546      0.00000000   1
    0.31818182      0.33636364      0.00000000   1
    0.31818182      0.31818182      0.00000000   1
    0.31818182      0.30000001      0.00000000   1
    0.31818182      0.28181819      0.00000000   1
    0.31818182      0.26363637      0.00000000   1
    0.31818182      0.24545455      0.00000000   1
    0.31818182      0.22727274      0.00000000   1
    0.31818182      0.20909092      0.00000000   1
    0.31818182      0.19090910      0.00000000   1
    0.31818182      0.17272728      0.00000000   1
    0.31818182      0.15454547      0.00000000   1
    0.31818182      0.13636365      0.00000000   1
    0.31818182      0.11818183      0.00000000   1
    0.31818182      0.10000001      0.00000000   1
    0.31818182      0.08181820      0.00000000   1
    0.31818182      0.06363638      0.00000000   1
    0.31818182      0.04545456      0.00000000   1
    0.31818182      0.02727274      0.00000000   1
    0.31818182      0.00909092      0.00000000   1
    0.31818182     -0.00909089      0.00000000   1
    0.31818182     -0.02727271      0.00000000   1
    0.31818182     -0.04545453      0.00000000   1
    0.31818182     -0.06363635      0.00000000   1
    0.31818182     -0.08181816      0.00000000   1
    0.31818182     -0.09999998      0.00000000   1
    0.31818182     -0.11818180      0.00000000   1
    0.31818182     -0.13636362      0.00000000   1
    0.31818182     -0.15454543      0.00000000   1
    0.31818182     -0.17272725      0.00000000   1
    0.31818182     -0.19090907      0.00000000   1
    0.31818182     -0.20909089      0.00000000   1
    0.31818182     -0.22727270      0.00000000   1
    0.31818182     -0.24545452      0.00000000   1
    0.31818182     -0.26363634      0.00000000   1
    0.31818182     -0.28181816      0.00000000   1
    0.31818182     -0.29999997      0.00000000   1
    0.31818182     -0.31818179      0.00000000   1
    0.31818182     -0.33636361      0.00000000   1
    0.31818182     -0.35454543      0.00000000   1
    0.31818182     -0.37272725      0.00000000   1
    0.31818182     -0.39090906      0.00000000   1
    0.31818182     -0.40909088      0.00000000   1
    0.31818182     -0.42727270      0.00000000   1
    0.31818182     -0.44545452      0.00000000   1
    0.31818182     -0.46363633      0.00000000   1
    0.31818182     -0.48181815      0.00000000   1
    0.31818182     -0.49999997      0.00000000   1
    0.30000001      0.50000000      0.00000000   1
    0.30000001      0.48181818      0.00000000   1
    0.30000001      0.46363636      0.00000000   1
    0.30000001      0.44545455      0.00000000   1
    0.30000001      0.42727273      0.00000000   1
    0.30000001      0.40909091      0.00000000   1
    0.30000001      0.39090909      0.00000000   1
    0.30000001      0.37272728      0.00000000   1
    0.30000001      0.35454546      0.00000000   1
    0.30000001      0.33636364      0.00000000   1
    0.30000001      0.31818182      0.00000000   1
    0.30000001      0.30000001      0.00000000   1
    0.30000001      0.28181819      0.00000000   1
    0.30000001      0.26363637      0.00000000   1
    0.30000001      0.24545455      0.00000000   1
    0.30000001      0.22727274      0.00000000   1
    0.30000001      0.20909092      0.00000000   1
    0.30000001      0.19090910      0.00000000   1
    0.30000001      0.17272728      0.00000000   1
    0.30000001      0.15454547      0.00000000   1
    0.30000001      0.13636365      0.00000000   1
    0.30000001      0.11818183      0.00000000   1
    0.30000001      0.10000001      0.00000000   1
    0.30000001      0.08181820      0.00000000   1
    0.30000001      0.06363638      0.00000000   1
    0.30000001      0.04545456      0.00000000   1
    0.30000001      0.02727274      0.00000000   1
    0.30000001      0.00909092      0.00000000   1
    0.30000001     -0.00909089      0.00000000   1
    0.30000001     -0.02727271      0.00000000   1
    0.30000001     -0.04545453      0.00000000   1
    0.30000001     -0.06363635      0.00000000   1
    0.30000001     -0.08181816      0.00000000   1
    0.30000001     -0.09999998      0.00000000   1
    0.30000001     -0.11818180      0.00000000   1
    0.30000001     -0.13636362      0.00000000   1
    0.30000001     -0.15454543      0.00000000   1
    0.30000001     -0.17272725      0.00000000   1
    0.30000001     -0.19090907      0.00000000   1
    0.30000001     -0.20909089      0.00000000   1
    0.30000001     -0.22727270      0.00000000   1
    0.30000001     -0.24545452      0.00000000   1
    0.30000001     -0.26363634      0.00000000   1
    0.30000001     -0.28181816      0.00000000   1
    0.30000001     -0.29999997      0.00000000   1
    0.30000001     -0.31818179      0.00000000   1
    0.30000001     -0.33636361      0.00000000   1
    0.30000001     -0.35454543      0.00000000   1
    0.30000001     -0.37272725      0.00000000   1
    0.30000001     -0.39090906      0.00000000   1
    0.30000001     -0.40909088      0.00000000   1
    0.30000001     -0.42727270      0.00000000   1
    0.30000001     -0.44545452      0.00000000   1
    0.30000001     -0.46363633      0.00000000   1
    0.30000001     -0.48181815      0.00000000   1
    0.30000001     -0.49999997      0.00000000   1
    0.28181819      0.50000000      0.00000000   1
    0.28181819      0.48181818      0.00000000   1
    0.28181819      0.46363636      0.00000000   1
    0.28181819      0.44545455      0.00000000   1
    0.28181819      0.42727273      0.00000000   1
    0.28181819      0.40909091      0.00000000   1
    0.28181819      0.39090909      0.00000000   1
    0.28181819      0.37272728      0.00000000   1
    0.28181819      0.35454546      0.00000000   1
    0.28181819      0.33636364      0.00000000   1
    0.28181819      0.31818182      0.00000000   1
    0.28181819      0.30000001      0.00000000   1
    0.28181819      0.28181819      0.00000000   1
    0.28181819      0.26363637      0.00000000   1
    0.28181819      0.24545455      0.00000000   1
    0.28181819      0.22727274      0.00000000   1
    0.28181819      0.20909092      0.00000000   1
    0.28181819      0.19090910      0.00000000   1
    0.28181819      0.17272728      0.00000000   1
    0.28181819      0.15454547      0.00000000   1
    0.28181819      0.13636365      0.00000000   1
    0.28181819      0.11818183      0.00000000   1
    0.28181819      0.10000001      0.00000000   1
    0.28181819      0.08181820      0.00000000   1
    0.28181819      0.06363638      0.00000000   1
    0.28181819      0.04545456      0.00000000   1
    0.28181819      0.02727274      0.00000000   1
    0.28181819      0.00909092      0.00000000   1
    0.28181819     -0.00909089      0.00000000   1
    0.28181819     -0.02727271      0.00000000   1
    0.28181819     -0.04545453      0.00000000   1
    0.28181819     -0.06363635      0.00000000   1
    0.28181819     -0.08181816      0.00000000   1
    0.28181819     -0.09999998      0.00000000   1
    0.28181819     -0.11818180      0.00000000   1
    0.28181819     -0.13636362      0.00000000   1
    0.28181819     -0.15454543      0.00000000   1
    0.28181819     -0.17272725      0.00000000   1
    0.28181819     -0.19090907      0.00000000   1
    0.28181819     -0.20909089      0.00000000   1
    0.28181819     -0.22727270      0.00000000   1
    0.28181819     -0.24545452      0.00000000   1
    0.28181819     -0.26363634      0.00000000   1
    0.28181819     -0.28181816      0.00000000   1
    0.28181819     -0.29999997      0.00000000   1
    0.28181819     -0.31818179      0.00000000   1
    0.28181819     -0.33636361      0.00000000   1
    0.28181819     -0.35454543      0.00000000   1
    0.28181819     -0.37272725      0.00000000   1
    0.28181819     -0.39090906      0.00000000   1
    0.28181819     -0.40909088      0.00000000   1
    0.28181819     -0.42727270      0.00000000   1
    0.28181819     -0.44545452      0.00000000   1
    0.28181819     -0.46363633      0.00000000   1
    0.28181819     -0.48181815      0.00000000   1
    0.28181819     -0.49999997      0.00000000   1
    0.26363637      0.50000000      0.00000000   1
    0.26363637      0.48181818      0.00000000   1
    0.26363637      0.46363636      0.00000000   1
    0.26363637      0.44545455      0.00000000   1
    0.26363637      0.42727273      0.00000000   1
    0.26363637      0.40909091      0.00000000   1
    0.26363637      0.39090909      0.00000000   1
    0.26363637      0.37272728      0.00000000   1
    0.26363637      0.35454546      0.00000000   1
    0.26363637      0.33636364      0.00000000   1
    0.26363637      0.31818182      0.00000000   1
    0.26363637      0.30000001      0.00000000   1
    0.26363637      0.28181819      0.00000000   1
    0.26363637      0.26363637      0.00000000   1
    0.26363637      0.24545455      0.00000000   1
    0.26363637      0.22727274      0.00000000   1
    0.26363637      0.20909092      0.00000000   1
    0.26363637      0.19090910      0.00000000   1
    0.26363637      0.17272728      0.00000000   1
    0.26363637      0.15454547      0.00000000   1
    0.26363637      0.13636365      0.00000000   1
    0.26363637      0.11818183      0.00000000   1
    0.26363637      0.10000001      0.00000000   1
    0.26363637      0.08181820      0.00000000   1
    0.26363637      0.06363638      0.00000000   1
    0.26363637      0.04545456      0.00000000   1
    0.26363637      0.02727274      0.00000000   1
    0.26363637      0.00909092      0.00000000   1
    0.26363637     -0.00909089      0.00000000   1
    0.26363637     -0.02727271      0.00000000   1
    0.26363637     -0.04545453      0.00000000   1
    0.26363637     -0.06363635      0.00000000   1
    0.26363637     -0.08181816      0.00000000   1
    0.26363637     -0.09999998      0.00000000   1
    0.26363637     -0.11818180      0.00000000   1
    0.26363637     -0.13636362      0.00000000   1
    0.26363637     -0.15454543      0.00000000   1
    0.26363637     -0.17272725      0.00000000   1
    0.26363637     -0.19090907      0.00000000   1
    0.26363637     -0.20909089      0.00000000   1
    0.26363637     -0.22727270      0.00000000   1
    0.26363637     -0.24545452      0.00000000   1
    0.26363637     -0.26363634      0.00000000   1
    0.26363637     -0.28181816      0.00000000   1
    0.26363637     -0.29999997      0.00000000   1
    0.26363637     -0.31818179      0.00000000   1
    0.26363637     -0.33636361      0.00000000   1
    0.26363637     -0.35454543      0.00000000   1
    0.26363637     -0.37272725      0.00000000   1
    0.26363637     -0.39090906      0.00000000   1
    0.26363637     -0.40909088      0.00000000   1
    0.26363637     -0.42727270      0.00000000   1
    0.26363637     -0.44545452      0.00000000   1
    0.26363637     -0.46363633      0.00000000   1
    0.26363637     -0.48181815      0.00000000   1
    0.26363637     -0.49999997      0.00000000   1
    0.24545455      0.50000000      0.00000000   1
    0.24545455      0.48181818      0.00000000   1
    0.24545455      0.46363636      0.00000000   1
    0.24545455      0.44545455      0.00000000   1
    0.24545455      0.42727273      0.00000000   1
    0.24545455      0.40909091      0.00000000   1
    0.24545455      0.39090909      0.00000000   1
    0.24545455      0.37272728      0.00000000   1
    0.24545455      0.35454546      0.00000000   1
    0.24545455      0.33636364      0.00000000   1
    0.24545455      0.31818182      0.00000000   1
    0.24545455      0.30000001      0.00000000   1
    0.24545455      0.28181819      0.00000000   1
    0.24545455      0.26363637      0.00000000   1
    0.24545455      0.24545455      0.00000000   1
    0.24545455      0.22727274      0.00000000   1
    0.24545455      0.20909092      0.00000000   1
    0.24545455      0.19090910      0.00000000   1
    0.24545455      0.17272728      0.00000000   1
    0.24545455      0.15454547      0.00000000   1
    0.24545455      0.13636365      0.00000000   1
    0.24545455      0.11818183      0.00000000   1
    0.24545455      0.10000001      0.00000000   1
    0.24545455      0.08181820      0.00000000   1
    0.24545455      0.06363638      0.00000000   1
    0.24545455      0.04545456      0.00000000   1
    0.24545455      0.02727274      0.00000000   1
    0.24545455      0.00909092      0.00000000   1
    0.24545455     -0.00909089      0.00000000   1
    0.24545455     -0.02727271      0.00000000   1
    0.24545455     -0.04545453      0.00000000   1
    0.24545455     -0.06363635      0.00000000   1
    0.24545455     -0.08181816      0.00000000   1
    0.24545455     -0.09999998      0.00000000   1
    0.24545455     -0.11818180      0.00000000   1
    0.24545455     -0.13636362      0.00000000   1
    0.24545455     -0.15454543      0.00000000   1
    0.24545455     -0.17272725      0.00000000   1
    0.24545455     -0.19090907      0.00000000   1
    0.24545455     -0.20909089      0.00000000   1
    0.24545455     -0.22727270      0.00000000   1
    0.24545455     -0.24545452      0.00000000   1
    0.24545455     -0.26363634      0.00000000   1
    0.24545455     -0.28181816      0.00000000   1
    0.24545455     -0.29999997      0.00000000   1
    0.24545455     -0.31818179      0.00000000   1
    0.24545455     -0.33636361      0.00000000   1
    0.24545455     -0.35454543      0.00000000   1
    0.24545455     -0.37272725      0.00000000   1
    0.24545455     -0.39090906      0.00000000   1
    0.24545455     -0.40909088      0.00000000   1
    0.24545455     -0.42727270      0.00000000   1
    0.24545455     -0.44545452      0.00000000   1
    0.24545455     -0.46363633      0.00000000   1
    0.24545455     -0.48181815      0.00000000   1
    0.24545455     -0.49999997      0.00000000   1
    0.22727274      0.50000000      0.00000000   1
    0.22727274      0.48181818      0.00000000   1
    0.22727274      0.46363636      0.00000000   1
    0.22727274      0.44545455      0.00000000   1
    0.22727274      0.42727273      0.00000000   1
    0.22727274      0.40909091      0.00000000   1
    0.22727274      0.39090909      0.00000000   1
    0.22727274      0.37272728      0.00000000   1
    0.22727274      0.35454546      0.00000000   1
    0.22727274      0.33636364      0.00000000   1
    0.22727274      0.31818182      0.00000000   1
    0.22727274      0.30000001      0.00000000   1
    0.22727274      0.28181819      0.00000000   1
    0.22727274      0.26363637      0.00000000   1
    0.22727274      0.24545455      0.00000000   1
    0.22727274      0.22727274      0.00000000   1
    0.22727274      0.20909092      0.00000000   1
    0.22727274      0.19090910      0.00000000   1
    0.22727274      0.17272728      0.00000000   1
    0.22727274      0.15454547      0.00000000   1
    0.22727274      0.13636365      0.00000000   1
    0.22727274      0.11818183      0.00000000   1
    0.22727274      0.10000001      0.00000000   1
    0.22727274      0.08181820      0.00000000   1
    0.22727274      0.06363638      0.00000000   1
    0.22727274      0.04545456      0.00000000   1
    0.22727274      0.02727274      0.00000000   1
    0.22727274      0.00909092      0.00000000   1
    0.22727274     -0.00909089      0.00000000   1
    0.22727274     -0.02727271      0.00000000   1
    0.22727274     -0.04545453      0.00000000   1
    0.22727274     -0.06363635      0.00000000   1
    0.22727274     -0.08181816      0.00000000   1
    0.22727274     -0.09999998      0.00000000   1
    0.22727274     -0.11818180      0.00000000   1
    0.22727274     -0.13636362      0.00000000   1
    0.22727274     -0.15454543      0.00000000   1
    0.22727274     -0.17272725      0.00000000   1
    0.22727274     -0.19090907      0.00000000   1
    0.22727274     -0.20909089      0.00000000   1
    0.22727274     -0.22727270      0.00000000   1
    0.22727274     -0.24545452      0.00000000   1
    0.22727274     -0.26363634      0.00000000   1
    0.22727274     -0.28181816      0.00000000   1
    0.22727274     -0.29999997      0.00000000   1
    0.22727274     -0.31818179      0.00000000   1
    0.22727274     -0.33636361      0.00000000   1
    0.22727274     -0.35454543      0.00000000   1
    0.22727274     -0.37272725      0.00000000   1
    0.22727274     -0.39090906      0.00000000   1
    0.22727274     -0.40909088      0.00000000   1
    0.22727274     -0.42727270      0.00000000   1
    0.22727274     -0.44545452      0.00000000   1
    0.22727274     -0.46363633      0.00000000   1
    0.22727274     -0.48181815      0.00000000   1
    0.22727274     -0.49999997      0.00000000   1
    0.20909092      0.50000000      0.00000000   1
    0.20909092      0.48181818      0.00000000   1
    0.20909092      0.46363636      0.00000000   1
    0.20909092      0.44545455      0.00000000   1
    0.20909092      0.42727273      0.00000000   1
    0.20909092      0.40909091      0.00000000   1
    0.20909092      0.39090909      0.00000000   1
    0.20909092      0.37272728      0.00000000   1
    0.20909092      0.35454546      0.00000000   1
    0.20909092      0.33636364      0.00000000   1
    0.20909092      0.31818182      0.00000000   1
    0.20909092      0.30000001      0.00000000   1
    0.20909092      0.28181819      0.00000000   1
    0.20909092      0.26363637      0.00000000   1
    0.20909092      0.24545455      0.00000000   1
    0.20909092      0.22727274      0.00000000   1
    0.20909092      0.20909092      0.00000000   1
    0.20909092      0.19090910      0.00000000   1
    0.20909092      0.17272728      0.00000000   1
    0.20909092      0.15454547      0.00000000   1
    0.20909092      0.13636365      0.00000000   1
    0.20909092      0.11818183      0.00000000   1
    0.20909092      0.10000001      0.00000000   1
    0.20909092      0.08181820      0.00000000   1
    0.20909092      0.06363638      0.00000000   1
    0.20909092      0.04545456      0.00000000   1
    0.20909092      0.02727274      0.00000000   1
    0.20909092      0.00909092      0.00000000   1
    0.20909092     -0.00909089      0.00000000   1
    0.20909092     -0.02727271      0.00000000   1
    0.20909092     -0.04545453      0.00000000   1
    0.20909092     -0.06363635      0.00000000   1
    0.20909092     -0.08181816      0.00000000   1
    0.20909092     -0.09999998      0.00000000   1
    0.20909092     -0.11818180      0.00000000   1
    0.20909092     -0.13636362      0.00000000   1
    0.20909092     -0.15454543      0.00000000   1
    0.20909092     -0.17272725      0.00000000   1
    0.20909092     -0.19090907      0.00000000   1
    0.20909092     -0.20909089      0.00000000   1
    0.20909092     -0.22727270      0.00000000   1
    0.20909092     -0.24545452      0.00000000   1
    0.20909092     -0.26363634      0.00000000   1
    0.20909092     -0.28181816      0.00000000   1
    0.20909092     -0.29999997      0.00000000   1
    0.20909092     -0.31818179      0.00000000   1
    0.20909092     -0.33636361      0.00000000   1
    0.20909092     -0.35454543      0.00000000   1
    0.20909092     -0.37272725      0.00000000   1
    0.20909092     -0.39090906      0.00000000   1
    0.20909092     -0.40909088      0.00000000   1
    0.20909092     -0.42727270      0.00000000   1
    0.20909092     -0.44545452      0.00000000   1
    0.20909092     -0.46363633      0.00000000   1
    0.20909092     -0.48181815      0.00000000   1
    0.20909092     -0.49999997      0.00000000   1
    0.19090910      0.50000000      0.00000000   1
    0.19090910      0.48181818      0.00000000   1
    0.19090910      0.46363636      0.00000000   1
    0.19090910      0.44545455      0.00000000   1
    0.19090910      0.42727273      0.00000000   1
    0.19090910      0.40909091      0.00000000   1
    0.19090910      0.39090909      0.00000000   1
    0.19090910      0.37272728      0.00000000   1
    0.19090910      0.35454546      0.00000000   1
    0.19090910      0.33636364      0.00000000   1
    0.19090910      0.31818182      0.00000000   1
    0.19090910      0.30000001      0.00000000   1
    0.19090910      0.28181819      0.00000000   1
    0.19090910      0.26363637      0.00000000   1
    0.19090910      0.24545455      0.00000000   1
    0.19090910      0.22727274      0.00000000   1
    0.19090910      0.20909092      0.00000000   1
    0.19090910      0.19090910      0.00000000   1
    0.19090910      0.17272728      0.00000000   1
    0.19090910      0.15454547      0.00000000   1
    0.19090910      0.13636365      0.00000000   1
    0.19090910      0.11818183      0.00000000   1
    0.19090910      0.10000001      0.00000000   1
    0.19090910      0.08181820      0.00000000   1
    0.19090910      0.06363638      0.00000000   1
    0.19090910      0.04545456      0.00000000   1
    0.19090910      0.02727274      0.00000000   1
    0.19090910      0.00909092      0.00000000   1
    0.19090910     -0.00909089      0.00000000   1
    0.19090910     -0.02727271      0.00000000   1
    0.19090910     -0.04545453      0.00000000   1
    0.19090910     -0.06363635      0.00000000   1
    0.19090910     -0.08181816      0.00000000   1
    0.19090910     -0.09999998      0.00000000   1
    0.19090910     -0.11818180      0.00000000   1
    0.19090910     -0.13636362      0.00000000   1
    0.19090910     -0.15454543      0.00000000   1
    0.19090910     -0.17272725      0.00000000   1
    0.19090910     -0.19090907      0.00000000   1
    0.19090910     -0.20909089      0.00000000   1
    0.19090910     -0.22727270      0.00000000   1
    0.19090910     -0.24545452      0.00000000   1
    0.19090910     -0.26363634      0.00000000   1
    0.19090910     -0.28181816      0.00000000   1
    0.19090910     -0.29999997      0.00000000   1
    0.19090910     -0.31818179      0.00000000   1
    0.19090910     -0.33636361      0.00000000   1
    0.19090910     -0.35454543      0.00000000   1
    0.19090910     -0.37272725      0.00000000   1
    0.19090910     -0.39090906      0.00000000   1
    0.19090910     -0.40909088      0.00000000   1
    0.19090910     -0.42727270      0.00000000   1
    0.19090910     -0.44545452      0.00000000   1
    0.19090910     -0.46363633      0.00000000   1
    0.19090910     -0.48181815      0.00000000   1
    0.19090910     -0.49999997      0.00000000   1
    0.17272728      0.50000000      0.00000000   1
    0.17272728      0.48181818      0.00000000   1
    0.17272728      0.46363636      0.00000000   1
    0.17272728      0.44545455      0.00000000   1
    0.17272728      0.42727273      0.00000000   1
    0.17272728      0.40909091      0.00000000   1
    0.17272728      0.39090909      0.00000000   1
    0.17272728      0.37272728      0.00000000   1
    0.17272728      0.35454546      0.00000000   1
    0.17272728      0.33636364      0.00000000   1
    0.17272728      0.31818182      0.00000000   1
    0.17272728      0.30000001      0.00000000   1
    0.17272728      0.28181819      0.00000000   1
    0.17272728      0.26363637      0.00000000   1
    0.17272728      0.24545455      0.00000000   1
    0.17272728      0.22727274      0.00000000   1
    0.17272728      0.20909092      0.00000000   1
    0.17272728      0.19090910      0.00000000   1
    0.17272728      0.17272728      0.00000000   1
    0.17272728      0.15454547      0.00000000   1
    0.17272728      0.13636365      0.00000000   1
    0.17272728      0.11818183      0.00000000   1
    0.17272728      0.10000001      0.00000000   1
    0.17272728      0.08181820      0.00000000   1
    0.17272728      0.06363638      0.00000000   1
    0.17272728      0.04545456      0.00000000   1
    0.17272728      0.02727274      0.00000000   1
    0.17272728      0.00909092      0.00000000   1
    0.17272728     -0.00909089      0.00000000   1
    0.17272728     -0.02727271      0.00000000   1
    0.17272728     -0.04545453      0.00000000   1
    0.17272728     -0.06363635      0.00000000   1
    0.17272728     -0.08181816      0.00000000   1
    0.17272728     -0.09999998      0.00000000   1
    0.17272728     -0.11818180      0.00000000   1
    0.17272728     -0.13636362      0.00000000   1
    0.17272728     -0.15454543      0.00000000   1
    0.17272728     -0.17272725      0.00000000   1
    0.17272728     -0.19090907      0.00000000   1
    0.17272728     -0.20909089      0.00000000   1
    0.17272728     -0.22727270      0.00000000   1
    0.17272728     -0.24545452      0.00000000   1
    0.17272728     -0.26363634      0.00000000   1
    0.17272728     -0.28181816      0.00000000   1
    0.17272728     -0.29999997      0.00000000   1
    0.17272728     -0.31818179      0.00000000   1
    0.17272728     -0.33636361      0.00000000   1
    0.17272728     -0.35454543      0.00000000   1
    0.17272728     -0.37272725      0.00000000   1
    0.17272728     -0.39090906      0.00000000   1
    0.17272728     -0.40909088      0.00000000   1
    0.17272728     -0.42727270      0.00000000   1
    0.17272728     -0.44545452      0.00000000   1
    0.17272728     -0.46363633      0.00000000   1
    0.17272728     -0.48181815      0.00000000   1
    0.17272728     -0.49999997      0.00000000   1
    0.15454547      0.50000000      0.00000000   1
    0.15454547      0.48181818      0.00000000   1
    0.15454547      0.46363636      0.00000000   1
    0.15454547      0.44545455      0.00000000   1
    0.15454547      0.42727273      0.00000000   1
    0.15454547      0.40909091      0.00000000   1
    0.15454547      0.39090909      0.00000000   1
    0.15454547      0.37272728      0.00000000   1
    0.15454547      0.35454546      0.00000000   1
    0.15454547      0.33636364      0.00000000   1
    0.15454547      0.31818182      0.00000000   1
    0.15454547      0.30000001      0.00000000   1
    0.15454547      0.28181819      0.00000000   1
    0.15454547      0.26363637      0.00000000   1
    0.15454547      0.24545455      0.00000000   1
    0.15454547      0.22727274      0.00000000   1
    0.15454547      0.20909092      0.00000000   1
    0.15454547      0.19090910      0.00000000   1
    0.15454547      0.17272728      0.00000000   1
    0.15454547      0.15454547      0.00000000   1
    0.15454547      0.13636365      0.00000000   1
    0.15454547      0.11818183      0.00000000   1
    0.15454547      0.10000001      0.00000000   1
    0.15454547      0.08181820      0.00000000   1
    0.15454547      0.06363638      0.00000000   1
    0.15454547      0.04545456      0.00000000   1
    0.15454547      0.02727274      0.00000000   1
    0.15454547      0.00909092      0.00000000   1
    0.15454547     -0.00909089      0.00000000   1
    0.15454547     -0.02727271      0.00000000   1
    0.15454547     -0.04545453      0.00000000   1
    0.15454547     -0.06363635      0.00000000   1
    0.15454547     -0.08181816      0.00000000   1
    0.15454547     -0.09999998      0.00000000   1
    0.15454547     -0.11818180      0.00000000   1
    0.15454547     -0.13636362      0.00000000   1
    0.15454547     -0.15454543      0.00000000   1
    0.15454547     -0.17272725      0.00000000   1
    0.15454547     -0.19090907      0.00000000   1
    0.15454547     -0.20909089      0.00000000   1
    0.15454547     -0.22727270      0.00000000   1
    0.15454547     -0.24545452      0.00000000   1
    0.15454547     -0.26363634      0.00000000   1
    0.15454547     -0.28181816      0.00000000   1
    0.15454547     -0.29999997      0.00000000   1
    0.15454547     -0.31818179      0.00000000   1
    0.15454547     -0.33636361      0.00000000   1
    0.15454547     -0.35454543      0.00000000   1
    0.15454547     -0.37272725      0.00000000   1
    0.15454547     -0.39090906      0.00000000   1
    0.15454547     -0.40909088      0.00000000   1
    0.15454547     -0.42727270      0.00000000   1
    0.15454547     -0.44545452      0.00000000   1
    0.15454547     -0.46363633      0.00000000   1
    0.15454547     -0.48181815      0.00000000   1
    0.15454547     -0.49999997      0.00000000   1
    0.13636365      0.50000000      0.00000000   1
    0.13636365      0.48181818      0.00000000   1
    0.13636365      0.46363636      0.00000000   1
    0.13636365      0.44545455      0.00000000   1
    0.13636365      0.42727273      0.00000000   1
    0.13636365      0.40909091      0.00000000   1
    0.13636365      0.39090909      0.00000000   1
    0.13636365      0.37272728      0.00000000   1
    0.13636365      0.35454546      0.00000000   1
    0.13636365      0.33636364      0.00000000   1
    0.13636365      0.31818182      0.00000000   1
    0.13636365      0.30000001      0.00000000   1
    0.13636365      0.28181819      0.00000000   1
    0.13636365      0.26363637      0.00000000   1
    0.13636365      0.24545455      0.00000000   1
    0.13636365      0.22727274      0.00000000   1
    0.13636365      0.20909092      0.00000000   1
    0.13636365      0.19090910      0.00000000   1
    0.13636365      0.17272728      0.00000000   1
    0.13636365      0.15454547      0.00000000   1
    0.13636365      0.13636365      0.00000000   1
    0.13636365      0.11818183      0.00000000   1
    0.13636365      0.10000001      0.00000000   1
    0.13636365      0.08181820      0.00000000   1
    0.13636365      0.06363638      0.00000000   1
    0.13636365      0.04545456      0.00000000   1
    0.13636365      0.02727274      0.00000000   1
    0.13636365      0.00909092      0.00000000   1
    0.13636365     -0.00909089      0.00000000   1
    0.13636365     -0.02727271      0.00000000   1
    0.13636365     -0.04545453      0.00000000   1
    0.13636365     -0.06363635      0.00000000   1
    0.13636365     -0.08181816      0.00000000   1
    0.13636365     -0.09999998      0.00000000   1
    0.13636365     -0.11818180      0.00000000   1
    0.13636365     -0.13636362      0.00000000   1
    0.13636365     -0.15454543      0.00000000   1
    0.13636365     -0.17272725      0.00000000   1
    0.13636365     -0.19090907      0.00000000   1
    0.13636365     -0.20909089      0.00000000   1
    0.13636365     -0.22727270      0.00000000   1
    0.13636365     -0.24545452      0.00000000   1
    0.13636365     -0.26363634      0.00000000   1
    0.13636365     -0.28181816      0.00000000   1
    0.13636365     -0.29999997      0.00000000   1
    0.13636365     -0.31818179      0.00000000   1
    0.13636365     -0.33636361      0.00000000   1
    0.13636365     -0.35454543      0.00000000   1
    0.13636365     -0.37272725      0.00000000   1
    0.13636365     -0.39090906      0.00000000   1
    0.13636365     -0.40909088      0.00000000   1
    0.13636365     -0.42727270      0.00000000   1
    0.13636365     -0.44545452      0.00000000   1
    0.13636365     -0.46363633      0.00000000   1
    0.13636365     -0.48181815      0.00000000   1
    0.13636365     -0.49999997      0.00000000   1
    0.11818183      0.50000000      0.00000000   1
    0.11818183      0.48181818      0.00000000   1
    0.11818183      0.46363636      0.00000000   1
    0.11818183      0.44545455      0.00000000   1
    0.11818183      0.42727273      0.00000000   1
    0.11818183      0.40909091      0.00000000   1
    0.11818183      0.39090909      0.00000000   1
    0.11818183      0.37272728      0.00000000   1
    0.11818183      0.35454546      0.00000000   1
    0.11818183      0.33636364      0.00000000   1
    0.11818183      0.31818182      0.00000000   1
    0.11818183      0.30000001      0.00000000   1
    0.11818183      0.28181819      0.00000000   1
    0.11818183      0.26363637      0.00000000   1
    0.11818183      0.24545455      0.00000000   1
    0.11818183      0.22727274      0.00000000   1
    0.11818183      0.20909092      0.00000000   1
    0.11818183      0.19090910      0.00000000   1
    0.11818183      0.17272728      0.00000000   1
    0.11818183      0.15454547      0.00000000   1
    0.11818183      0.13636365      0.00000000   1
    0.11818183      0.11818183      0.00000000   1
    0.11818183      0.10000001      0.00000000   1
    0.11818183      0.08181820      0.00000000   1
    0.11818183      0.06363638      0.00000000   1
    0.11818183      0.04545456      0.00000000   1
    0.11818183      0.02727274      0.00000000   1
    0.11818183      0.00909092      0.00000000   1
    0.11818183     -0.00909089      0.00000000   1
    0.11818183     -0.02727271      0.00000000   1
    0.11818183     -0.04545453      0.00000000   1
    0.11818183     -0.06363635      0.00000000   1
    0.11818183     -0.08181816      0.00000000   1
    0.11818183     -0.09999998      0.00000000   1
    0.11818183     -0.11818180      0.00000000   1
    0.11818183     -0.13636362      0.00000000   1
    0.11818183     -0.15454543      0.00000000   1
    0.11818183     -0.17272725      0.00000000   1
    0.11818183     -0.19090907      0.00000000   1
    0.11818183     -0.20909089      0.00000000   1
    0.11818183     -0.22727270      0.00000000   1
    0.11818183     -0.24545452      0.00000000   1
    0.11818183     -0.26363634      0.00000000   1
    0.11818183     -0.28181816      0.00000000   1
    0.11818183     -0.29999997      0.00000000   1
    0.11818183     -0.31818179      0.00000000   1
    0.11818183     -0.33636361      0.00000000   1
    0.11818183     -0.35454543      0.00000000   1
    0.11818183     -0.37272725      0.00000000   1
    0.11818183     -0.39090906      0.00000000   1
    0.11818183     -0.40909088      0.00000000   1
    0.11818183     -0.42727270      0.00000000   1
    0.11818183     -0.44545452      0.00000000   1
    0.11818183     -0.46363633      0.00000000   1
    0.11818183     -0.48181815      0.00000000   1
    0.11818183     -0.49999997      0.00000000   1
    0.10000001      0.50000000      0.00000000   1
    0.10000001      0.48181818      0.00000000   1
    0.10000001      0.46363636      0.00000000   1
    0.10000001      0.44545455      0.00000000   1
    0.10000001      0.42727273      0.00000000   1
    0.10000001      0.40909091      0.00000000   1
    0.10000001      0.39090909      0.00000000   1
    0.10000001      0.37272728      0.00000000   1
    0.10000001      0.35454546      0.00000000   1
    0.10000001      0.33636364      0.00000000   1
    0.10000001      0.31818182      0.00000000   1
    0.10000001      0.30000001      0.00000000   1
    0.10000001      0.28181819      0.00000000   1
    0.10000001      0.26363637      0.00000000   1
    0.10000001      0.24545455      0.00000000   1
    0.10000001      0.22727274      0.00000000   1
    0.10000001      0.20909092      0.00000000   1
    0.10000001      0.19090910      0.00000000   1
    0.10000001      0.17272728      0.00000000   1
    0.10000001      0.15454547      0.00000000   1
    0.10000001      0.13636365      0.00000000   1
    0.10000001      0.11818183      0.00000000   1
    0.10000001      0.10000001      0.00000000   1
    0.10000001      0.08181820      0.00000000   1
    0.10000001      0.06363638      0.00000000   1
    0.10000001      0.04545456      0.00000000   1
    0.10000001      0.02727274      0.00000000   1
    0.10000001      0.00909092      0.00000000   1
    0.10000001     -0.00909089      0.00000000   1
    0.10000001     -0.02727271      0.00000000   1
    0.10000001     -0.04545453      0.00000000   1
    0.10000001     -0.06363635      0.00000000   1
    0.10000001     -0.08181816      0.00000000   1
    0.10000001     -0.09999998      0.00000000   1
    0.10000001     -0.11818180      0.00000000   1
    0.10000001     -0.13636362      0.00000000   1
    0.10000001     -0.15454543      0.00000000   1
    0.10000001     -0.17272725      0.00000000   1
    0.10000001     -0.19090907      0.00000000   1
    0.10000001     -0.20909089      0.00000000   1
    0.10000001     -0.22727270      0.00000000   1
    0.10000001     -0.24545452      0.00000000   1
    0.10000001     -0.26363634      0.00000000   1
    0.10000001     -0.28181816      0.00000000   1
    0.10000001     -0.29999997      0.00000000   1
    0.10000001     -0.31818179      0.00000000   1
    0.10000001     -0.33636361      0.00000000   1
    0.10000001     -0.35454543      0.00000000   1
    0.10000001     -0.37272725      0.00000000   1
    0.10000001     -0.39090906      0.00000000   1
    0.10000001     -0.40909088      0.00000000   1
    0.10000001     -0.42727270      0.00000000   1
    0.10000001     -0.44545452      0.00000000   1
    0.10000001     -0.46363633      0.00000000   1
    0.10000001     -0.48181815      0.00000000   1
    0.10000001     -0.49999997      0.00000000   1
    0.08181820      0.50000000      0.00000000   1
    0.08181820      0.48181818      0.00000000   1
    0.08181820      0.46363636      0.00000000   1
    0.08181820      0.44545455      0.00000000   1
    0.08181820      0.42727273      0.00000000   1
    0.08181820      0.40909091      0.00000000   1
    0.08181820      0.39090909      0.00000000   1
    0.08181820      0.37272728      0.00000000   1
    0.08181820      0.35454546      0.00000000   1
    0.08181820      0.33636364      0.00000000   1
    0.08181820      0.31818182      0.00000000   1
    0.08181820      0.30000001      0.00000000   1
    0.08181820      0.28181819      0.00000000   1
    0.08181820      0.26363637      0.00000000   1
    0.08181820      0.24545455      0.00000000   1
    0.08181820      0.22727274      0.00000000   1
    0.08181820      0.20909092      0.00000000   1
    0.08181820      0.19090910      0.00000000   1
    0.08181820      0.17272728      0.00000000   1
    0.08181820      0.15454547      0.00000000   1
    0.08181820      0.13636365      0.00000000   1
    0.08181820      0.11818183      0.00000000   1
    0.08181820      0.10000001      0.00000000   1
    0.08181820      0.08181820      0.00000000   1
    0.08181820      0.06363638      0.00000000   1
    0.08181820      0.04545456      0.00000000   1
    0.08181820      0.02727274      0.00000000   1
    0.08181820      0.00909092      0.00000000   1
    0.08181820     -0.00909089      0.00000000   1
    0.08181820     -0.02727271      0.00000000   1
    0.08181820     -0.04545453      0.00000000   1
    0.08181820     -0.06363635      0.00000000   1
    0.08181820     -0.08181816      0.00000000   1
    0.08181820     -0.09999998      0.00000000   1
    0.08181820     -0.11818180      0.00000000   1
    0.08181820     -0.13636362      0.00000000   1
    0.08181820     -0.15454543      0.00000000   1
    0.08181820     -0.17272725      0.00000000   1
    0.08181820     -0.19090907      0.00000000   1
    0.08181820     -0.20909089      0.00000000   1
    0.08181820     -0.22727270      0.00000000   1
    0.08181820     -0.24545452      0.00000000   1
    0.08181820     -0.26363634      0.00000000   1
    0.08181820     -0.28181816      0.00000000   1
    0.08181820     -0.29999997      0.00000000   1
    0.08181820     -0.31818179      0.00000000   1
    0.08181820     -0.33636361      0.00000000   1
    0.08181820     -0.35454543      0.00000000   1
    0.08181820     -0.37272725      0.00000000   1
    0.08181820     -0.39090906      0.00000000   1
    0.08181820     -0.40909088      0.00000000   1
    0.08181820     -0.42727270      0.00000000   1
    0.08181820     -0.44545452      0.00000000   1
    0.08181820     -0.46363633      0.00000000   1
    0.08181820     -0.48181815      0.00000000   1
    0.08181820     -0.49999997      0.00000000   1
    0.06363638      0.50000000      0.00000000   1
    0.06363638      0.48181818      0.00000000   1
    0.06363638      0.46363636      0.00000000   1
    0.06363638      0.44545455      0.00000000   1
    0.06363638      0.42727273      0.00000000   1
    0.06363638      0.40909091      0.00000000   1
    0.06363638      0.39090909      0.00000000   1
    0.06363638      0.37272728      0.00000000   1
    0.06363638      0.35454546      0.00000000   1
    0.06363638      0.33636364      0.00000000   1
    0.06363638      0.31818182      0.00000000   1
    0.06363638      0.30000001      0.00000000   1
    0.06363638      0.28181819      0.00000000   1
    0.06363638      0.26363637      0.00000000   1
    0.06363638      0.24545455      0.00000000   1
    0.06363638      0.22727274      0.00000000   1
    0.06363638      0.20909092      0.00000000   1
    0.06363638      0.19090910      0.00000000   1
    0.06363638      0.17272728      0.00000000   1
    0.06363638      0.15454547      0.00000000   1
    0.06363638      0.13636365      0.00000000   1
    0.06363638      0.11818183      0.00000000   1
    0.06363638      0.10000001      0.00000000   1
    0.06363638      0.08181820      0.00000000   1
    0.06363638      0.06363638      0.00000000   1
    0.06363638      0.04545456      0.00000000   1
    0.06363638      0.02727274      0.00000000   1
    0.06363638      0.00909092      0.00000000   1
    0.06363638     -0.00909089      0.00000000   1
    0.06363638     -0.02727271      0.00000000   1
    0.06363638     -0.04545453      0.00000000   1
    0.06363638     -0.06363635      0.00000000   1
    0.06363638     -0.08181816      0.00000000   1
    0.06363638     -0.09999998      0.00000000   1
    0.06363638     -0.11818180      0.00000000   1
    0.06363638     -0.13636362      0.00000000   1
    0.06363638     -0.15454543      0.00000000   1
    0.06363638     -0.17272725      0.00000000   1
    0.06363638     -0.19090907      0.00000000   1
    0.06363638     -0.20909089      0.00000000   1
    0.06363638     -0.22727270      0.00000000   1
    0.06363638     -0.24545452      0.00000000   1
    0.06363638     -0.26363634      0.00000000   1
    0.06363638     -0.28181816      0.00000000   1
    0.06363638     -0.29999997      0.00000000   1
    0.06363638     -0.31818179      0.00000000   1
    0.06363638     -0.33636361      0.00000000   1
    0.06363638     -0.35454543      0.00000000   1
    0.06363638     -0.37272725      0.00000000   1
    0.06363638     -0.39090906      0.00000000   1
    0.06363638     -0.40909088      0.00000000   1
    0.06363638     -0.42727270      0.00000000   1
    0.06363638     -0.44545452      0.00000000   1
    0.06363638     -0.46363633      0.00000000   1
    0.06363638     -0.48181815      0.00000000   1
    0.06363638     -0.49999997      0.00000000   1
    0.04545456      0.50000000      0.00000000   1
    0.04545456      0.48181818      0.00000000   1
    0.04545456      0.46363636      0.00000000   1
    0.04545456      0.44545455      0.00000000   1
    0.04545456      0.42727273      0.00000000   1
    0.04545456      0.40909091      0.00000000   1
    0.04545456      0.39090909      0.00000000   1
    0.04545456      0.37272728      0.00000000   1
    0.04545456      0.35454546      0.00000000   1
    0.04545456      0.33636364      0.00000000   1
    0.04545456      0.31818182      0.00000000   1
    0.04545456      0.30000001      0.00000000   1
    0.04545456      0.28181819      0.00000000   1
    0.04545456      0.26363637      0.00000000   1
    0.04545456      0.24545455      0.00000000   1
    0.04545456      0.22727274      0.00000000   1
    0.04545456      0.20909092      0.00000000   1
    0.04545456      0.19090910      0.00000000   1
    0.04545456      0.17272728      0.00000000   1
    0.04545456      0.15454547      0.00000000   1
    0.04545456      0.13636365      0.00000000   1
    0.04545456      0.11818183      0.00000000   1
    0.04545456      0.10000001      0.00000000   1
    0.04545456      0.08181820      0.00000000   1
    0.04545456      0.06363638      0.00000000   1
    0.04545456      0.04545456      0.00000000   1
    0.04545456      0.02727274      0.00000000   1
    0.04545456      0.00909092      0.00000000   1
    0.04545456     -0.00909089      0.00000000   1
    0.04545456     -0.02727271      0.00000000   1
    0.04545456     -0.04545453      0.00000000   1
    0.04545456     -0.06363635      0.00000000   1
    0.04545456     -0.08181816      0.00000000   1
    0.04545456     -0.09999998      0.00000000   1
    0.04545456     -0.11818180      0.00000000   1
    0.04545456     -0.13636362      0.00000000   1
    0.04545456     -0.15454543      0.00000000   1
    0.04545456     -0.17272725      0.00000000   1
    0.04545456     -0.19090907      0.00000000   1
    0.04545456     -0.20909089      0.00000000   1
    0.04545456     -0.22727270      0.00000000   1
    0.04545456     -0.24545452      0.00000000   1
    0.04545456     -0.26363634      0.00000000   1
    0.04545456     -0.28181816      0.00000000   1
    0.04545456     -0.29999997      0.00000000   1
    0.04545456     -0.31818179      0.00000000   1
    0.04545456     -0.33636361      0.00000000   1
    0.04545456     -0.35454543      0.00000000   1
    0.04545456     -0.37272725      0.00000000   1
    0.04545456     -0.39090906      0.00000000   1
    0.04545456     -0.40909088      0.00000000   1
    0.04545456     -0.42727270      0.00000000   1
    0.04545456     -0.44545452      0.00000000   1
    0.04545456     -0.46363633      0.00000000   1
    0.04545456     -0.48181815      0.00000000   1
    0.04545456     -0.49999997      0.00000000   1
    0.02727274      0.50000000      0.00000000   1
    0.02727274      0.48181818      0.00000000   1
    0.02727274      0.46363636      0.00000000   1
    0.02727274      0.44545455      0.00000000   1
    0.02727274      0.42727273      0.00000000   1
    0.02727274      0.40909091      0.00000000   1
    0.02727274      0.39090909      0.00000000   1
    0.02727274      0.37272728      0.00000000   1
    0.02727274      0.35454546      0.00000000   1
    0.02727274      0.33636364      0.00000000   1
    0.02727274      0.31818182      0.00000000   1
    0.02727274      0.30000001      0.00000000   1
    0.02727274      0.28181819      0.00000000   1
    0.02727274      0.26363637      0.00000000   1
    0.02727274      0.24545455      0.00000000   1
    0.02727274      0.22727274      0.00000000   1
    0.02727274      0.20909092      0.00000000   1
    0.02727274      0.19090910      0.00000000   1
    0.02727274      0.17272728      0.00000000   1
    0.02727274      0.15454547      0.00000000   1
    0.02727274      0.13636365      0.00000000   1
    0.02727274      0.11818183      0.00000000   1
    0.02727274      0.10000001      0.00000000   1
    0.02727274      0.08181820      0.00000000   1
    0.02727274      0.06363638      0.00000000   1
    0.02727274      0.04545456      0.00000000   1
    0.02727274      0.02727274      0.00000000   1
    0.02727274      0.00909092      0.00000000   1
    0.02727274     -0.00909089      0.00000000   1
    0.02727274     -0.02727271      0.00000000   1
    0.02727274     -0.04545453      0.00000000   1
    0.02727274     -0.06363635      0.00000000   1
    0.02727274     -0.08181816      0.00000000   1
    0.02727274     -0.09999998      0.00000000   1
    0.02727274     -0.11818180      0.00000000   1
    0.02727274     -0.13636362      0.00000000   1
    0.02727274     -0.15454543      0.00000000   1
    0.02727274     -0.17272725      0.00000000   1
    0.02727274     -0.19090907      0.00000000   1
    0.02727274     -0.20909089      0.00000000   1
    0.02727274     -0.22727270      0.00000000   1
    0.02727274     -0.24545452      0.00000000   1
    0.02727274     -0.26363634      0.00000000   1
    0.02727274     -0.28181816      0.00000000   1
    0.02727274     -0.29999997      0.00000000   1
    0.02727274     -0.31818179      0.00000000   1
    0.02727274     -0.33636361      0.00000000   1
    0.02727274     -0.35454543      0.00000000   1
    0.02727274     -0.37272725      0.00000000   1
    0.02727274     -0.39090906      0.00000000   1
    0.02727274     -0.40909088      0.00000000   1
    0.02727274     -0.42727270      0.00000000   1
    0.02727274     -0.44545452      0.00000000   1
    0.02727274     -0.46363633      0.00000000   1
    0.02727274     -0.48181815      0.00000000   1
    0.02727274     -0.49999997      0.00000000   1
    0.00909092      0.50000000      0.00000000   1
    0.00909092      0.48181818      0.00000000   1
    0.00909092      0.46363636      0.00000000   1
    0.00909092      0.44545455      0.00000000   1
    0.00909092      0.42727273      0.00000000   1
    0.00909092      0.40909091      0.00000000   1
    0.00909092      0.39090909      0.00000000   1
    0.00909092      0.37272728      0.00000000   1
    0.00909092      0.35454546      0.00000000   1
    0.00909092      0.33636364      0.00000000   1
    0.00909092      0.31818182      0.00000000   1
    0.00909092      0.30000001      0.00000000   1
    0.00909092      0.28181819      0.00000000   1
    0.00909092      0.26363637      0.00000000   1
    0.00909092      0.24545455      0.00000000   1
    0.00909092      0.22727274      0.00000000   1
    0.00909092      0.20909092      0.00000000   1
    0.00909092      0.19090910      0.00000000   1
    0.00909092      0.17272728      0.00000000   1
    0.00909092      0.15454547      0.00000000   1
    0.00909092      0.13636365      0.00000000   1
    0.00909092      0.11818183      0.00000000   1
    0.00909092      0.10000001      0.00000000   1
    0.00909092      0.08181820      0.00000000   1
    0.00909092      0.06363638      0.00000000   1
    0.00909092      0.04545456      0.00000000   1
    0.00909092      0.02727274      0.00000000   1
    0.00909092      0.00909092      0.00000000   1
    0.00909092     -0.00909089      0.00000000   1
    0.00909092     -0.02727271      0.00000000   1
    0.00909092     -0.04545453      0.00000000   1
    0.00909092     -0.06363635      0.00000000   1
    0.00909092     -0.08181816      0.00000000   1
    0.00909092     -0.09999998      0.00000000   1
    0.00909092     -0.11818180      0.00000000   1
    0.00909092     -0.13636362      0.00000000   1
    0.00909092     -0.15454543      0.00000000   1
    0.00909092     -0.17272725      0.00000000   1
    0.00909092     -0.19090907      0.00000000   1
    0.00909092     -0.20909089      0.00000000   1
    0.00909092     -0.22727270      0.00000000   1
    0.00909092     -0.24545452      0.00000000   1
    0.00909092     -0.26363634      0.00000000   1
    0.00909092     -0.28181816      0.00000000   1
    0.00909092     -0.29999997      0.00000000   1
    0.00909092     -0.31818179      0.00000000   1
    0.00909092     -0.33636361      0.00000000   1
    0.00909092     -0.35454543      0.00000000   1
    0.00909092     -0.37272725      0.00000000   1
    0.00909092     -0.39090906      0.00000000   1
    0.00909092     -0.40909088      0.00000000   1
    0.00909092     -0.42727270      0.00000000   1
    0.00909092     -0.44545452      0.00000000   1
    0.00909092     -0.46363633      0.00000000   1
    0.00909092     -0.48181815      0.00000000   1
    0.00909092     -0.49999997      0.00000000   1
   -0.00909089      0.50000000      0.00000000   1
   -0.00909089      0.48181818      0.00000000   1
   -0.00909089      0.46363636      0.00000000   1
   -0.00909089      0.44545455      0.00000000   1
   -0.00909089      0.42727273      0.00000000   1
   -0.00909089      0.40909091      0.00000000   1
   -0.00909089      0.39090909      0.00000000   1
   -0.00909089      0.37272728      0.00000000   1
   -0.00909089      0.35454546      0.00000000   1
   -0.00909089      0.33636364      0.00000000   1
   -0.00909089      0.31818182      0.00000000   1
   -0.00909089      0.30000001      0.00000000   1
   -0.00909089      0.28181819      0.00000000   1
   -0.00909089      0.26363637      0.00000000   1
   -0.00909089      0.24545455      0.00000000   1
   -0.00909089      0.22727274      0.00000000   1
   -0.00909089      0.20909092      0.00000000   1
   -0.00909089      0.19090910      0.00000000   1
   -0.00909089      0.17272728      0.00000000   1
   -0.00909089      0.15454547      0.00000000   1
   -0.00909089      0.13636365      0.00000000   1
   -0.00909089      0.11818183      0.00000000   1
   -0.00909089      0.10000001      0.00000000   1
   -0.00909089      0.08181820      0.00000000   1
   -0.00909089      0.06363638      0.00000000   1
   -0.00909089      0.04545456      0.00000000   1
   -0.00909089      0.02727274      0.00000000   1
   -0.00909089      0.00909092      0.00000000   1
   -0.00909089     -0.00909089      0.00000000   1
   -0.00909089     -0.02727271      0.00000000   1
   -0.00909089     -0.04545453      0.00000000   1
   -0.00909089     -0.06363635      0.00000000   1
   -0.00909089     -0.08181816      0.00000000   1
   -0.00909089     -0.09999998      0.00000000   1
   -0.00909089     -0.11818180      0.00000000   1
   -0.00909089     -0.13636362      0.00000000   1
   -0.00909089     -0.15454543      0.00000000   1
   -0.00909089     -0.17272725      0.00000000   1
   -0.00909089     -0.19090907      0.00000000   1
   -0.00909089     -0.20909089      0.00000000   1
   -0.00909089     -0.22727270      0.00000000   1
   -0.00909089     -0.24545452      0.00000000   1
   -0.00909089     -0.26363634      0.00000000   1
   -0.00909089     -0.28181816      0.00000000   1
   -0.00909089     -0.29999997      0.00000000   1
   -0.00909089     -0.31818179      0.00000000   1
   -0.00909089     -0.33636361      0.00000000   1
   -0.00909089     -0.35454543      0.00000000   1
   -0.00909089     -0.37272725      0.00000000   1
   -0.00909089     -0.39090906      0.00000000   1
   -0.00909089     -0.40909088      0.00000000   1
   -0.00909089     -0.42727270      0.00000000   1
   -0.00909089     -0.44545452      0.00000000   1
   -0.00909089     -0.46363633      0.00000000   1
   -0.00909089     -0.48181815      0.00000000   1
   -0.00909089     -0.49999997      0.00000000   1
   -0.02727271      0.50000000      0.00000000   1
   -0.02727271      0.48181818      0.00000000   1
   -0.02727271      0.46363636      0.00000000   1
   -0.02727271      0.44545455      0.00000000   1
   -0.02727271      0.42727273      0.00000000   1
   -0.02727271      0.40909091      0.00000000   1
   -0.02727271      0.39090909      0.00000000   1
   -0.02727271      0.37272728      0.00000000   1
   -0.02727271      0.35454546      0.00000000   1
   -0.02727271      0.33636364      0.00000000   1
   -0.02727271      0.31818182      0.00000000   1
   -0.02727271      0.30000001      0.00000000   1
   -0.02727271      0.28181819      0.00000000   1
   -0.02727271      0.26363637      0.00000000   1
   -0.02727271      0.24545455      0.00000000   1
   -0.02727271      0.22727274      0.00000000   1
   -0.02727271      0.20909092      0.00000000   1
   -0.02727271      0.19090910      0.00000000   1
   -0.02727271      0.17272728      0.00000000   1
   -0.02727271      0.15454547      0.00000000   1
   -0.02727271      0.13636365      0.00000000   1
   -0.02727271      0.11818183      0.00000000   1
   -0.02727271      0.10000001      0.00000000   1
   -0.02727271      0.08181820      0.00000000   1
   -0.02727271      0.06363638      0.00000000   1
   -0.02727271      0.04545456      0.00000000   1
   -0.02727271      0.02727274      0.00000000   1
   -0.02727271      0.00909092      0.00000000   1
   -0.02727271     -0.00909089      0.00000000   1
   -0.02727271     -0.02727271      0.00000000   1
   -0.02727271     -0.04545453      0.00000000   1
   -0.02727271     -0.06363635      0.00000000   1
   -0.02727271     -0.08181816      0.00000000   1
   -0.02727271     -0.09999998      0.00000000   1
   -0.02727271     -0.11818180      0.00000000   1
   -0.02727271     -0.13636362      0.00000000   1
   -0.02727271     -0.15454543      0.00000000   1
   -0.02727271     -0.17272725      0.00000000   1
   -0.02727271     -0.19090907      0.00000000   1
   -0.02727271     -0.20909089      0.00000000   1
   -0.02727271     -0.22727270      0.00000000   1
   -0.02727271     -0.24545452      0.00000000   1
   -0.02727271     -0.26363634      0.00000000   1
   -0.02727271     -0.28181816      0.00000000   1
   -0.02727271     -0.29999997      0.00000000   1
   -0.02727271     -0.31818179      0.00000000   1
   -0.02727271     -0.33636361      0.00000000   1
   -0.02727271     -0.35454543      0.00000000   1
   -0.02727271     -0.37272725      0.00000000   1
   -0.02727271     -0.39090906      0.00000000   1
   -0.02727271     -0.40909088      0.00000000   1
   -0.02727271     -0.42727270      0.00000000   1
   -0.02727271     -0.44545452      0.00000000   1
   -0.02727271     -0.46363633      0.00000000   1
   -0.02727271     -0.48181815      0.00000000   1
   -0.02727271     -0.49999997      0.00000000   1
   -0.04545453      0.50000000      0.00000000   1
   -0.04545453      0.48181818      0.00000000   1
   -0.04545453      0.46363636      0.00000000   1
   -0.04545453      0.44545455      0.00000000   1
   -0.04545453      0.42727273      0.00000000   1
   -0.04545453      0.40909091      0.00000000   1
   -0.04545453      0.39090909      0.00000000   1
   -0.04545453      0.37272728      0.00000000   1
   -0.04545453      0.35454546      0.00000000   1
   -0.04545453      0.33636364      0.00000000   1
   -0.04545453      0.31818182      0.00000000   1
   -0.04545453      0.30000001      0.00000000   1
   -0.04545453      0.28181819      0.00000000   1
   -0.04545453      0.26363637      0.00000000   1
   -0.04545453      0.24545455      0.00000000   1
   -0.04545453      0.22727274      0.00000000   1
   -0.04545453      0.20909092      0.00000000   1
   -0.04545453      0.19090910      0.00000000   1
   -0.04545453      0.17272728      0.00000000   1
   -0.04545453      0.15454547      0.00000000   1
   -0.04545453      0.13636365      0.00000000   1
   -0.04545453      0.11818183      0.00000000   1
   -0.04545453      0.10000001      0.00000000   1
   -0.04545453      0.08181820      0.00000000   1
   -0.04545453      0.06363638      0.00000000   1
   -0.04545453      0.04545456      0.00000000   1
   -0.04545453      0.02727274      0.00000000   1
   -0.04545453      0.00909092      0.00000000   1
   -0.04545453     -0.00909089      0.00000000   1
   -0.04545453     -0.02727271      0.00000000   1
   -0.04545453     -0.04545453      0.00000000   1
   -0.04545453     -0.06363635      0.00000000   1
   -0.04545453     -0.08181816      0.00000000   1
   -0.04545453     -0.09999998      0.00000000   1
   -0.04545453     -0.11818180      0.00000000   1
   -0.04545453     -0.13636362      0.00000000   1
   -0.04545453     -0.15454543      0.00000000   1
   -0.04545453     -0.17272725      0.00000000   1
   -0.04545453     -0.19090907      0.00000000   1
   -0.04545453     -0.20909089      0.00000000   1
   -0.04545453     -0.22727270      0.00000000   1
   -0.04545453     -0.24545452      0.00000000   1
   -0.04545453     -0.26363634      0.00000000   1
   -0.04545453     -0.28181816      0.00000000   1
   -0.04545453     -0.29999997      0.00000000   1
   -0.04545453     -0.31818179      0.00000000   1
   -0.04545453     -0.33636361      0.00000000   1
   -0.04545453     -0.35454543      0.00000000   1
   -0.04545453     -0.37272725      0.00000000   1
   -0.04545453     -0.39090906      0.00000000   1
   -0.04545453     -0.40909088      0.00000000   1
   -0.04545453     -0.42727270      0.00000000   1
   -0.04545453     -0.44545452      0.00000000   1
   -0.04545453     -0.46363633      0.00000000   1
   -0.04545453     -0.48181815      0.00000000   1
   -0.04545453     -0.49999997      0.00000000   1
   -0.06363635      0.50000000      0.00000000   1
   -0.06363635      0.48181818      0.00000000   1
   -0.06363635      0.46363636      0.00000000   1
   -0.06363635      0.44545455      0.00000000   1
   -0.06363635      0.42727273      0.00000000   1
   -0.06363635      0.40909091      0.00000000   1
   -0.06363635      0.39090909      0.00000000   1
   -0.06363635      0.37272728      0.00000000   1
   -0.06363635      0.35454546      0.00000000   1
   -0.06363635      0.33636364      0.00000000   1
   -0.06363635      0.31818182      0.00000000   1
   -0.06363635      0.30000001      0.00000000   1
   -0.06363635      0.28181819      0.00000000   1
   -0.06363635      0.26363637      0.00000000   1
   -0.06363635      0.24545455      0.00000000   1
   -0.06363635      0.22727274      0.00000000   1
   -0.06363635      0.20909092      0.00000000   1
   -0.06363635      0.19090910      0.00000000   1
   -0.06363635      0.17272728      0.00000000   1
   -0.06363635      0.15454547      0.00000000   1
   -0.06363635      0.13636365      0.00000000   1
   -0.06363635      0.11818183      0.00000000   1
   -0.06363635      0.10000001      0.00000000   1
   -0.06363635      0.08181820      0.00000000   1
   -0.06363635      0.06363638      0.00000000   1
   -0.06363635      0.04545456      0.00000000   1
   -0.06363635      0.02727274      0.00000000   1
   -0.06363635      0.00909092      0.00000000   1
   -0.06363635     -0.00909089      0.00000000   1
   -0.06363635     -0.02727271      0.00000000   1
   -0.06363635     -0.04545453      0.00000000   1
   -0.06363635     -0.06363635      0.00000000   1
   -0.06363635     -0.08181816      0.00000000   1
   -0.06363635     -0.09999998      0.00000000   1
   -0.06363635     -0.11818180      0.00000000   1
   -0.06363635     -0.13636362      0.00000000   1
   -0.06363635     -0.15454543      0.00000000   1
   -0.06363635     -0.17272725      0.00000000   1
   -0.06363635     -0.19090907      0.00000000   1
   -0.06363635     -0.20909089      0.00000000   1
   -0.06363635     -0.22727270      0.00000000   1
   -0.06363635     -0.24545452      0.00000000   1
   -0.06363635     -0.26363634      0.00000000   1
   -0.06363635     -0.28181816      0.00000000   1
   -0.06363635     -0.29999997      0.00000000   1
   -0.06363635     -0.31818179      0.00000000   1
   -0.06363635     -0.33636361      0.00000000   1
   -0.06363635     -0.35454543      0.00000000   1
   -0.06363635     -0.37272725      0.00000000   1
   -0.06363635     -0.39090906      0.00000000   1
   -0.06363635     -0.40909088      0.00000000   1
   -0.06363635     -0.42727270      0.00000000   1
   -0.06363635     -0.44545452      0.00000000   1
   -0.06363635     -0.46363633      0.00000000   1
   -0.06363635     -0.48181815      0.00000000   1
   -0.06363635     -0.49999997      0.00000000   1
   -0.08181816      0.50000000      0.00000000   1
   -0.08181816      0.48181818      0.00000000   1
   -0.08181816      0.46363636      0.00000000   1
   -0.08181816      0.44545455      0.00000000   1
   -0.08181816      0.42727273      0.00000000   1
   -0.08181816      0.40909091      0.00000000   1
   -0.08181816      0.39090909      0.00000000   1
   -0.08181816      0.37272728      0.00000000   1
   -0.08181816      0.35454546      0.00000000   1
   -0.08181816      0.33636364      0.00000000   1
   -0.08181816      0.31818182      0.00000000   1
   -0.08181816      0.30000001      0.00000000   1
   -0.08181816      0.28181819      0.00000000   1
   -0.08181816      0.26363637      0.00000000   1
   -0.08181816      0.24545455      0.00000000   1
   -0.08181816      0.22727274      0.00000000   1
   -0.08181816      0.20909092      0.00000000   1
   -0.08181816      0.19090910      0.00000000   1
   -0.08181816      0.17272728      0.00000000   1
   -0.08181816      0.15454547      0.00000000   1
   -0.08181816      0.13636365      0.00000000   1
   -0.08181816      0.11818183      0.00000000   1
   -0.08181816      0.10000001      0.00000000   1
   -0.08181816      0.08181820      0.00000000   1
   -0.08181816      0.06363638      0.00000000   1
   -0.08181816      0.04545456      0.00000000   1
   -0.08181816      0.02727274      0.00000000   1
   -0.08181816      0.00909092      0.00000000   1
   -0.08181816     -0.00909089      0.00000000   1
   -0.08181816     -0.02727271      0.00000000   1
   -0.08181816     -0.04545453      0.00000000   1
   -0.08181816     -0.06363635      0.00000000   1
   -0.08181816     -0.08181816      0.00000000   1
   -0.08181816     -0.09999998      0.00000000   1
   -0.08181816     -0.11818180      0.00000000   1
   -0.08181816     -0.13636362      0.00000000   1
   -0.08181816     -0.15454543      0.00000000   1
   -0.08181816     -0.17272725      0.00000000   1
   -0.08181816     -0.19090907      0.00000000   1
   -0.08181816     -0.20909089      0.00000000   1
   -0.08181816     -0.22727270      0.00000000   1
   -0.08181816     -0.24545452      0.00000000   1
   -0.08181816     -0.26363634      0.00000000   1
   -0.08181816     -0.28181816      0.00000000   1
   -0.08181816     -0.29999997      0.00000000   1
   -0.08181816     -0.31818179      0.00000000   1
   -0.08181816     -0.33636361      0.00000000   1
   -0.08181816     -0.35454543      0.00000000   1
   -0.08181816     -0.37272725      0.00000000   1
   -0.08181816     -0.39090906      0.00000000   1
   -0.08181816     -0.40909088      0.00000000   1
   -0.08181816     -0.42727270      0.00000000   1
   -0.08181816     -0.44545452      0.00000000   1
   -0.08181816     -0.46363633      0.00000000   1
   -0.08181816     -0.48181815      0.00000000   1
   -0.08181816     -0.49999997      0.00000000   1
   -0.09999998      0.50000000      0.00000000   1
   -0.09999998      0.48181818      0.00000000   1
   -0.09999998      0.46363636      0.00000000   1
   -0.09999998      0.44545455      0.00000000   1
   -0.09999998      0.42727273      0.00000000   1
   -0.09999998      0.40909091      0.00000000   1
   -0.09999998      0.39090909      0.00000000   1
   -0.09999998      0.37272728      0.00000000   1
   -0.09999998      0.35454546      0.00000000   1
   -0.09999998      0.33636364      0.00000000   1
   -0.09999998      0.31818182      0.00000000   1
   -0.09999998      0.30000001      0.00000000   1
   -0.09999998      0.28181819      0.00000000   1
   -0.09999998      0.26363637      0.00000000   1
   -0.09999998      0.24545455      0.00000000   1
   -0.09999998      0.22727274      0.00000000   1
   -0.09999998      0.20909092      0.00000000   1
   -0.09999998      0.19090910      0.00000000   1
   -0.09999998      0.17272728      0.00000000   1
   -0.09999998      0.15454547      0.00000000   1
   -0.09999998      0.13636365      0.00000000   1
   -0.09999998      0.11818183      0.00000000   1
   -0.09999998      0.10000001      0.00000000   1
   -0.09999998      0.08181820      0.00000000   1
   -0.09999998      0.06363638      0.00000000   1
   -0.09999998      0.04545456      0.00000000   1
   -0.09999998      0.02727274      0.00000000   1
   -0.09999998      0.00909092      0.00000000   1
   -0.09999998     -0.00909089      0.00000000   1
   -0.09999998     -0.02727271      0.00000000   1
   -0.09999998     -0.04545453      0.00000000   1
   -0.09999998     -0.06363635      0.00000000   1
   -0.09999998     -0.08181816      0.00000000   1
   -0.09999998     -0.09999998      0.00000000   1
   -0.09999998     -0.11818180      0.00000000   1
   -0.09999998     -0.13636362      0.00000000   1
   -0.09999998     -0.15454543      0.00000000   1
   -0.09999998     -0.17272725      0.00000000   1
   -0.09999998     -0.19090907      0.00000000   1
   -0.09999998     -0.20909089      0.00000000   1
   -0.09999998     -0.22727270      0.00000000   1
   -0.09999998     -0.24545452      0.00000000   1
   -0.09999998     -0.26363634      0.00000000   1
   -0.09999998     -0.28181816      0.00000000   1
   -0.09999998     -0.29999997      0.00000000   1
   -0.09999998     -0.31818179      0.00000000   1
   -0.09999998     -0.33636361      0.00000000   1
   -0.09999998     -0.35454543      0.00000000   1
   -0.09999998     -0.37272725      0.00000000   1
   -0.09999998     -0.39090906      0.00000000   1
   -0.09999998     -0.40909088      0.00000000   1
   -0.09999998     -0.42727270      0.00000000   1
   -0.09999998     -0.44545452      0.00000000   1
   -0.09999998     -0.46363633      0.00000000   1
   -0.09999998     -0.48181815      0.00000000   1
   -0.09999998     -0.49999997      0.00000000   1
   -0.11818180      0.50000000      0.00000000   1
   -0.11818180      0.48181818      0.00000000   1
   -0.11818180      0.46363636      0.00000000   1
   -0.11818180      0.44545455      0.00000000   1
   -0.11818180      0.42727273      0.00000000   1
   -0.11818180      0.40909091      0.00000000   1
   -0.11818180      0.39090909      0.00000000   1
   -0.11818180      0.37272728      0.00000000   1
   -0.11818180      0.35454546      0.00000000   1
   -0.11818180      0.33636364      0.00000000   1
   -0.11818180      0.31818182      0.00000000   1
   -0.11818180      0.30000001      0.00000000   1
   -0.11818180      0.28181819      0.00000000   1
   -0.11818180      0.26363637      0.00000000   1
   -0.11818180      0.24545455      0.00000000   1
   -0.11818180      0.22727274      0.00000000   1
   -0.11818180      0.20909092      0.00000000   1
   -0.11818180      0.19090910      0.00000000   1
   -0.11818180      0.17272728      0.00000000   1
   -0.11818180      0.15454547      0.00000000   1
   -0.11818180      0.13636365      0.00000000   1
   -0.11818180      0.11818183      0.00000000   1
   -0.11818180      0.10000001      0.00000000   1
   -0.11818180      0.08181820      0.00000000   1
   -0.11818180      0.06363638      0.00000000   1
   -0.11818180      0.04545456      0.00000000   1
   -0.11818180      0.02727274      0.00000000   1
   -0.11818180      0.00909092      0.00000000   1
   -0.11818180     -0.00909089      0.00000000   1
   -0.11818180     -0.02727271      0.00000000   1
   -0.11818180     -0.04545453      0.00000000   1
   -0.11818180     -0.06363635      0.00000000   1
   -0.11818180     -0.08181816      0.00000000   1
   -0.11818180     -0.09999998      0.00000000   1
   -0.11818180     -0.11818180      0.00000000   1
   -0.11818180     -0.13636362      0.00000000   1
   -0.11818180     -0.15454543      0.00000000   1
   -0.11818180     -0.17272725      0.00000000   1
   -0.11818180     -0.19090907      0.00000000   1
   -0.11818180     -0.20909089      0.00000000   1
   -0.11818180     -0.22727270      0.00000000   1
   -0.11818180     -0.24545452      0.00000000   1
   -0.11818180     -0.26363634      0.00000000   1
   -0.11818180     -0.28181816      0.00000000   1
   -0.11818180     -0.29999997      0.00000000   1
   -0.11818180     -0.31818179      0.00000000   1
   -0.11818180     -0.33636361      0.00000000   1
   -0.11818180     -0.35454543      0.00000000   1
   -0.11818180     -0.37272725      0.00000000   1
   -0.11818180     -0.39090906      0.00000000   1
   -0.11818180     -0.40909088      0.00000000   1
   -0.11818180     -0.42727270      0.00000000   1
   -0.11818180     -0.44545452      0.00000000   1
   -0.11818180     -0.46363633      0.00000000   1
   -0.11818180     -0.48181815      0.00000000   1
   -0.11818180     -0.49999997      0.00000000   1
   -0.13636362      0.50000000      0.00000000   1
   -0.13636362      0.48181818      0.00000000   1
   -0.13636362      0.46363636      0.00000000   1
   -0.13636362      0.44545455      0.00000000   1
   -0.13636362      0.42727273      0.00000000   1
   -0.13636362      0.40909091      0.00000000   1
   -0.13636362      0.39090909      0.00000000   1
   -0.13636362      0.37272728      0.00000000   1
   -0.13636362      0.35454546      0.00000000   1
   -0.13636362      0.33636364      0.00000000   1
   -0.13636362      0.31818182      0.00000000   1
   -0.13636362      0.30000001      0.00000000   1
   -0.13636362      0.28181819      0.00000000   1
   -0.13636362      0.26363637      0.00000000   1
   -0.13636362      0.24545455      0.00000000   1
   -0.13636362      0.22727274      0.00000000   1
   -0.13636362      0.20909092      0.00000000   1
   -0.13636362      0.19090910      0.00000000   1
   -0.13636362      0.17272728      0.00000000   1
   -0.13636362      0.15454547      0.00000000   1
   -0.13636362      0.13636365      0.00000000   1
   -0.13636362      0.11818183      0.00000000   1
   -0.13636362      0.10000001      0.00000000   1
   -0.13636362      0.08181820      0.00000000   1
   -0.13636362      0.06363638      0.00000000   1
   -0.13636362      0.04545456      0.00000000   1
   -0.13636362      0.02727274      0.00000000   1
   -0.13636362      0.00909092      0.00000000   1
   -0.13636362     -0.00909089      0.00000000   1
   -0.13636362     -0.02727271      0.00000000   1
   -0.13636362     -0.04545453      0.00000000   1
   -0.13636362     -0.06363635      0.00000000   1
   -0.13636362     -0.08181816      0.00000000   1
   -0.13636362     -0.09999998      0.00000000   1
   -0.13636362     -0.11818180      0.00000000   1
   -0.13636362     -0.13636362      0.00000000   1
   -0.13636362     -0.15454543      0.00000000   1
   -0.13636362     -0.17272725      0.00000000   1
   -0.13636362     -0.19090907      0.00000000   1
   -0.13636362     -0.20909089      0.00000000   1
   -0.13636362     -0.22727270      0.00000000   1
   -0.13636362     -0.24545452      0.00000000   1
   -0.13636362     -0.26363634      0.00000000   1
   -0.13636362     -0.28181816      0.00000000   1
   -0.13636362     -0.29999997      0.00000000   1
   -0.13636362     -0.31818179      0.00000000   1
   -0.13636362     -0.33636361      0.00000000   1
   -0.13636362     -0.35454543      0.00000000   1
   -0.13636362     -0.37272725      0.00000000   1
   -0.13636362     -0.39090906      0.00000000   1
   -0.13636362     -0.40909088      0.00000000   1
   -0.13636362     -0.42727270      0.00000000   1
   -0.13636362     -0.44545452      0.00000000   1
   -0.13636362     -0.46363633      0.00000000   1
   -0.13636362     -0.48181815      0.00000000   1
   -0.13636362     -0.49999997      0.00000000   1
   -0.15454543      0.50000000      0.00000000   1
   -0.15454543      0.48181818      0.00000000   1
   -0.15454543      0.46363636      0.00000000   1
   -0.15454543      0.44545455      0.00000000   1
   -0.15454543      0.42727273      0.00000000   1
   -0.15454543      0.40909091      0.00000000   1
   -0.15454543      0.39090909      0.00000000   1
   -0.15454543      0.37272728      0.00000000   1
   -0.15454543      0.35454546      0.00000000   1
   -0.15454543      0.33636364      0.00000000   1
   -0.15454543      0.31818182      0.00000000   1
   -0.15454543      0.30000001      0.00000000   1
   -0.15454543      0.28181819      0.00000000   1
   -0.15454543      0.26363637      0.00000000   1
   -0.15454543      0.24545455      0.00000000   1
   -0.15454543      0.22727274      0.00000000   1
   -0.15454543      0.20909092      0.00000000   1
   -0.15454543      0.19090910      0.00000000   1
   -0.15454543      0.17272728      0.00000000   1
   -0.15454543      0.15454547      0.00000000   1
   -0.15454543      0.13636365      0.00000000   1
   -0.15454543      0.11818183      0.00000000   1
   -0.15454543      0.10000001      0.00000000   1
   -0.15454543      0.08181820      0.00000000   1
   -0.15454543      0.06363638      0.00000000   1
   -0.15454543      0.04545456      0.00000000   1
   -0.15454543      0.02727274      0.00000000   1
   -0.15454543      0.00909092      0.00000000   1
   -0.15454543     -0.00909089      0.00000000   1
   -0.15454543     -0.02727271      0.00000000   1
   -0.15454543     -0.04545453      0.00000000   1
   -0.15454543     -0.06363635      0.00000000   1
   -0.15454543     -0.08181816      0.00000000   1
   -0.15454543     -0.09999998      0.00000000   1
   -0.15454543     -0.11818180      0.00000000   1
   -0.15454543     -0.13636362      0.00000000   1
   -0.15454543     -0.15454543      0.00000000   1
   -0.15454543     -0.17272725      0.00000000   1
   -0.15454543     -0.19090907      0.00000000   1
   -0.15454543     -0.20909089      0.00000000   1
   -0.15454543     -0.22727270      0.00000000   1
   -0.15454543     -0.24545452      0.00000000   1
   -0.15454543     -0.26363634      0.00000000   1
   -0.15454543     -0.28181816      0.00000000   1
   -0.15454543     -0.29999997      0.00000000   1
   -0.15454543     -0.31818179      0.00000000   1
   -0.15454543     -0.33636361      0.00000000   1
   -0.15454543     -0.35454543      0.00000000   1
   -0.15454543     -0.37272725      0.00000000   1
   -0.15454543     -0.39090906      0.00000000   1
   -0.15454543     -0.40909088      0.00000000   1
   -0.15454543     -0.42727270      0.00000000   1
   -0.15454543     -0.44545452      0.00000000   1
   -0.15454543     -0.46363633      0.00000000   1
   -0.15454543     -0.48181815      0.00000000   1
   -0.15454543     -0.49999997      0.00000000   1
   -0.17272725      0.50000000      0.00000000   1
   -0.17272725      0.48181818      0.00000000   1
   -0.17272725      0.46363636      0.00000000   1
   -0.17272725      0.44545455      0.00000000   1
   -0.17272725      0.42727273      0.00000000   1
   -0.17272725      0.40909091      0.00000000   1
   -0.17272725      0.39090909      0.00000000   1
   -0.17272725      0.37272728      0.00000000   1
   -0.17272725      0.35454546      0.00000000   1
   -0.17272725      0.33636364      0.00000000   1
   -0.17272725      0.31818182      0.00000000   1
   -0.17272725      0.30000001      0.00000000   1
   -0.17272725      0.28181819      0.00000000   1
   -0.17272725      0.26363637      0.00000000   1
   -0.17272725      0.24545455      0.00000000   1
   -0.17272725      0.22727274      0.00000000   1
   -0.17272725      0.20909092      0.00000000   1
   -0.17272725      0.19090910      0.00000000   1
   -0.17272725      0.17272728      0.00000000   1
   -0.17272725      0.15454547      0.00000000   1
   -0.17272725      0.13636365      0.00000000   1
   -0.17272725      0.11818183      0.00000000   1
   -0.17272725      0.10000001      0.00000000   1
   -0.17272725      0.08181820      0.00000000   1
   -0.17272725      0.06363638      0.00000000   1
   -0.17272725      0.04545456      0.00000000   1
   -0.17272725      0.02727274      0.00000000   1
   -0.17272725      0.00909092      0.00000000   1
   -0.17272725     -0.00909089      0.00000000   1
   -0.17272725     -0.02727271      0.00000000   1
   -0.17272725     -0.04545453      0.00000000   1
   -0.17272725     -0.06363635      0.00000000   1
   -0.17272725     -0.08181816      0.00000000   1
   -0.17272725     -0.09999998      0.00000000   1
   -0.17272725     -0.11818180      0.00000000   1
   -0.17272725     -0.13636362      0.00000000   1
   -0.17272725     -0.15454543      0.00000000   1
   -0.17272725     -0.17272725      0.00000000   1
   -0.17272725     -0.19090907      0.00000000   1
   -0.17272725     -0.20909089      0.00000000   1
   -0.17272725     -0.22727270      0.00000000   1
   -0.17272725     -0.24545452      0.00000000   1
   -0.17272725     -0.26363634      0.00000000   1
   -0.17272725     -0.28181816      0.00000000   1
   -0.17272725     -0.29999997      0.00000000   1
   -0.17272725     -0.31818179      0.00000000   1
   -0.17272725     -0.33636361      0.00000000   1
   -0.17272725     -0.35454543      0.00000000   1
   -0.17272725     -0.37272725      0.00000000   1
   -0.17272725     -0.39090906      0.00000000   1
   -0.17272725     -0.40909088      0.00000000   1
   -0.17272725     -0.42727270      0.00000000   1
   -0.17272725     -0.44545452      0.00000000   1
   -0.17272725     -0.46363633      0.00000000   1
   -0.17272725     -0.48181815      0.00000000   1
   -0.17272725     -0.49999997      0.00000000   1
   -0.19090907      0.50000000      0.00000000   1
   -0.19090907      0.48181818      0.00000000   1
   -0.19090907      0.46363636      0.00000000   1
   -0.19090907      0.44545455      0.00000000   1
   -0.19090907      0.42727273      0.00000000   1
   -0.19090907      0.40909091      0.00000000   1
   -0.19090907      0.39090909      0.00000000   1
   -0.19090907      0.37272728      0.00000000   1
   -0.19090907      0.35454546      0.00000000   1
   -0.19090907      0.33636364      0.00000000   1
   -0.19090907      0.31818182      0.00000000   1
   -0.19090907      0.30000001      0.00000000   1
   -0.19090907      0.28181819      0.00000000   1
   -0.19090907      0.26363637      0.00000000   1
   -0.19090907      0.24545455      0.00000000   1
   -0.19090907      0.22727274      0.00000000   1
   -0.19090907      0.20909092      0.00000000   1
   -0.19090907      0.19090910      0.00000000   1
   -0.19090907      0.17272728      0.00000000   1
   -0.19090907      0.15454547      0.00000000   1
   -0.19090907      0.13636365      0.00000000   1
   -0.19090907      0.11818183      0.00000000   1
   -0.19090907      0.10000001      0.00000000   1
   -0.19090907      0.08181820      0.00000000   1
   -0.19090907      0.06363638      0.00000000   1
   -0.19090907      0.04545456      0.00000000   1
   -0.19090907      0.02727274      0.00000000   1
   -0.19090907      0.00909092      0.00000000   1
   -0.19090907     -0.00909089      0.00000000   1
   -0.19090907     -0.02727271      0.00000000   1
   -0.19090907     -0.04545453      0.00000000   1
   -0.19090907     -0.06363635      0.00000000   1
   -0.19090907     -0.08181816      0.00000000   1
   -0.19090907     -0.09999998      0.00000000   1
   -0.19090907     -0.11818180      0.00000000   1
   -0.19090907     -0.13636362      0.00000000   1
   -0.19090907     -0.15454543      0.00000000   1
   -0.19090907     -0.17272725      0.00000000   1
   -0.19090907     -0.19090907      0.00000000   1
   -0.19090907     -0.20909089      0.00000000   1
   -0.19090907     -0.22727270      0.00000000   1
   -0.19090907     -0.24545452      0.00000000   1
   -0.19090907     -0.26363634      0.00000000   1
   -0.19090907     -0.28181816      0.00000000   1
   -0.19090907     -0.29999997      0.00000000   1
   -0.19090907     -0.31818179      0.00000000   1
   -0.19090907     -0.33636361      0.00000000   1
   -0.19090907     -0.35454543      0.00000000   1
   -0.19090907     -0.37272725      0.00000000   1
   -0.19090907     -0.39090906      0.00000000   1
   -0.19090907     -0.40909088      0.00000000   1
   -0.19090907     -0.42727270      0.00000000   1
   -0.19090907     -0.44545452      0.00000000   1
   -0.19090907     -0.46363633      0.00000000   1
   -0.19090907     -0.48181815      0.00000000   1
   -0.19090907     -0.49999997      0.00000000   1
   -0.20909089      0.50000000      0.00000000   1
   -0.20909089      0.48181818      0.00000000   1
   -0.20909089      0.46363636      0.00000000   1
   -0.20909089      0.44545455      0.00000000   1
   -0.20909089      0.42727273      0.00000000   1
   -0.20909089      0.40909091      0.00000000   1
   -0.20909089      0.39090909      0.00000000   1
   -0.20909089      0.37272728      0.00000000   1
   -0.20909089      0.35454546      0.00000000   1
   -0.20909089      0.33636364      0.00000000   1
   -0.20909089      0.31818182      0.00000000   1
   -0.20909089      0.30000001      0.00000000   1
   -0.20909089      0.28181819      0.00000000   1
   -0.20909089      0.26363637      0.00000000   1
   -0.20909089      0.24545455      0.00000000   1
   -0.20909089      0.22727274      0.00000000   1
   -0.20909089      0.20909092      0.00000000   1
   -0.20909089      0.19090910      0.00000000   1
   -0.20909089      0.17272728      0.00000000   1
   -0.20909089      0.15454547      0.00000000   1
   -0.20909089      0.13636365      0.00000000   1
   -0.20909089      0.11818183      0.00000000   1
   -0.20909089      0.10000001      0.00000000   1
   -0.20909089      0.08181820      0.00000000   1
   -0.20909089      0.06363638      0.00000000   1
   -0.20909089      0.04545456      0.00000000   1
   -0.20909089      0.02727274      0.00000000   1
   -0.20909089      0.00909092      0.00000000   1
   -0.20909089     -0.00909089      0.00000000   1
   -0.20909089     -0.02727271      0.00000000   1
   -0.20909089     -0.04545453      0.00000000   1
   -0.20909089     -0.06363635      0.00000000   1
   -0.20909089     -0.08181816      0.00000000   1
   -0.20909089     -0.09999998      0.00000000   1
   -0.20909089     -0.11818180      0.00000000   1
   -0.20909089     -0.13636362      0.00000000   1
   -0.20909089     -0.15454543      0.00000000   1
   -0.20909089     -0.17272725      0.00000000   1
   -0.20909089     -0.19090907      0.00000000   1
   -0.20909089     -0.20909089      0.00000000   1
   -0.20909089     -0.22727270      0.00000000   1
   -0.20909089     -0.24545452      0.00000000   1
   -0.20909089     -0.26363634      0.00000000   1
   -0.20909089     -0.28181816      0.00000000   1
   -0.20909089     -0.29999997      0.00000000   1
   -0.20909089     -0.31818179      0.00000000   1
   -0.20909089     -0.33636361      0.00000000   1
   -0.20909089     -0.35454543      0.00000000   1
   -0.20909089     -0.37272725      0.00000000   1
   -0.20909089     -0.39090906      0.00000000   1
   -0.20909089     -0.40909088      0.00000000   1
   -0.20909089     -0.42727270      0.00000000   1
   -0.20909089     -0.44545452      0.00000000   1
   -0.20909089     -0.46363633      0.00000000   1
   -0.20909089     -0.48181815      0.00000000   1
   -0.20909089     -0.49999997      0.00000000   1
   -0.22727270      0.50000000      0.00000000   1
   -0.22727270      0.48181818      0.00000000   1
   -0.22727270      0.46363636      0.00000000   1
   -0.22727270      0.44545455      0.00000000   1
   -0.22727270      0.42727273      0.00000000   1
   -0.22727270      0.40909091      0.00000000   1
   -0.22727270      0.39090909      0.00000000   1
   -0.22727270      0.37272728      0.00000000   1
   -0.22727270      0.35454546      0.00000000   1
   -0.22727270      0.33636364      0.00000000   1
   -0.22727270      0.31818182      0.00000000   1
   -0.22727270      0.30000001      0.00000000   1
   -0.22727270      0.28181819      0.00000000   1
   -0.22727270      0.26363637      0.00000000   1
   -0.22727270      0.24545455      0.00000000   1
   -0.22727270      0.22727274      0.00000000   1
   -0.22727270      0.20909092      0.00000000   1
   -0.22727270      0.19090910      0.00000000   1
   -0.22727270      0.17272728      0.00000000   1
   -0.22727270      0.15454547      0.00000000   1
   -0.22727270      0.13636365      0.00000000   1
   -0.22727270      0.11818183      0.00000000   1
   -0.22727270      0.10000001      0.00000000   1
   -0.22727270      0.08181820      0.00000000   1
   -0.22727270      0.06363638      0.00000000   1
   -0.22727270      0.04545456      0.00000000   1
   -0.22727270      0.02727274      0.00000000   1
   -0.22727270      0.00909092      0.00000000   1
   -0.22727270     -0.00909089      0.00000000   1
   -0.22727270     -0.02727271      0.00000000   1
   -0.22727270     -0.04545453      0.00000000   1
   -0.22727270     -0.06363635      0.00000000   1
   -0.22727270     -0.08181816      0.00000000   1
   -0.22727270     -0.09999998      0.00000000   1
   -0.22727270     -0.11818180      0.00000000   1
   -0.22727270     -0.13636362      0.00000000   1
   -0.22727270     -0.15454543      0.00000000   1
   -0.22727270     -0.17272725      0.00000000   1
   -0.22727270     -0.19090907      0.00000000   1
   -0.22727270     -0.20909089      0.00000000   1
   -0.22727270     -0.22727270      0.00000000   1
   -0.22727270     -0.24545452      0.00000000   1
   -0.22727270     -0.26363634      0.00000000   1
   -0.22727270     -0.28181816      0.00000000   1
   -0.22727270     -0.29999997      0.00000000   1
   -0.22727270     -0.31818179      0.00000000   1
   -0.22727270     -0.33636361      0.00000000   1
   -0.22727270     -0.35454543      0.00000000   1
   -0.22727270     -0.37272725      0.00000000   1
   -0.22727270     -0.39090906      0.00000000   1
   -0.22727270     -0.40909088      0.00000000   1
   -0.22727270     -0.42727270      0.00000000   1
   -0.22727270     -0.44545452      0.00000000   1
   -0.22727270     -0.46363633      0.00000000   1
   -0.22727270     -0.48181815      0.00000000   1
   -0.22727270     -0.49999997      0.00000000   1
   -0.24545452      0.50000000      0.00000000   1
   -0.24545452      0.48181818      0.00000000   1
   -0.24545452      0.46363636      0.00000000   1
   -0.24545452      0.44545455      0.00000000   1
   -0.24545452      0.42727273      0.00000000   1
   -0.24545452      0.40909091      0.00000000   1
   -0.24545452      0.39090909      0.00000000   1
   -0.24545452      0.37272728      0.00000000   1
   -0.24545452      0.35454546      0.00000000   1
   -0.24545452      0.33636364      0.00000000   1
   -0.24545452      0.31818182      0.00000000   1
   -0.24545452      0.30000001      0.00000000   1
   -0.24545452      0.28181819      0.00000000   1
   -0.24545452      0.26363637      0.00000000   1
   -0.24545452      0.24545455      0.00000000   1
   -0.24545452      0.22727274      0.00000000   1
   -0.24545452      0.20909092      0.00000000   1
   -0.24545452      0.19090910      0.00000000   1
   -0.24545452      0.17272728      0.00000000   1
   -0.24545452      0.15454547      0.00000000   1
   -0.24545452      0.13636365      0.00000000   1
   -0.24545452      0.11818183      0.00000000   1
   -0.24545452      0.10000001      0.00000000   1
   -0.24545452      0.08181820      0.00000000   1
   -0.24545452      0.06363638      0.00000000   1
   -0.24545452      0.04545456      0.00000000   1
   -0.24545452      0.02727274      0.00000000   1
   -0.24545452      0.00909092      0.00000000   1
   -0.24545452     -0.00909089      0.00000000   1
   -0.24545452     -0.02727271      0.00000000   1
   -0.24545452     -0.04545453      0.00000000   1
   -0.24545452     -0.06363635      0.00000000   1
   -0.24545452     -0.08181816      0.00000000   1
   -0.24545452     -0.09999998      0.00000000   1
   -0.24545452     -0.11818180      0.00000000   1
   -0.24545452     -0.13636362      0.00000000   1
   -0.24545452     -0.15454543      0.00000000   1
   -0.24545452     -0.17272725      0.00000000   1
   -0.24545452     -0.19090907      0.00000000   1
   -0.24545452     -0.20909089      0.00000000   1
   -0.24545452     -0.22727270      0.00000000   1
   -0.24545452     -0.24545452      0.00000000   1
   -0.24545452     -0.26363634      0.00000000   1
   -0.24545452     -0.28181816      0.00000000   1
   -0.24545452     -0.29999997      0.00000000   1
   -0.24545452     -0.31818179      0.00000000   1
   -0.24545452     -0.33636361      0.00000000   1
   -0.24545452     -0.35454543      0.00000000   1
   -0.24545452     -0.37272725      0.00000000   1
   -0.24545452     -0.39090906      0.00000000   1
   -0.24545452     -0.40909088      0.00000000   1
   -0.24545452     -0.42727270      0.00000000   1
   -0.24545452     -0.44545452      0.00000000   1
   -0.24545452     -0.46363633      0.00000000   1
   -0.24545452     -0.48181815      0.00000000   1
   -0.24545452     -0.49999997      0.00000000   1
   -0.26363634      0.50000000      0.00000000   1
   -0.26363634      0.48181818      0.00000000   1
   -0.26363634      0.46363636      0.00000000   1
   -0.26363634      0.44545455      0.00000000   1
   -0.26363634      0.42727273      0.00000000   1
   -0.26363634      0.40909091      0.00000000   1
   -0.26363634      0.39090909      0.00000000   1
   -0.26363634      0.37272728      0.00000000   1
   -0.26363634      0.35454546      0.00000000   1
   -0.26363634      0.33636364      0.00000000   1
   -0.26363634      0.31818182      0.00000000   1
   -0.26363634      0.30000001      0.00000000   1
   -0.26363634      0.28181819      0.00000000   1
   -0.26363634      0.26363637      0.00000000   1
   -0.26363634      0.24545455      0.00000000   1
   -0.26363634      0.22727274      0.00000000   1
   -0.26363634      0.20909092      0.00000000   1
   -0.26363634      0.19090910      0.00000000   1
   -0.26363634      0.17272728      0.00000000   1
   -0.26363634      0.15454547      0.00000000   1
   -0.26363634      0.13636365      0.00000000   1
   -0.26363634      0.11818183      0.00000000   1
   -0.26363634      0.10000001      0.00000000   1
   -0.26363634      0.08181820      0.00000000   1
   -0.26363634      0.06363638      0.00000000   1
   -0.26363634      0.04545456      0.00000000   1
   -0.26363634      0.02727274      0.00000000   1
   -0.26363634      0.00909092      0.00000000   1
   -0.26363634     -0.00909089      0.00000000   1
   -0.26363634     -0.02727271      0.00000000   1
   -0.26363634     -0.04545453      0.00000000   1
   -0.26363634     -0.06363635      0.00000000   1
   -0.26363634     -0.08181816      0.00000000   1
   -0.26363634     -0.09999998      0.00000000   1
   -0.26363634     -0.11818180      0.00000000   1
   -0.26363634     -0.13636362      0.00000000   1
   -0.26363634     -0.15454543      0.00000000   1
   -0.26363634     -0.17272725      0.00000000   1
   -0.26363634     -0.19090907      0.00000000   1
   -0.26363634     -0.20909089      0.00000000   1
   -0.26363634     -0.22727270      0.00000000   1
   -0.26363634     -0.24545452      0.00000000   1
   -0.26363634     -0.26363634      0.00000000   1
   -0.26363634     -0.28181816      0.00000000   1
   -0.26363634     -0.29999997      0.00000000   1
   -0.26363634     -0.31818179      0.00000000   1
   -0.26363634     -0.33636361      0.00000000   1
   -0.26363634     -0.35454543      0.00000000   1
   -0.26363634     -0.37272725      0.00000000   1
   -0.26363634     -0.39090906      0.00000000   1
   -0.26363634     -0.40909088      0.00000000   1
   -0.26363634     -0.42727270      0.00000000   1
   -0.26363634     -0.44545452      0.00000000   1
   -0.26363634     -0.46363633      0.00000000   1
   -0.26363634     -0.48181815      0.00000000   1
   -0.26363634     -0.49999997      0.00000000   1
   -0.28181816      0.50000000      0.00000000   1
   -0.28181816      0.48181818      0.00000000   1
   -0.28181816      0.46363636      0.00000000   1
   -0.28181816      0.44545455      0.00000000   1
   -0.28181816      0.42727273      0.00000000   1
   -0.28181816      0.40909091      0.00000000   1
   -0.28181816      0.39090909      0.00000000   1
   -0.28181816      0.37272728      0.00000000   1
   -0.28181816      0.35454546      0.00000000   1
   -0.28181816      0.33636364      0.00000000   1
   -0.28181816      0.31818182      0.00000000   1
   -0.28181816      0.30000001      0.00000000   1
   -0.28181816      0.28181819      0.00000000   1
   -0.28181816      0.26363637      0.00000000   1
   -0.28181816      0.24545455      0.00000000   1
   -0.28181816      0.22727274      0.00000000   1
   -0.28181816      0.20909092      0.00000000   1
   -0.28181816      0.19090910      0.00000000   1
   -0.28181816      0.17272728      0.00000000   1
   -0.28181816      0.15454547      0.00000000   1
   -0.28181816      0.13636365      0.00000000   1
   -0.28181816      0.11818183      0.00000000   1
   -0.28181816      0.10000001      0.00000000   1
   -0.28181816      0.08181820      0.00000000   1
   -0.28181816      0.06363638      0.00000000   1
   -0.28181816      0.04545456      0.00000000   1
   -0.28181816      0.02727274      0.00000000   1
   -0.28181816      0.00909092      0.00000000   1
   -0.28181816     -0.00909089      0.00000000   1
   -0.28181816     -0.02727271      0.00000000   1
   -0.28181816     -0.04545453      0.00000000   1
   -0.28181816     -0.06363635      0.00000000   1
   -0.28181816     -0.08181816      0.00000000   1
   -0.28181816     -0.09999998      0.00000000   1
   -0.28181816     -0.11818180      0.00000000   1
   -0.28181816     -0.13636362      0.00000000   1
   -0.28181816     -0.15454543      0.00000000   1
   -0.28181816     -0.17272725      0.00000000   1
   -0.28181816     -0.19090907      0.00000000   1
   -0.28181816     -0.20909089      0.00000000   1
   -0.28181816     -0.22727270      0.00000000   1
   -0.28181816     -0.24545452      0.00000000   1
   -0.28181816     -0.26363634      0.00000000   1
   -0.28181816     -0.28181816      0.00000000   1
   -0.28181816     -0.29999997      0.00000000   1
   -0.28181816     -0.31818179      0.00000000   1
   -0.28181816     -0.33636361      0.00000000   1
   -0.28181816     -0.35454543      0.00000000   1
   -0.28181816     -0.37272725      0.00000000   1
   -0.28181816     -0.39090906      0.00000000   1
   -0.28181816     -0.40909088      0.00000000   1
   -0.28181816     -0.42727270      0.00000000   1
   -0.28181816     -0.44545452      0.00000000   1
   -0.28181816     -0.46363633      0.00000000   1
   -0.28181816     -0.48181815      0.00000000   1
   -0.28181816     -0.49999997      0.00000000   1
   -0.29999997      0.50000000      0.00000000   1
   -0.29999997      0.48181818      0.00000000   1
   -0.29999997      0.46363636      0.00000000   1
   -0.29999997      0.44545455      0.00000000   1
   -0.29999997      0.42727273      0.00000000   1
   -0.29999997      0.40909091      0.00000000   1
   -0.29999997      0.39090909      0.00000000   1
   -0.29999997      0.37272728      0.00000000   1
   -0.29999997      0.35454546      0.00000000   1
   -0.29999997      0.33636364      0.00000000   1
   -0.29999997      0.31818182      0.00000000   1
   -0.29999997      0.30000001      0.00000000   1
   -0.29999997      0.28181819      0.00000000   1
   -0.29999997      0.26363637      0.00000000   1
   -0.29999997      0.24545455      0.00000000   1
   -0.29999997      0.22727274      0.00000000   1
   -0.29999997      0.20909092      0.00000000   1
   -0.29999997      0.19090910      0.00000000   1
   -0.29999997      0.17272728      0.00000000   1
   -0.29999997      0.15454547      0.00000000   1
   -0.29999997      0.13636365      0.00000000   1
   -0.29999997      0.11818183      0.00000000   1
   -0.29999997      0.10000001      0.00000000   1
   -0.29999997      0.08181820      0.00000000   1
   -0.29999997      0.06363638      0.00000000   1
   -0.29999997      0.04545456      0.00000000   1
   -0.29999997      0.02727274      0.00000000   1
   -0.29999997      0.00909092      0.00000000   1
   -0.29999997     -0.00909089      0.00000000   1
   -0.29999997     -0.02727271      0.00000000   1
   -0.29999997     -0.04545453      0.00000000   1
   -0.29999997     -0.06363635      0.00000000   1
   -0.29999997     -0.08181816      0.00000000   1
   -0.29999997     -0.09999998      0.00000000   1
   -0.29999997     -0.11818180      0.00000000   1
   -0.29999997     -0.13636362      0.00000000   1
   -0.29999997     -0.15454543      0.00000000   1
   -0.29999997     -0.17272725      0.00000000   1
   -0.29999997     -0.19090907      0.00000000   1
   -0.29999997     -0.20909089      0.00000000   1
   -0.29999997     -0.22727270      0.00000000   1
   -0.29999997     -0.24545452      0.00000000   1
   -0.29999997     -0.26363634      0.00000000   1
   -0.29999997     -0.28181816      0.00000000   1
   -0.29999997     -0.29999997      0.00000000   1
   -0.29999997     -0.31818179      0.00000000   1
   -0.29999997     -0.33636361      0.00000000   1
   -0.29999997     -0.35454543      0.00000000   1
   -0.29999997     -0.37272725      0.00000000   1
   -0.29999997     -0.39090906      0.00000000   1
   -0.29999997     -0.40909088      0.00000000   1
   -0.29999997     -0.42727270      0.00000000   1
   -0.29999997     -0.44545452      0.00000000   1
   -0.29999997     -0.46363633      0.00000000   1
   -0.29999997     -0.48181815      0.00000000   1
   -0.29999997     -0.49999997      0.00000000   1
   -0.31818179      0.50000000      0.00000000   1
   -0.31818179      0.48181818      0.00000000   1
   -0.31818179      0.46363636      0.00000000   1
   -0.31818179      0.44545455      0.00000000   1
   -0.31818179      0.42727273      0.00000000   1
   -0.31818179      0.40909091      0.00000000   1
   -0.31818179      0.39090909      0.00000000   1
   -0.31818179      0.37272728      0.00000000   1
   -0.31818179      0.35454546      0.00000000   1
   -0.31818179      0.33636364      0.00000000   1
   -0.31818179      0.31818182      0.00000000   1
   -0.31818179      0.30000001      0.00000000   1
   -0.31818179      0.28181819      0.00000000   1
   -0.31818179      0.26363637      0.00000000   1
   -0.31818179      0.24545455      0.00000000   1
   -0.31818179      0.22727274      0.00000000   1
   -0.31818179      0.20909092      0.00000000   1
   -0.31818179      0.19090910      0.00000000   1
   -0.31818179      0.17272728      0.00000000   1
   -0.31818179      0.15454547      0.00000000   1
   -0.31818179      0.13636365      0.00000000   1
   -0.31818179      0.11818183      0.00000000   1
   -0.31818179      0.10000001      0.00000000   1
   -0.31818179      0.08181820      0.00000000   1
   -0.31818179      0.06363638      0.00000000   1
   -0.31818179      0.04545456      0.00000000   1
   -0.31818179      0.02727274      0.00000000   1
   -0.31818179      0.00909092      0.00000000   1
   -0.31818179     -0.00909089      0.00000000   1
   -0.31818179     -0.02727271      0.00000000   1
   -0.31818179     -0.04545453      0.00000000   1
   -0.31818179     -0.06363635      0.00000000   1
   -0.31818179     -0.08181816      0.00000000   1
   -0.31818179     -0.09999998      0.00000000   1
   -0.31818179     -0.11818180      0.00000000   1
   -0.31818179     -0.13636362      0.00000000   1
   -0.31818179     -0.15454543      0.00000000   1
   -0.31818179     -0.17272725      0.00000000   1
   -0.31818179     -0.19090907      0.00000000   1
   -0.31818179     -0.20909089      0.00000000   1
   -0.31818179     -0.22727270      0.00000000   1
   -0.31818179     -0.24545452      0.00000000   1
   -0.31818179     -0.26363634      0.00000000   1
   -0.31818179     -0.28181816      0.00000000   1
   -0.31818179     -0.29999997      0.00000000   1
   -0.31818179     -0.31818179      0.00000000   1
   -0.31818179     -0.33636361      0.00000000   1
   -0.31818179     -0.35454543      0.00000000   1
   -0.31818179     -0.37272725      0.00000000   1
   -0.31818179     -0.39090906      0.00000000   1
   -0.31818179     -0.40909088      0.00000000   1
   -0.31818179     -0.42727270      0.00000000   1
   -0.31818179     -0.44545452      0.00000000   1
   -0.31818179     -0.46363633      0.00000000   1
   -0.31818179     -0.48181815      0.00000000   1
   -0.31818179     -0.49999997      0.00000000   1
   -0.33636361      0.50000000      0.00000000   1
   -0.33636361      0.48181818      0.00000000   1
   -0.33636361      0.46363636      0.00000000   1
   -0.33636361      0.44545455      0.00000000   1
   -0.33636361      0.42727273      0.00000000   1
   -0.33636361      0.40909091      0.00000000   1
   -0.33636361      0.39090909      0.00000000   1
   -0.33636361      0.37272728      0.00000000   1
   -0.33636361      0.35454546      0.00000000   1
   -0.33636361      0.33636364      0.00000000   1
   -0.33636361      0.31818182      0.00000000   1
   -0.33636361      0.30000001      0.00000000   1
   -0.33636361      0.28181819      0.00000000   1
   -0.33636361      0.26363637      0.00000000   1
   -0.33636361      0.24545455      0.00000000   1
   -0.33636361      0.22727274      0.00000000   1
   -0.33636361      0.20909092      0.00000000   1
   -0.33636361      0.19090910      0.00000000   1
   -0.33636361      0.17272728      0.00000000   1
   -0.33636361      0.15454547      0.00000000   1
   -0.33636361      0.13636365      0.00000000   1
   -0.33636361      0.11818183      0.00000000   1
   -0.33636361      0.10000001      0.00000000   1
   -0.33636361      0.08181820      0.00000000   1
   -0.33636361      0.06363638      0.00000000   1
   -0.33636361      0.04545456      0.00000000   1
   -0.33636361      0.02727274      0.00000000   1
   -0.33333333      0.00000000      0.00000000   1
   -0.33333333     -0.00000000      0.00000000   1
   -0.33636361     -0.02727271      0.00000000   1
   -0.33636361     -0.04545453      0.00000000   1
   -0.33636361     -0.06363635      0.00000000   1
   -0.33636361     -0.08181816      0.00000000   1
   -0.33636361     -0.09999998      0.00000000   1
   -0.33636361     -0.11818180      0.00000000   1
   -0.33636361     -0.13636362      0.00000000   1
   -0.33636361     -0.15454543      0.00000000   1
   -0.33636361     -0.17272725      0.00000000   1
   -0.33636361     -0.19090907      0.00000000   1
   -0.33636361     -0.20909089      0.00000000   1
   -0.33636361     -0.22727270      0.00000000   1
   -0.33636361     -0.24545452      0.00000000   1
   -0.33636361     -0.26363634      0.00000000   1
   -0.33636361     -0.28181816      0.00000000   1
   -0.33636361     -0.29999997      0.00000000   1
   -0.33636361     -0.31818179      0.00000000   1
   -0.33636361     -0.33636361      0.00000000   1
   -0.33636361     -0.35454543      0.00000000   1
   -0.33636361     -0.37272725      0.00000000   1
   -0.33636361     -0.39090906      0.00000000   1
   -0.33636361     -0.40909088      0.00000000   1
   -0.33636361     -0.42727270      0.00000000   1
   -0.33636361     -0.44545452      0.00000000   1
   -0.33636361     -0.46363633      0.00000000   1
   -0.33636361     -0.48181815      0.00000000   1
   -0.33636361     -0.49999997      0.00000000   1
   -0.35454543      0.50000000      0.00000000   1
   -0.35454543      0.48181818      0.00000000   1
   -0.35454543      0.46363636      0.00000000   1
   -0.35454543      0.44545455      0.00000000   1
   -0.35454543      0.42727273      0.00000000   1
   -0.35454543      0.40909091      0.00000000   1
   -0.35454543      0.39090909      0.00000000   1
   -0.35454543      0.37272728      0.00000000   1
   -0.35454543      0.35454546      0.00000000   1
   -0.35454543      0.33636364      0.00000000   1
   -0.35454543      0.31818182      0.00000000   1
   -0.35454543      0.30000001      0.00000000   1
   -0.35454543      0.28181819      0.00000000   1
   -0.35454543      0.26363637      0.00000000   1
   -0.35454543      0.24545455      0.00000000   1
   -0.35454543      0.22727274      0.00000000   1
   -0.35454543      0.20909092      0.00000000   1
   -0.35454543      0.19090910      0.00000000   1
   -0.35454543      0.17272728      0.00000000   1
   -0.35454543      0.15454547      0.00000000   1
   -0.35454543      0.13636365      0.00000000   1
   -0.35454543      0.11818183      0.00000000   1
   -0.35454543      0.10000001      0.00000000   1
   -0.35454543      0.08181820      0.00000000   1
   -0.35454543      0.06363638      0.00000000   1
   -0.35454543      0.04545456      0.00000000   1
   -0.35454543      0.02727274      0.00000000   1
   -0.35454543      0.00909092      0.00000000   1
   -0.35454543     -0.00909089      0.00000000   1
   -0.35454543     -0.02727271      0.00000000   1
   -0.35454543     -0.04545453      0.00000000   1
   -0.35454543     -0.06363635      0.00000000   1
   -0.35454543     -0.08181816      0.00000000   1
   -0.35454543     -0.09999998      0.00000000   1
   -0.35454543     -0.11818180      0.00000000   1
   -0.35454543     -0.13636362      0.00000000   1
   -0.35454543     -0.15454543      0.00000000   1
   -0.35454543     -0.17272725      0.00000000   1
   -0.35454543     -0.19090907      0.00000000   1
   -0.35454543     -0.20909089      0.00000000   1
   -0.35454543     -0.22727270      0.00000000   1
   -0.35454543     -0.24545452      0.00000000   1
   -0.35454543     -0.26363634      0.00000000   1
   -0.35454543     -0.28181816      0.00000000   1
   -0.35454543     -0.29999997      0.00000000   1
   -0.35454543     -0.31818179      0.00000000   1
   -0.35454543     -0.33636361      0.00000000   1
   -0.35454543     -0.35454543      0.00000000   1
   -0.35454543     -0.37272725      0.00000000   1
   -0.35454543     -0.39090906      0.00000000   1
   -0.35454543     -0.40909088      0.00000000   1
   -0.35454543     -0.42727270      0.00000000   1
   -0.35454543     -0.44545452      0.00000000   1
   -0.35454543     -0.46363633      0.00000000   1
   -0.35454543     -0.48181815      0.00000000   1
   -0.35454543     -0.49999997      0.00000000   1
   -0.37272725      0.50000000      0.00000000   1
   -0.37272725      0.48181818      0.00000000   1
   -0.37272725      0.46363636      0.00000000   1
   -0.37272725      0.44545455      0.00000000   1
   -0.37272725      0.42727273      0.00000000   1
   -0.37272725      0.40909091      0.00000000   1
   -0.37272725      0.39090909      0.00000000   1
   -0.37272725      0.37272728      0.00000000   1
   -0.37272725      0.35454546      0.00000000   1
   -0.37272725      0.33636364      0.00000000   1
   -0.37272725      0.31818182      0.00000000   1
   -0.37272725      0.30000001      0.00000000   1
   -0.37272725      0.28181819      0.00000000   1
   -0.37272725      0.26363637      0.00000000   1
   -0.37272725      0.24545455      0.00000000   1
   -0.37272725      0.22727274      0.00000000   1
   -0.37272725      0.20909092      0.00000000   1
   -0.37272725      0.19090910      0.00000000   1
   -0.37272725      0.17272728      0.00000000   1
   -0.37272725      0.15454547      0.00000000   1
   -0.37272725      0.13636365      0.00000000   1
   -0.37272725      0.11818183      0.00000000   1
   -0.37272725      0.10000001      0.00000000   1
   -0.37272725      0.08181820      0.00000000   1
   -0.37272725      0.06363638      0.00000000   1
   -0.37272725      0.04545456      0.00000000   1
   -0.37272725      0.02727274      0.00000000   1
   -0.37272725      0.00909092      0.00000000   1
   -0.37272725     -0.00909089      0.00000000   1
   -0.37272725     -0.02727271      0.00000000   1
   -0.37272725     -0.04545453      0.00000000   1
   -0.37272725     -0.06363635      0.00000000   1
   -0.37272725     -0.08181816      0.00000000   1
   -0.37272725     -0.09999998      0.00000000   1
   -0.37272725     -0.11818180      0.00000000   1
   -0.37272725     -0.13636362      0.00000000   1
   -0.37272725     -0.15454543      0.00000000   1
   -0.37272725     -0.17272725      0.00000000   1
   -0.37272725     -0.19090907      0.00000000   1
   -0.37272725     -0.20909089      0.00000000   1
   -0.37272725     -0.22727270      0.00000000   1
   -0.37272725     -0.24545452      0.00000000   1
   -0.37272725     -0.26363634      0.00000000   1
   -0.37272725     -0.28181816      0.00000000   1
   -0.37272725     -0.29999997      0.00000000   1
   -0.37272725     -0.31818179      0.00000000   1
   -0.37272725     -0.33636361      0.00000000   1
   -0.37272725     -0.35454543      0.00000000   1
   -0.37272725     -0.37272725      0.00000000   1
   -0.37272725     -0.39090906      0.00000000   1
   -0.37272725     -0.40909088      0.00000000   1
   -0.37272725     -0.42727270      0.00000000   1
   -0.37272725     -0.44545452      0.00000000   1
   -0.37272725     -0.46363633      0.00000000   1
   -0.37272725     -0.48181815      0.00000000   1
   -0.37272725     -0.49999997      0.00000000   1
   -0.39090906      0.50000000      0.00000000   1
   -0.39090906      0.48181818      0.00000000   1
   -0.39090906      0.46363636      0.00000000   1
   -0.39090906      0.44545455      0.00000000   1
   -0.39090906      0.42727273      0.00000000   1
   -0.39090906      0.40909091      0.00000000   1
   -0.39090906      0.39090909      0.00000000   1
   -0.39090906      0.37272728      0.00000000   1
   -0.39090906      0.35454546      0.00000000   1
   -0.39090906      0.33636364      0.00000000   1
   -0.39090906      0.31818182      0.00000000   1
   -0.39090906      0.30000001      0.00000000   1
   -0.39090906      0.28181819      0.00000000   1
   -0.39090906      0.26363637      0.00000000   1
   -0.39090906      0.24545455      0.00000000   1
   -0.39090906      0.22727274      0.00000000   1
   -0.39090906      0.20909092      0.00000000   1
   -0.39090906      0.19090910      0.00000000   1
   -0.39090906      0.17272728      0.00000000   1
   -0.39090906      0.15454547      0.00000000   1
   -0.39090906      0.13636365      0.00000000   1
   -0.39090906      0.11818183      0.00000000   1
   -0.39090906      0.10000001      0.00000000   1
   -0.39090906      0.08181820      0.00000000   1
   -0.39090906      0.06363638      0.00000000   1
   -0.39090906      0.04545456      0.00000000   1
   -0.39090906      0.02727274      0.00000000   1
   -0.39090906      0.00909092      0.00000000   1
   -0.39090906     -0.00909089      0.00000000   1
   -0.39090906     -0.02727271      0.00000000   1
   -0.39090906     -0.04545453      0.00000000   1
   -0.39090906     -0.06363635      0.00000000   1
   -0.39090906     -0.08181816      0.00000000   1
   -0.39090906     -0.09999998      0.00000000   1
   -0.39090906     -0.11818180      0.00000000   1
   -0.39090906     -0.13636362      0.00000000   1
   -0.39090906     -0.15454543      0.00000000   1
   -0.39090906     -0.17272725      0.00000000   1
   -0.39090906     -0.19090907      0.00000000   1
   -0.39090906     -0.20909089      0.00000000   1
   -0.39090906     -0.22727270      0.00000000   1
   -0.39090906     -0.24545452      0.00000000   1
   -0.39090906     -0.26363634      0.00000000   1
   -0.39090906     -0.28181816      0.00000000   1
   -0.39090906     -0.29999997      0.00000000   1
   -0.39090906     -0.31818179      0.00000000   1
   -0.39090906     -0.33636361      0.00000000   1
   -0.39090906     -0.35454543      0.00000000   1
   -0.39090906     -0.37272725      0.00000000   1
   -0.39090906     -0.39090906      0.00000000   1
   -0.39090906     -0.40909088      0.00000000   1
   -0.39090906     -0.42727270      0.00000000   1
   -0.39090906     -0.44545452      0.00000000   1
   -0.39090906     -0.46363633      0.00000000   1
   -0.39090906     -0.48181815      0.00000000   1
   -0.39090906     -0.49999997      0.00000000   1
   -0.40909088      0.50000000      0.00000000   1
   -0.40909088      0.48181818      0.00000000   1
   -0.40909088      0.46363636      0.00000000   1
   -0.40909088      0.44545455      0.00000000   1
   -0.40909088      0.42727273      0.00000000   1
   -0.40909088      0.40909091      0.00000000   1
   -0.40909088      0.39090909      0.00000000   1
   -0.40909088      0.37272728      0.00000000   1
   -0.40909088      0.35454546      0.00000000   1
   -0.40909088      0.33636364      0.00000000   1
   -0.40909088      0.31818182      0.00000000   1
   -0.40909088      0.30000001      0.00000000   1
   -0.40909088      0.28181819      0.00000000   1
   -0.40909088      0.26363637      0.00000000   1
   -0.40909088      0.24545455      0.00000000   1
   -0.40909088      0.22727274      0.00000000   1
   -0.40909088      0.20909092      0.00000000   1
   -0.40909088      0.19090910      0.00000000   1
   -0.40909088      0.17272728      0.00000000   1
   -0.40909088      0.15454547      0.00000000   1
   -0.40909088      0.13636365      0.00000000   1
   -0.40909088      0.11818183      0.00000000   1
   -0.40909088      0.10000001      0.00000000   1
   -0.40909088      0.08181820      0.00000000   1
   -0.40909088      0.06363638      0.00000000   1
   -0.40909088      0.04545456      0.00000000   1
   -0.40909088      0.02727274      0.00000000   1
   -0.40909088      0.00909092      0.00000000   1
   -0.40909088     -0.00909089      0.00000000   1
   -0.40909088     -0.02727271      0.00000000   1
   -0.40909088     -0.04545453      0.00000000   1
   -0.40909088     -0.06363635      0.00000000   1
   -0.40909088     -0.08181816      0.00000000   1
   -0.40909088     -0.09999998      0.00000000   1
   -0.40909088     -0.11818180      0.00000000   1
   -0.40909088     -0.13636362      0.00000000   1
   -0.40909088     -0.15454543      0.00000000   1
   -0.40909088     -0.17272725      0.00000000   1
   -0.40909088     -0.19090907      0.00000000   1
   -0.40909088     -0.20909089      0.00000000   1
   -0.40909088     -0.22727270      0.00000000   1
   -0.40909088     -0.24545452      0.00000000   1
   -0.40909088     -0.26363634      0.00000000   1
   -0.40909088     -0.28181816      0.00000000   1
   -0.40909088     -0.29999997      0.00000000   1
   -0.40909088     -0.31818179      0.00000000   1
   -0.40909088     -0.33636361      0.00000000   1
   -0.40909088     -0.35454543      0.00000000   1
   -0.40909088     -0.37272725      0.00000000   1
   -0.40909088     -0.39090906      0.00000000   1
   -0.40909088     -0.40909088      0.00000000   1
   -0.40909088     -0.42727270      0.00000000   1
   -0.40909088     -0.44545452      0.00000000   1
   -0.40909088     -0.46363633      0.00000000   1
   -0.40909088     -0.48181815      0.00000000   1
   -0.40909088     -0.49999997      0.00000000   1
   -0.42727270      0.50000000      0.00000000   1
   -0.42727270      0.48181818      0.00000000   1
   -0.42727270      0.46363636      0.00000000   1
   -0.42727270      0.44545455      0.00000000   1
   -0.42727270      0.42727273      0.00000000   1
   -0.42727270      0.40909091      0.00000000   1
   -0.42727270      0.39090909      0.00000000   1
   -0.42727270      0.37272728      0.00000000   1
   -0.42727270      0.35454546      0.00000000   1
   -0.42727270      0.33636364      0.00000000   1
   -0.42727270      0.31818182      0.00000000   1
   -0.42727270      0.30000001      0.00000000   1
   -0.42727270      0.28181819      0.00000000   1
   -0.42727270      0.26363637      0.00000000   1
   -0.42727270      0.24545455      0.00000000   1
   -0.42727270      0.22727274      0.00000000   1
   -0.42727270      0.20909092      0.00000000   1
   -0.42727270      0.19090910      0.00000000   1
   -0.42727270      0.17272728      0.00000000   1
   -0.42727270      0.15454547      0.00000000   1
   -0.42727270      0.13636365      0.00000000   1
   -0.42727270      0.11818183      0.00000000   1
   -0.42727270      0.10000001      0.00000000   1
   -0.42727270      0.08181820      0.00000000   1
   -0.42727270      0.06363638      0.00000000   1
   -0.42727270      0.04545456      0.00000000   1
   -0.42727270      0.02727274      0.00000000   1
   -0.42727270      0.00909092      0.00000000   1
   -0.42727270     -0.00909089      0.00000000   1
   -0.42727270     -0.02727271      0.00000000   1
   -0.42727270     -0.04545453      0.00000000   1
   -0.42727270     -0.06363635      0.00000000   1
   -0.42727270     -0.08181816      0.00000000   1
   -0.42727270     -0.09999998      0.00000000   1
   -0.42727270     -0.11818180      0.00000000   1
   -0.42727270     -0.13636362      0.00000000   1
   -0.42727270     -0.15454543      0.00000000   1
   -0.42727270     -0.17272725      0.00000000   1
   -0.42727270     -0.19090907      0.00000000   1
   -0.42727270     -0.20909089      0.00000000   1
   -0.42727270     -0.22727270      0.00000000   1
   -0.42727270     -0.24545452      0.00000000   1
   -0.42727270     -0.26363634      0.00000000   1
   -0.42727270     -0.28181816      0.00000000   1
   -0.42727270     -0.29999997      0.00000000   1
   -0.42727270     -0.31818179      0.00000000   1
   -0.42727270     -0.33636361      0.00000000   1
   -0.42727270     -0.35454543      0.00000000   1
   -0.42727270     -0.37272725      0.00000000   1
   -0.42727270     -0.39090906      0.00000000   1
   -0.42727270     -0.40909088      0.00000000   1
   -0.42727270     -0.42727270      0.00000000   1
   -0.42727270     -0.44545452      0.00000000   1
   -0.42727270     -0.46363633      0.00000000   1
   -0.42727270     -0.48181815      0.00000000   1
   -0.42727270     -0.49999997      0.00000000   1
   -0.44545452      0.50000000      0.00000000   1
   -0.44545452      0.48181818      0.00000000   1
   -0.44545452      0.46363636      0.00000000   1
   -0.44545452      0.44545455      0.00000000   1
   -0.44545452      0.42727273      0.00000000   1
   -0.44545452      0.40909091      0.00000000   1
   -0.44545452      0.39090909      0.00000000   1
   -0.44545452      0.37272728      0.00000000   1
   -0.44545452      0.35454546      0.00000000   1
   -0.44545452      0.33636364      0.00000000   1
   -0.44545452      0.31818182      0.00000000   1
   -0.44545452      0.30000001      0.00000000   1
   -0.44545452      0.28181819      0.00000000   1
   -0.44545452      0.26363637      0.00000000   1
   -0.44545452      0.24545455      0.00000000   1
   -0.44545452      0.22727274      0.00000000   1
   -0.44545452      0.20909092      0.00000000   1
   -0.44545452      0.19090910      0.00000000   1
   -0.44545452      0.17272728      0.00000000   1
   -0.44545452      0.15454547      0.00000000   1
   -0.44545452      0.13636365      0.00000000   1
   -0.44545452      0.11818183      0.00000000   1
   -0.44545452      0.10000001      0.00000000   1
   -0.44545452      0.08181820      0.00000000   1
   -0.44545452      0.06363638      0.00000000   1
   -0.44545452      0.04545456      0.00000000   1
   -0.44545452      0.02727274      0.00000000   1
   -0.44545452      0.00909092      0.00000000   1
   -0.44545452     -0.00909089      0.00000000   1
   -0.44545452     -0.02727271      0.00000000   1
   -0.44545452     -0.04545453      0.00000000   1
   -0.44545452     -0.06363635      0.00000000   1
   -0.44545452     -0.08181816      0.00000000   1
   -0.44545452     -0.09999998      0.00000000   1
   -0.44545452     -0.11818180      0.00000000   1
   -0.44545452     -0.13636362      0.00000000   1
   -0.44545452     -0.15454543      0.00000000   1
   -0.44545452     -0.17272725      0.00000000   1
   -0.44545452     -0.19090907      0.00000000   1
   -0.44545452     -0.20909089      0.00000000   1
   -0.44545452     -0.22727270      0.00000000   1
   -0.44545452     -0.24545452      0.00000000   1
   -0.44545452     -0.26363634      0.00000000   1
   -0.44545452     -0.28181816      0.00000000   1
   -0.44545452     -0.29999997      0.00000000   1
   -0.44545452     -0.31818179      0.00000000   1
   -0.44545452     -0.33636361      0.00000000   1
   -0.44545452     -0.35454543      0.00000000   1
   -0.44545452     -0.37272725      0.00000000   1
   -0.44545452     -0.39090906      0.00000000   1
   -0.44545452     -0.40909088      0.00000000   1
   -0.44545452     -0.42727270      0.00000000   1
   -0.44545452     -0.44545452      0.00000000   1
   -0.44545452     -0.46363633      0.00000000   1
   -0.44545452     -0.48181815      0.00000000   1
   -0.44545452     -0.49999997      0.00000000   1
   -0.46363633      0.50000000      0.00000000   1
   -0.46363633      0.48181818      0.00000000   1
   -0.46363633      0.46363636      0.00000000   1
   -0.46363633      0.44545455      0.00000000   1
   -0.46363633      0.42727273      0.00000000   1
   -0.46363633      0.40909091      0.00000000   1
   -0.46363633      0.39090909      0.00000000   1
   -0.46363633      0.37272728      0.00000000   1
   -0.46363633      0.35454546      0.00000000   1
   -0.46363633      0.33636364      0.00000000   1
   -0.46363633      0.31818182      0.00000000   1
   -0.46363633      0.30000001      0.00000000   1
   -0.46363633      0.28181819      0.00000000   1
   -0.46363633      0.26363637      0.00000000   1
   -0.46363633      0.24545455      0.00000000   1
   -0.46363633      0.22727274      0.00000000   1
   -0.46363633      0.20909092      0.00000000   1
   -0.46363633      0.19090910      0.00000000   1
   -0.46363633      0.17272728      0.00000000   1
   -0.46363633      0.15454547      0.00000000   1
   -0.46363633      0.13636365      0.00000000   1
   -0.46363633      0.11818183      0.00000000   1
   -0.46363633      0.10000001      0.00000000   1
   -0.46363633      0.08181820      0.00000000   1
   -0.46363633      0.06363638      0.00000000   1
   -0.46363633      0.04545456      0.00000000   1
   -0.46363633      0.02727274      0.00000000   1
   -0.46363633      0.00909092      0.00000000   1
   -0.46363633     -0.00909089      0.00000000   1
   -0.46363633     -0.02727271      0.00000000   1
   -0.46363633     -0.04545453      0.00000000   1
   -0.46363633     -0.06363635      0.00000000   1
   -0.46363633     -0.08181816      0.00000000   1
   -0.46363633     -0.09999998      0.00000000   1
   -0.46363633     -0.11818180      0.00000000   1
   -0.46363633     -0.13636362      0.00000000   1
   -0.46363633     -0.15454543      0.00000000   1
   -0.46363633     -0.17272725      0.00000000   1
   -0.46363633     -0.19090907      0.00000000   1
   -0.46363633     -0.20909089      0.00000000   1
   -0.46363633     -0.22727270      0.00000000   1
   -0.46363633     -0.24545452      0.00000000   1
   -0.46363633     -0.26363634      0.00000000   1
   -0.46363633     -0.28181816      0.00000000   1
   -0.46363633     -0.29999997      0.00000000   1
   -0.46363633     -0.31818179      0.00000000   1
   -0.46363633     -0.33636361      0.00000000   1
   -0.46363633     -0.35454543      0.00000000   1
   -0.46363633     -0.37272725      0.00000000   1
   -0.46363633     -0.39090906      0.00000000   1
   -0.46363633     -0.40909088      0.00000000   1
   -0.46363633     -0.42727270      0.00000000   1
   -0.46363633     -0.44545452      0.00000000   1
   -0.46363633     -0.46363633      0.00000000   1
   -0.46363633     -0.48181815      0.00000000   1
   -0.46363633     -0.49999997      0.00000000   1
   -0.48181815      0.50000000      0.00000000   1
   -0.48181815      0.48181818      0.00000000   1
   -0.48181815      0.46363636      0.00000000   1
   -0.48181815      0.44545455      0.00000000   1
   -0.48181815      0.42727273      0.00000000   1
   -0.48181815      0.40909091      0.00000000   1
   -0.48181815      0.39090909      0.00000000   1
   -0.48181815      0.37272728      0.00000000   1
   -0.48181815      0.35454546      0.00000000   1
   -0.48181815      0.33636364      0.00000000   1
   -0.48181815      0.31818182      0.00000000   1
   -0.48181815      0.30000001      0.00000000   1
   -0.48181815      0.28181819      0.00000000   1
   -0.48181815      0.26363637      0.00000000   1
   -0.48181815      0.24545455      0.00000000   1
   -0.48181815      0.22727274      0.00000000   1
   -0.48181815      0.20909092      0.00000000   1
   -0.48181815      0.19090910      0.00000000   1
   -0.48181815      0.17272728      0.00000000   1
   -0.48181815      0.15454547      0.00000000   1
   -0.48181815      0.13636365      0.00000000   1
   -0.48181815      0.11818183      0.00000000   1
   -0.48181815      0.10000001      0.00000000   1
   -0.48181815      0.08181820      0.00000000   1
   -0.48181815      0.06363638      0.00000000   1
   -0.48181815      0.04545456      0.00000000   1
   -0.48181815      0.02727274      0.00000000   1
   -0.48181815      0.00909092      0.00000000   1
   -0.48181815     -0.00909089      0.00000000   1
   -0.48181815     -0.02727271      0.00000000   1
   -0.48181815     -0.04545453      0.00000000   1
   -0.48181815     -0.06363635      0.00000000   1
   -0.48181815     -0.08181816      0.00000000   1
   -0.48181815     -0.09999998      0.00000000   1
   -0.48181815     -0.11818180      0.00000000   1
   -0.48181815     -0.13636362      0.00000000   1
   -0.48181815     -0.15454543      0.00000000   1
   -0.48181815     -0.17272725      0.00000000   1
   -0.48181815     -0.19090907      0.00000000   1
   -0.48181815     -0.20909089      0.00000000   1
   -0.48181815     -0.22727270      0.00000000   1
   -0.48181815     -0.24545452      0.00000000   1
   -0.48181815     -0.26363634      0.00000000   1
   -0.48181815     -0.28181816      0.00000000   1
   -0.48181815     -0.29999997      0.00000000   1
   -0.48181815     -0.31818179      0.00000000   1
   -0.48181815     -0.33636361      0.00000000   1
   -0.48181815     -0.35454543      0.00000000   1
   -0.48181815     -0.37272725      0.00000000   1
   -0.48181815     -0.39090906      0.00000000   1
   -0.48181815     -0.40909088      0.00000000   1
   -0.48181815     -0.42727270      0.00000000   1
   -0.48181815     -0.44545452      0.00000000   1
   -0.48181815     -0.46363633      0.00000000   1
   -0.48181815     -0.48181815      0.00000000   1
   -0.48181815     -0.49999997      0.00000000   1
   -0.49999997      0.50000000      0.00000000   1
   -0.49999997      0.48181818      0.00000000   1
   -0.49999997      0.46363636      0.00000000   1
   -0.49999997      0.44545455      0.00000000   1
   -0.49999997      0.42727273      0.00000000   1
   -0.49999997      0.40909091      0.00000000   1
   -0.49999997      0.39090909      0.00000000   1
   -0.49999997      0.37272728      0.00000000   1
   -0.49999997      0.35454546      0.00000000   1
   -0.49999997      0.33636364      0.00000000   1
   -0.49999997      0.31818182      0.00000000   1
   -0.49999997      0.30000001      0.00000000   1
   -0.49999997      0.28181819      0.00000000   1
   -0.49999997      0.26363637      0.00000000   1
   -0.49999997      0.24545455      0.00000000   1
   -0.49999997      0.22727274      0.00000000   1
   -0.49999997      0.20909092      0.00000000   1
   -0.49999997      0.19090910      0.00000000   1
   -0.49999997      0.17272728      0.00000000   1
   -0.49999997      0.15454547      0.00000000   1
   -0.49999997      0.13636365      0.00000000   1
   -0.49999997      0.11818183      0.00000000   1
   -0.49999997      0.10000001      0.00000000   1
   -0.49999997      0.08181820      0.00000000   1
   -0.49999997      0.06363638      0.00000000   1
   -0.49999997      0.04545456      0.00000000   1
   -0.49999997      0.02727274      0.00000000   1
   -0.49999997      0.00909092      0.00000000   1
   -0.49999997     -0.00909089      0.00000000   1
   -0.49999997     -0.02727271      0.00000000   1
   -0.49999997     -0.04545453      0.00000000   1
   -0.49999997     -0.06363635      0.00000000   1
   -0.49999997     -0.08181816      0.00000000   1
   -0.49999997     -0.09999998      0.00000000   1
   -0.49999997     -0.11818180      0.00000000   1
   -0.49999997     -0.13636362      0.00000000   1
   -0.49999997     -0.15454543      0.00000000   1
   -0.49999997     -0.17272725      0.00000000   1
   -0.49999997     -0.19090907      0.00000000   1
   -0.49999997     -0.20909089      0.00000000   1
   -0.49999997     -0.22727270      0.00000000   1
   -0.49999997     -0.24545452      0.00000000   1
   -0.49999997     -0.26363634      0.00000000   1
   -0.49999997     -0.28181816      0.00000000   1
   -0.49999997     -0.29999997      0.00000000   1
   -0.49999997     -0.31818179      0.00000000   1
   -0.49999997     -0.33636361      0.00000000   1
   -0.49999997     -0.35454543      0.00000000   1
   -0.49999997     -0.37272725      0.00000000   1
   -0.49999997     -0.39090906      0.00000000   1
   -0.49999997     -0.40909088      0.00000000   1
   -0.49999997     -0.42727270      0.00000000   1
   -0.49999997     -0.44545452      0.00000000   1
   -0.49999997     -0.46363633      0.00000000   1
   -0.49999997     -0.48181815      0.00000000   1
   -0.49999997     -0.49999997      0.00000000   1
