 vasp.5.4.1 24Jun15 (build Jun 09 2016 19:13:35) complex                        
  
 executed on             LinuxIFC date 2020.07.19  06:44:13
 running on   36 total cores
 distrk:  each k-point on   36 cores,    1 groups
 distr:  one band on NCORES_PER_BAND=   1 cores,   36 groups


--------------------------------------------------------------------------------------------------------


 INCAR:
 POTCAR:    PAW_PBE P 06Sep2000                   
 POTCAR:    PAW_PBE In 08Apr2002                  

 ----------------------------------------------------------------------------- 
|                                                                             |
|           W    W    AA    RRRRR   N    N  II  N    N   GGGG   !!!           |
|           W    W   A  A   R    R  NN   N  II  NN   N  G    G  !!!           |
|           W    W  A    A  R    R  N N  N  II  N N  N  G       !!!           |
|           W WW W  AAAAAA  RRRRR   N  N N  II  N  N N  G  GGG   !            |
|           WW  WW  A    A  R   R   N   NN  II  N   NN  G    G                |
|           W    W  A    A  R    R  N    N  II  N    N   GGGG   !!!           |
|                                                                             |
|      For optimal performance we recommend to set                            |
|        NCORE= 4 - approx SQRT( number of cores)                             |
|      NCORE specifies how many cores store one orbital (NPAR=cpu/NCORE).     |
|      This setting can  greatly improve the performance of VASP for DFT.     |
|      The default, NPAR=number of cores might be grossly inefficient         |
|      on modern multi-core architectures or massively parallel machines.     |
|      Do your own testing !!!!                                               |
|      Unfortunately you need to use the default for GW and RPA calculations. |
|      (for HF NCORE is supported but not extensively tested yet)             |
|                                                                             |
 ----------------------------------------------------------------------------- 

 POTCAR:    PAW_PBE P 06Sep2000                   
   VRHFIN =P : s2p3                                                             
   LEXCH  = PE                                                                  
   EATOM  =   176.0430 eV,   12.9388 Ry                                         
                                                                                
   TITEL  = PAW_PBE P 06Sep2000                                                 
   LULTRA =        F    use ultrasoft PP ?                                      
   IUNSCR =        1    unscreen: 0-lin 1-nonlin 2-no                           
   RPACOR =    1.500    partial core radius                                     
   POMASS =   30.974; ZVAL   =    5.000    mass and valenz                      
   RCORE  =    1.900    outmost cutoff radius                                   
   RWIGS  =    2.330; RWIGS  =    1.233    wigner-seitz radius (au A)           
   ENMAX  =  255.040; ENMIN  =  191.280 eV                                      
   ICORE  =        2    local potential                                         
   LCOR   =        T    correct aug charges                                     
   LPAW   =        T    paw PP                                                  
   EAUG   =  342.924                                                            
   DEXC   =    0.000                                                            
   RMAX   =    1.935    core radius for proj-oper                               
   RAUG   =    1.300    factor for augmentation sphere                          
   RDEP   =    1.931    radius for radial grids                                 
   RDEPT  =    1.794    core radius for aug-charge                              
                                                                                
   Atomic configuration                                                         
    6 entries                                                                   
     n  l   j            E        occ.                                          
     1  0  0.50     -2084.0982   2.0000                                         
     2  0  0.50      -173.9859   2.0000                                         
     2  1  1.50      -124.4865   6.0000                                         
     3  0  0.50       -13.9692   2.0000                                         
     3  1  0.50        -5.5067   3.0000                                         
     3  2  1.50        -5.4423   0.0000                                         
   Description                                                                  
     l       E           TYP  RCUT    TYP  RCUT                                 
     0    -13.9691527     23  1.900                                             
     0    -11.7794650     23  1.900                                             
     1     -5.5066937     23  1.900                                             
     1     -0.2556953     23  1.900                                             
     2     -5.4423304     23  1.900                                             
  local pseudopotential read in
  partial core-charges read in
  partial kinetic energy density read in
  atomic valenz-charges read in
  non local Contribution for L=           0  read in
    real space projection operators read in
  non local Contribution for L=           0  read in
    real space projection operators read in
  non local Contribution for L=           1  read in
    real space projection operators read in
  non local Contribution for L=           1  read in
    real space projection operators read in
    PAW grid and wavefunctions read in
 
   number of l-projection  operators is LMAX  =           4
   number of lm-projection operators is LMMAX =           8
 
 POTCAR:    PAW_PBE In 08Apr2002                  
   VRHFIN =In: s2p1                                                             
   LEXCH  = PE                                                                  
   EATOM  =    53.7908 eV,    3.9535 Ry                                         
                                                                                
   TITEL  = PAW_PBE In 08Apr2002                                                
   LULTRA =        F    use ultrasoft PP ?                                      
   IUNSCR =        1    unscreen: 0-lin 1-nonlin 2-no                           
   RPACOR =    2.400    partial core radius                                     
   POMASS =  114.820; ZVAL   =    3.000    mass and valenz                      
   RCORE  =    3.100    outmost cutoff radius                                   
   RWIGS  =    3.170; RWIGS  =    1.677    wigner-seitz radius (au A)           
   ENMAX  =   95.934; ENMIN  =   71.951 eV                                      
   ICORE  =        3    local potential                                         
   LCOR   =        T    correct aug charges                                     
   LPAW   =        T    paw PP                                                  
   EAUG   =  237.125                                                            
   DEXC   =    0.000                                                            
   RMAX   =    3.168    core radius for proj-oper                               
   RAUG   =    1.300    factor for augmentation sphere                          
   RDEP   =    3.187    radius for radial grids                                 
   RDEPT  =    2.711    core radius for aug-charge                              
                                                                                
   Atomic configuration                                                         
   13 entries                                                                   
     n  l   j            E        occ.                                          
     1  0  0.50    -27747.9169   2.0000                                         
     2  0  0.50     -4154.4438   2.0000                                         
     2  1  1.50     -3728.4305   6.0000                                         
     3  0  0.50      -788.3680   2.0000                                         
     3  1  1.50      -648.9215   6.0000                                         
     3  2  2.50      -432.5893  10.0000                                         
     4  0  0.50      -119.6363   2.0000                                         
     4  1  1.50       -78.1086   6.0000                                         
     4  2  2.50       -18.6227  10.0000                                         
     5  0  0.50        -8.2107   2.0000                                         
     5  1  0.50        -2.5185   1.0000                                         
     5  2  2.50        -1.3606   0.0000                                         
     4  3  2.50        -2.7212   0.0000                                         
   Description                                                                  
     l       E           TYP  RCUT    TYP  RCUT                                 
     0     -8.2107306     23  3.100                                             
     0     -6.1485975     23  3.100                                             
     1     -2.5184867     23  3.100                                             
     1      3.2427302     23  3.100                                             
     2     -1.3605826     23  3.100                                             
     3     -1.3605826     23  3.100                                             
  local pseudopotential read in
  partial core-charges read in
  partial kinetic energy density read in
  atomic valenz-charges read in
  non local Contribution for L=           0  read in
    real space projection operators read in
  non local Contribution for L=           0  read in
    real space projection operators read in
  non local Contribution for L=           1  read in
    real space projection operators read in
  non local Contribution for L=           1  read in
    real space projection operators read in
  non local Contribution for L=           2  read in
    real space projection operators read in
    PAW grid and wavefunctions read in
 
   number of l-projection  operators is LMAX  =           5
   number of lm-projection operators is LMMAX =          13
 
  PAW_PBE P 06Sep2000                   :
 energy of atom  1       EATOM= -176.0430
 kinetic energy error for atom=    0.0013 (will be added to EATOM!!)
  PAW_PBE In 08Apr2002                  :
 energy of atom  2       EATOM=  -53.7908
 kinetic energy error for atom=    0.0000 (will be added to EATOM!!)
 
 
 POSCAR: deta\(2)                                
  positions in direct lattice
  velocities in cartesian coordinates
 exchange correlation table for  LEXCH =        8
   RHO(1)=    0.500       N(1)  =     2000
   RHO(2)=  100.500       N(2)  =     4000

 VTST: version 3.1, (03/28/14)

 CHAIN: initializing optimizer
 
 OPT: Using VASP Dynamics algorithm
 CHAIN: Read ICHAIN            0
 
 POSCAR: deta\(2)                                
  positions in direct lattice
  velocities in cartesian coordinates
 


--------------------------------------------------------------------------------------------------------


 ion  position               nearest neighbor table
   1  0.952  0.267  0.550-   5 2.23   6 2.24   8 2.68   8 2.96
   2  0.006  0.694  0.429-   6 2.22   7 2.67   8 2.70   7 2.76
   3  0.452  0.267  0.450-   6 2.23   5 2.24   7 2.68   7 2.96
   4  0.506  0.694  0.571-   5 2.22   8 2.67   7 2.70   8 2.76
   5  0.531  0.304  0.553-   4 2.22   1 2.23   3 2.24
   6  0.031  0.304  0.447-   2 2.22   3 2.23   1 2.24
   7  0.511  0.790  0.446-   2 2.67   3 2.68   4 2.70   2 2.76   3 2.96   8 3.50   8 3.50
   8  0.011  0.790  0.554-   4 2.67   1 2.68   2 2.70   4 2.76   1 2.96   7 3.50   7 3.50
 
  LATTYP: Found a simple monoclinic cell.
 ALAT       =     7.8611701269
 B/A-ratio  =     2.7042121051
 C/A-ratio  =     1.5470965569
 COS(beta)  =    -0.9508522463
  
  Lattice vectors:
  
 A1 = (  -5.3867898819,  -5.7254249216,   0.0000056431)
 A2 = (  -0.0000034176,   0.0000078726, -21.2582714172)
 A3 = (  10.6670609994,   5.8418996761,  -0.0000110160)


Analysis of symmetry for initial positions (statically):
=====================================================================
 Subroutine PRICEL returns:
 Original cell was already a primitive cell.
 

 Routine SETGRP: Setting up the symmetry group for a 
 simple monoclinic supercell.


 Subroutine GETGRP returns: Found  2 space group operations
 (whereof  1 operations were pure point group operations)
 out of a pool of  4 trial point group operations.


The static configuration has the point symmetry C_1 .
 The point group associated with its full space group is C_1h.


Analysis of symmetry for dynamics (positions and initial velocities):
=====================================================================
 Subroutine PRICEL returns:
 Original cell was already a primitive cell.
 

 Routine SETGRP: Setting up the symmetry group for a 
 simple monoclinic supercell.


 Subroutine GETGRP returns: Found  2 space group operations
 (whereof  1 operations were pure point group operations)
 out of a pool of  4 trial point group operations.


The dynamic configuration has the point symmetry C_1 .
 The point group associated with its full space group is C_1h.


 Subroutine INISYM returns: Found  2 space group operations
 (whereof  1 operations are pure point group operations),
 and found     1 'primitive' translations

 
 
 KPOINTS: Auto                                    

Automatic generation of k-mesh.
Space group operators:
 irot       det(A)        alpha          n_x          n_y          n_z        tau_x        tau_y        tau_z
    1     1.000000     0.000001     1.000000     0.000000     0.000000     0.000000     0.000000     0.000000
    2    -1.000000   179.999999    -0.000001    -0.000000    -1.000000     0.500000    -0.000000    -0.999995
 
 Subroutine IBZKPT returns following result:
 ===========================================
 
 Found     61 irreducible k-points:
 
 Following reciprocal coordinates:
            Coordinates               Weight
  0.000000  0.000000  0.000000      1.000000
  0.090909  0.000000 -0.000000      2.000000
  0.181818  0.000000 -0.000000      2.000000
  0.272727  0.000000 -0.000000      2.000000
  0.363636  0.000000 -0.000000      2.000000
  0.454545  0.000000 -0.000000      2.000000
 -0.000000  0.090909 -0.000000      2.000000
  0.090909  0.090909 -0.000000      2.000000
  0.181818  0.090909 -0.000000      2.000000
  0.272727  0.090909  0.000000      2.000000
  0.363636  0.090909 -0.000000      2.000000
  0.454545  0.090909  0.000000      2.000000
 -0.454545  0.090909  0.000000      2.000000
 -0.363636  0.090909 -0.000000      2.000000
 -0.272727  0.090909 -0.000000      2.000000
 -0.181818  0.090909  0.000000      2.000000
 -0.090909  0.090909  0.000000      2.000000
 -0.000000  0.181818 -0.000000      2.000000
  0.090909  0.181818  0.000000      2.000000
  0.181818  0.181818 -0.000000      2.000000
  0.272727  0.181818  0.000000      2.000000
  0.363636  0.181818 -0.000000      2.000000
  0.454545  0.181818 -0.000000      2.000000
 -0.454545  0.181818  0.000000      2.000000
 -0.363636  0.181818  0.000000      2.000000
 -0.272727  0.181818  0.000000      2.000000
 -0.181818  0.181818  0.000000      2.000000
 -0.090909  0.181818 -0.000000      2.000000
 -0.000000  0.272727  0.000000      2.000000
  0.090909  0.272727  0.000000      2.000000
  0.181818  0.272727 -0.000000      2.000000
  0.272727  0.272727  0.000000      2.000000
  0.363636  0.272727 -0.000000      2.000000
  0.454545  0.272727 -0.000000      2.000000
 -0.454545  0.272727  0.000000      2.000000
 -0.363636  0.272727  0.000000      2.000000
 -0.272727  0.272727 -0.000000      2.000000
 -0.181818  0.272727  0.000000      2.000000
 -0.090909  0.272727 -0.000000      2.000000
 -0.000000  0.363636 -0.000000      2.000000
  0.090909  0.363636  0.000000      2.000000
  0.181818  0.363636  0.000000      2.000000
  0.272727  0.363636  0.000000      2.000000
  0.363636  0.363636 -0.000000      2.000000
  0.454545  0.363636  0.000000      2.000000
 -0.454545  0.363636  0.000000      2.000000
 -0.363636  0.363636  0.000000      2.000000
 -0.272727  0.363636  0.000000      2.000000
 -0.181818  0.363636 -0.000000      2.000000
 -0.090909  0.363636  0.000000      2.000000
 -0.000000  0.454545 -0.000000      2.000000
  0.090909  0.454545 -0.000000      2.000000
  0.181818  0.454545 -0.000000      2.000000
  0.272727  0.454545 -0.000000      2.000000
  0.363636  0.454545 -0.000000      2.000000
  0.454545  0.454545 -0.000000      2.000000
 -0.454545  0.454545 -0.000000      2.000000
 -0.363636  0.454545 -0.000000      2.000000
 -0.272727  0.454545  0.000000      2.000000
 -0.181818  0.454545 -0.000000      2.000000
 -0.090909  0.454545  0.000000      2.000000
 
 Following cartesian coordinates:
            Coordinates               Weight
  0.000000  0.000000  0.000000      1.000000
  0.017224 -0.000327 -0.000000      2.000000
  0.034448 -0.000654 -0.000000      2.000000
  0.051672 -0.000981 -0.000000      2.000000
  0.068896 -0.001308 -0.000000      2.000000
  0.086120 -0.001635 -0.000000      2.000000
 -0.000358  0.016215  0.000000      2.000000
  0.016866  0.015888  0.000000      2.000000
  0.034090  0.015560  0.000000      2.000000
  0.051314  0.015233 -0.000000      2.000000
  0.068538  0.014906 -0.000000      2.000000
  0.085762  0.014579 -0.000000      2.000000
 -0.086477  0.017850  0.000000      2.000000
 -0.069254  0.017523  0.000000      2.000000
 -0.052030  0.017196  0.000000      2.000000
 -0.034806  0.016869  0.000000      2.000000
 -0.017582  0.016542  0.000000      2.000000
 -0.000715  0.032429  0.000000      2.000000
  0.016509  0.032102  0.000000      2.000000
  0.033733  0.031775  0.000000      2.000000
  0.050957  0.031448  0.000000      2.000000
  0.068181  0.031121  0.000000      2.000000
  0.085404  0.030794 -0.000000      2.000000
 -0.086835  0.034065  0.000000      2.000000
 -0.069611  0.033738  0.000000      2.000000
 -0.052387  0.033411  0.000000      2.000000
 -0.035163  0.033084  0.000000      2.000000
 -0.017939  0.032756  0.000000      2.000000
 -0.001073  0.048644  0.000000      2.000000
  0.016151  0.048317  0.000000      2.000000
  0.033375  0.047990  0.000000      2.000000
  0.050599  0.047663  0.000000      2.000000
  0.067823  0.047336  0.000000      2.000000
  0.085047  0.047008  0.000000      2.000000
 -0.087193  0.050279  0.000000      2.000000
 -0.069969  0.049952  0.000000      2.000000
 -0.052745  0.049625  0.000000      2.000000
 -0.035521  0.049298  0.000000      2.000000
 -0.018297  0.048971  0.000000      2.000000
 -0.001431  0.064859  0.000000      2.000000
  0.015793  0.064532  0.000000      2.000000
  0.033017  0.064204  0.000000      2.000000
  0.050241  0.063877  0.000000      2.000000
  0.067465  0.063550  0.000000      2.000000
  0.084689  0.063223  0.000000      2.000000
 -0.087550  0.066494  0.000000      2.000000
 -0.070327  0.066167  0.000000      2.000000
 -0.053103  0.065840  0.000000      2.000000
 -0.035879  0.065513  0.000000      2.000000
 -0.018655  0.065186  0.000000      2.000000
 -0.001788  0.081073  0.000000      2.000000
  0.015436  0.080746  0.000000      2.000000
  0.032660  0.080419  0.000000      2.000000
  0.049884  0.080092  0.000000      2.000000
  0.067107  0.079765  0.000000      2.000000
  0.084331  0.079438  0.000000      2.000000
 -0.087908  0.082709  0.000000      2.000000
 -0.070684  0.082382  0.000000      2.000000
 -0.053460  0.082055  0.000000      2.000000
 -0.036236  0.081727  0.000000      2.000000
 -0.019012  0.081400  0.000000      2.000000
 
 TETIRR: Found    360 inequivalent tetrahedra from      726


--------------------------------------------------------------------------------------------------------




 Dimension of arrays:
   k-points           NKPTS =     61   k-points in BZ     NKDIM =     61   number of bands    NBANDS=     36
   number of dos      NEDOS =    301   number of ions     NIONS =      8
   non local maximal  LDIM  =      5   non local SUM 2l+1 LMDIM =     13
   total plane-waves  NPLWV = 268800
   max r-space proj   IRMAX =      1   max aug-charges    IRDMAX=  48377
   dimension x,y,z NGX =    40 NGY =   42 NGZ =  160
   dimension x,y,z NGXF=    80 NGYF=   84 NGZF=  320
   support grid    NGXF=    80 NGYF=   84 NGZF=  320
   ions per type =               6   2
 NGX,Y,Z   is equivalent  to a cutoff of  12.59, 12.45, 12.51 a.u.
 NGXF,Y,Z  is equivalent  to a cutoff of  25.18, 24.89, 25.02 a.u.


 I would recommend the setting:
   dimension x,y,z NGX =    39 NGY =   41 NGZ =  155
 SYSTEM =  AlN 0001 surface 2x2 Ga_T4              
 POSCAR =  deta\(2)                                

 Startparameter for this run:
   NWRITE =      2    write-flag & timer
   PREC   = a         normal or accurate (medium, high low for compatibility)
   ISTART =      0    job   : 0-new  1-cont  2-samecut
   ICHARG =      2    charge: 1-file 2-atom 10-const
   ISPIN  =      1    spin polarized calculation?
   LNONCOLLINEAR =      F non collinear calculations
   LSORBIT =      F    spin-orbit coupling
   INIWAV =      1    electr: 0-lowe 1-rand  2-diag
   LASPH  =      F    aspherical Exc in radial PAW
   METAGGA=      F    non-selfconsistent MetaGGA calc.

 Electronic Relaxation 1
   ENCUT  =  500.0 eV  36.75 Ry    6.06 a.u.   9.63 10.23 38.76*2*pi/ulx,y,z
   ENINI  =  500.0     initial cutoff
   ENAUG  =  342.9 eV  augmentation charge cutoff
   NELM   =     60;   NELMIN=  2; NELMDL= -5     # of ELM steps 
   EDIFF  = 0.1E-04   stopping-criterion for ELM
   LREAL  =      F    real-space projection
   NLSPLINE    = F    spline interpolate recip. space projectors
   LCOMPAT=      F    compatible to vasp.4.4
   GGA_COMPAT  = T    GGA compatible to vasp.4.4-vasp.4.6
   LMAXPAW     = -100 max onsite density
   LMAXMIX     =    2 max onsite mixed and CHGCAR
   VOSKOWN=      0    Vosko Wilk Nusair interpolation
   ROPT   =    0.00000   0.00000
 Ionic relaxation
   EDIFFG = -.2E-01   stopping-criterion for IOM
   NSW    =      0    number of steps for IOM
   NBLOCK =      1;   KBLOCK =      1    inner block; outer block 
   IBRION =     -1    ionic relax: 0-MD 1-quasi-New 2-CG
   NFREE  =      0    steps in history (QN), initial steepest desc. (CG)
   ISIF   =      2    stress and relaxation
   IWAVPR =     10    prediction:  0-non 1-charg 2-wave 3-comb
   ISYM   =      2    0-nonsym 1-usesym 2-fastsym
   LCORR  =      T    Harris-Foulkes like correction to forces

   POTIM  = 0.5000    time-step for ionic-motion
   TEIN   =    0.0    initial temperature
   TEBEG  =    0.0;   TEEND  =   0.0 temperature during run
   SMASS  =  -3.00    Nose mass-parameter (am)
   estimated Nose-frequenzy (Omega)   =  0.10E-29 period in steps =****** mass=  -0.637E-27a.u.
   SCALEE = 1.0000    scale energy and forces
   NPACO  =    256;   APACO  = 16.0  distance and # of slots for P.C.
   PSTRESS=    0.0 pullay stress

  Mass of Ions in am
   POMASS =  30.97114.82
  Ionic Valenz
   ZVAL   =   5.00  3.00
  Atomic Wigner-Seitz radii
   RWIGS  =  -1.00 -1.00
  virtual crystal weights 
   VCA    =   1.00  1.00
   NELECT =      36.0000    total number of electrons
   NUPDOWN=      -1.0000    fix difference up-down

 DOS related values:
   EMIN   =  10.00;   EMAX   =-10.00  energy-range for DOS
   EFERMI =   0.00
   ISMEAR =    -5;   SIGMA  =   0.01  broadening in eV -4-tet -1-fermi 0-gaus

 Electronic relaxation 2 (details)
   IALGO  =     38    algorithm
   LDIAG  =      T    sub-space diagonalisation (order eigenvalues)
   LSUBROT=      F    optimize rotation matrix (better conditioning)
   TURBO    =      0    0=normal 1=particle mesh
   IRESTART =      0    0=no restart 2=restart with 2 vectors
   NREBOOT  =      0    no. of reboots
   NMIN     =      0    reboot dimension
   EREF     =   0.00    reference energy to select bands
   IMIX   =      4    mixing-type and parameters
     AMIX     =   0.40;   BMIX     =  1.00
     AMIX_MAG =   1.60;   BMIX_MAG =  1.00
     AMIN     =   0.10
     WC   =   100.;   INIMIX=   1;  MIXPRE=   1;  MAXMIX= -45

 Intra band minimization:
   WEIMIN = 0.0000     energy-eigenvalue tresh-hold
   EBREAK =  0.69E-07  absolut break condition
   DEPER  =   0.30     relativ break condition  

   TIME   =   0.40     timestep for ELM

  volume/ion in A,a.u.               =      78.67       530.87
  Fermi-wavevector in a.u.,A,eV,Ry     =   0.630785  1.192010  5.413611  0.397889
  Thomas-Fermi vector in A             =   1.693536
 
 Write flags
   LWAVE  =      F    write WAVECAR
   LCHARG =      F    write CHGCAR
   LVTOT  =      F    write LOCPOT, total local potential
   LVHAR  =      T    write LOCPOT, Hartree potential only
   LELF   =      F    write electronic localiz. function (ELF)
   LORBIT =      0    0 simple, 1 ext, 2 COOP (PROOUT)


 Dipole corrections
   LMONO  =      F    monopole corrections only (constant potential shift)
   LDIPOL =      F    correct potential (dipole corrections)
   IDIPOL =      0    1-x, 2-y, 3-z, 4-all directions 
   EPSILON=  1.0000000 bulk dielectric constant

 Exchange correlation treatment:
   GGA     =    PE    GGA type
   LEXCH   =     8    internal setting for exchange type
   VOSKOWN=      0    Vosko Wilk Nusair interpolation
   LHFCALC =     F    Hartree Fock is set to
   LHFONE  =     F    Hartree Fock one center treatment
   AEXX    =    0.0000 exact exchange contribution

 Linear response parameters
   LEPSILON=     F    determine dielectric tensor
   LRPA    =     F    only Hartree local field effects (RPA)
   LNABLA  =     F    use nabla operator in PAW spheres
   LVEL    =     F    velocity operator in full k-point grid
   LINTERFAST=   F  fast interpolation
   KINTER  =     0    interpolate to denser k-point grid
   CSHIFT  =0.1000    complex shift for real part using Kramers Kronig
   OMEGAMAX=  -1.0    maximum frequency
   DEG_THRESHOLD= 0.2000000E-02 threshold for treating states as degnerate
   RTIME   =    0.100 relaxation time in fs

 Orbital magnetization related:
   ORBITALMAG=     F  switch on orbital magnetization
   LCHIMAG   =     F  perturbation theory with respect to B field
   DQ        =  0.001000  dq finite difference perturbation B field



--------------------------------------------------------------------------------------------------------


 Static calculation
 charge density and potential will be updated during run
 non-spin polarized calculation
 Variant of blocked Davidson
 Davidson routine will perform the subspace rotation
 perform sub-space diagonalisation
    after iterative eigenvector-optimisation
 modified Broyden-mixing scheme, WC =      100.0
 initial mixing is a Kerker type mixing with AMIX =  0.4000 and BMIX =      1.0000
 Hartree-type preconditioning will be used
 using additional bands           18
 reciprocal scheme for non local part
 use partial core corrections
 calculate Harris-corrections to forces 
   (improved forces if not selfconsistent)
 use gradient corrections 
 use of overlap-Matrix (Vanderbilt PP)
 Fermi weights with tetrahedron method with Bloechl corrections


--------------------------------------------------------------------------------------------------------


  energy-cutoff  :      500.00
  volume of cell :      629.34
      direct lattice vectors                 reciprocal lattice vectors
     5.280271118  0.116474754 -0.000005373     0.189463583 -0.003598076 -0.000000032
     0.106518764  5.608950167 -0.000000270    -0.003934377  0.178361200  0.000000067
     0.000003418 -0.000007873 21.258271417     0.000000048  0.000000001  0.047040513

  length of vectors
     5.281555589  5.609961517 21.258271417     0.189497745  0.178404588  0.047040513


 
 k-points in units of 2pi/SCALE and weight: Auto                                    
   0.00000000  0.00000000  0.00000000       0.008
   0.01722396 -0.00032710 -0.00000000       0.017
   0.03444792 -0.00065420 -0.00000001       0.017
   0.05167189 -0.00098129 -0.00000001       0.017
   0.06889585 -0.00130839 -0.00000001       0.017
   0.08611981 -0.00163549 -0.00000001       0.017
  -0.00035767  0.01621465  0.00000001       0.017
   0.01686629  0.01588756  0.00000000       0.017
   0.03409025  0.01556046  0.00000000       0.017
   0.05131422  0.01523336 -0.00000000       0.017
   0.06853818  0.01490626 -0.00000001       0.017
   0.08576214  0.01457917 -0.00000001       0.017
  -0.08647748  0.01785014  0.00000002       0.017
  -0.06925352  0.01752305  0.00000002       0.017
  -0.05202956  0.01719595  0.00000001       0.017
  -0.03480559  0.01686885  0.00000001       0.017
  -0.01758163  0.01654175  0.00000001       0.017
  -0.00071534  0.03242931  0.00000001       0.017
   0.01650862  0.03210221  0.00000001       0.017
   0.03373258  0.03177511  0.00000001       0.017
   0.05095654  0.03144802  0.00000000       0.017
   0.06818051  0.03112092  0.00000000       0.017
   0.08540447  0.03079382 -0.00000000       0.017
  -0.08683515  0.03406480  0.00000003       0.017
  -0.06961119  0.03373770  0.00000002       0.017
  -0.05238723  0.03341060  0.00000002       0.017
  -0.03516327  0.03308350  0.00000002       0.017
  -0.01793930  0.03275641  0.00000002       0.017
  -0.00107301  0.04864396  0.00000002       0.017
   0.01615095  0.04831687  0.00000002       0.017
   0.03337491  0.04798977  0.00000001       0.017
   0.05059887  0.04766267  0.00000001       0.017
   0.06782284  0.04733557  0.00000001       0.017
   0.08504680  0.04700847  0.00000000       0.017
  -0.08719282  0.05027945  0.00000003       0.017
  -0.06996886  0.04995235  0.00000003       0.017
  -0.05274490  0.04962526  0.00000003       0.017
  -0.03552094  0.04929816  0.00000002       0.017
  -0.01829697  0.04897106  0.00000002       0.017
  -0.00143068  0.06485862  0.00000002       0.017
   0.01579328  0.06453152  0.00000002       0.017
   0.03301724  0.06420442  0.00000002       0.017
   0.05024120  0.06387732  0.00000002       0.017
   0.06746517  0.06355023  0.00000001       0.017
   0.08468913  0.06322313  0.00000001       0.017
  -0.08755049  0.06649411  0.00000004       0.017
  -0.07032653  0.06616701  0.00000004       0.017
  -0.05310257  0.06583991  0.00000003       0.017
  -0.03587861  0.06551281  0.00000003       0.017
  -0.01865464  0.06518572  0.00000003       0.017
  -0.00178835  0.08107327  0.00000003       0.017
   0.01543561  0.08074618  0.00000003       0.017
   0.03265957  0.08041908  0.00000002       0.017
   0.04988353  0.08009198  0.00000002       0.017
   0.06710750  0.07976488  0.00000002       0.017
   0.08433146  0.07943778  0.00000002       0.017
  -0.08790816  0.08270876  0.00000004       0.017
  -0.07068420  0.08238166  0.00000004       0.017
  -0.05346024  0.08205457  0.00000004       0.017
  -0.03623628  0.08172747  0.00000004       0.017
  -0.01901232  0.08140037  0.00000003       0.017
 
 k-points in reciprocal lattice and weights: Auto                                    
   0.00000000  0.00000000  0.00000000       0.008
   0.09090909  0.00000000 -0.00000000       0.017
   0.18181818  0.00000000 -0.00000000       0.017
   0.27272727  0.00000000 -0.00000000       0.017
   0.36363636  0.00000000 -0.00000000       0.017
   0.45454545  0.00000000 -0.00000000       0.017
  -0.00000000  0.09090909 -0.00000000       0.017
   0.09090909  0.09090909 -0.00000000       0.017
   0.18181818  0.09090909 -0.00000000       0.017
   0.27272727  0.09090909  0.00000000       0.017
   0.36363636  0.09090909 -0.00000000       0.017
   0.45454545  0.09090909  0.00000000       0.017
  -0.45454545  0.09090909  0.00000000       0.017
  -0.36363636  0.09090909 -0.00000000       0.017
  -0.27272727  0.09090909 -0.00000000       0.017
  -0.18181818  0.09090909  0.00000000       0.017
  -0.09090909  0.09090909  0.00000000       0.017
  -0.00000000  0.18181818 -0.00000000       0.017
   0.09090909  0.18181818  0.00000000       0.017
   0.18181818  0.18181818 -0.00000000       0.017
   0.27272727  0.18181818  0.00000000       0.017
   0.36363636  0.18181818 -0.00000000       0.017
   0.45454545  0.18181818 -0.00000000       0.017
  -0.45454545  0.18181818  0.00000000       0.017
  -0.36363636  0.18181818  0.00000000       0.017
  -0.27272727  0.18181818  0.00000000       0.017
  -0.18181818  0.18181818  0.00000000       0.017
  -0.09090909  0.18181818 -0.00000000       0.017
  -0.00000000  0.27272727  0.00000000       0.017
   0.09090909  0.27272727  0.00000000       0.017
   0.18181818  0.27272727 -0.00000000       0.017
   0.27272727  0.27272727  0.00000000       0.017
   0.36363636  0.27272727 -0.00000000       0.017
   0.45454545  0.27272727 -0.00000000       0.017
  -0.45454545  0.27272727  0.00000000       0.017
  -0.36363636  0.27272727  0.00000000       0.017
  -0.27272727  0.27272727 -0.00000000       0.017
  -0.18181818  0.27272727  0.00000000       0.017
  -0.09090909  0.27272727 -0.00000000       0.017
  -0.00000000  0.36363636 -0.00000000       0.017
   0.09090909  0.36363636  0.00000000       0.017
   0.18181818  0.36363636  0.00000000       0.017
   0.27272727  0.36363636  0.00000000       0.017
   0.36363636  0.36363636 -0.00000000       0.017
   0.45454545  0.36363636  0.00000000       0.017
  -0.45454545  0.36363636  0.00000000       0.017
  -0.36363636  0.36363636  0.00000000       0.017
  -0.27272727  0.36363636  0.00000000       0.017
  -0.18181818  0.36363636 -0.00000000       0.017
  -0.09090909  0.36363636  0.00000000       0.017
  -0.00000000  0.45454545 -0.00000000       0.017
   0.09090909  0.45454545 -0.00000000       0.017
   0.18181818  0.45454545 -0.00000000       0.017
   0.27272727  0.45454545 -0.00000000       0.017
   0.36363636  0.45454545 -0.00000000       0.017
   0.45454545  0.45454545 -0.00000000       0.017
  -0.45454545  0.45454545 -0.00000000       0.017
  -0.36363636  0.45454545 -0.00000000       0.017
  -0.27272727  0.45454545  0.00000000       0.017
  -0.18181818  0.45454545 -0.00000000       0.017
  -0.09090909  0.45454545  0.00000000       0.017
 
 position of ions in fractional coordinates (direct lattice) 
   0.95246889  0.26699094  0.54975461
   0.00602509  0.69386384  0.42921129
   0.45246862  0.26699112  0.45025026
   0.50602483  0.69386383  0.57079371
   0.53080873  0.30380439  0.55320282
   0.03080839  0.30380404  0.44680231
   0.51069772  0.79016091  0.44613160
   0.01069773  0.79016086  0.55387343
 
 position of ions in cartesian coordinates  (Angst):
   5.05773542  1.60847315 11.68682753
   0.10572511  3.89254609  9.12428978
   2.41759807  1.55023749  9.57153980
   2.74585977  3.95078225 12.13408464
   2.83517678  1.76584513 11.76013267
   0.19503900  1.70760658  9.49824456
   2.78079092  4.49145304  9.48398372
   0.14065577  4.43321452 11.77439146
 


--------------------------------------------------------------------------------------------------------


 k-point  1 :   0.0000 0.0000 0.0000  plane waves:   16001
 k-point  2 :   0.0909 0.0000-0.0000  plane waves:   16007
 k-point  3 :   0.1818 0.0000-0.0000  plane waves:   15981
 k-point  4 :   0.2727 0.0000-0.0000  plane waves:   15978
 k-point  5 :   0.3636 0.0000-0.0000  plane waves:   15942
 k-point  6 :   0.4545 0.0000-0.0000  plane waves:   15986
 k-point  7 :  -0.0000 0.0909-0.0000  plane waves:   15992
 k-point  8 :   0.0909 0.0909-0.0000  plane waves:   15985
 k-point  9 :   0.1818 0.0909-0.0000  plane waves:   15976
 k-point 10 :   0.2727 0.0909 0.0000  plane waves:   15946
 k-point 11 :   0.3636 0.0909-0.0000  plane waves:   15949
 k-point 12 :   0.4545 0.0909 0.0000  plane waves:   15979
 k-point 13 :  -0.4545 0.0909 0.0000  plane waves:   15970
 k-point 14 :  -0.3636 0.0909-0.0000  plane waves:   15973
 k-point 15 :  -0.2727 0.0909-0.0000  plane waves:   15974
 k-point 16 :  -0.1818 0.0909 0.0000  plane waves:   15969
 k-point 17 :  -0.0909 0.0909 0.0000  plane waves:   15968
 k-point 18 :  -0.0000 0.1818-0.0000  plane waves:   16001
 k-point 19 :   0.0909 0.1818 0.0000  plane waves:   15978
 k-point 20 :   0.1818 0.1818-0.0000  plane waves:   15975
 k-point 21 :   0.2727 0.1818 0.0000  plane waves:   15976
 k-point 22 :   0.3636 0.1818-0.0000  plane waves:   15936
 k-point 23 :   0.4545 0.1818-0.0000  plane waves:   15945
 k-point 24 :  -0.4545 0.1818 0.0000  plane waves:   15953
 k-point 25 :  -0.3636 0.1818 0.0000  plane waves:   15981
 k-point 26 :  -0.2727 0.1818 0.0000  plane waves:   15958
 k-point 27 :  -0.1818 0.1818 0.0000  plane waves:   15992
 k-point 28 :  -0.0909 0.1818-0.0000  plane waves:   15961
 k-point 29 :  -0.0000 0.2727 0.0000  plane waves:   16004
 k-point 30 :   0.0909 0.2727 0.0000  plane waves:   15985
 k-point 31 :   0.1818 0.2727-0.0000  plane waves:   15984
 k-point 32 :   0.2727 0.2727 0.0000  plane waves:   15989
 k-point 33 :   0.3636 0.2727-0.0000  plane waves:   15952
 k-point 34 :   0.4545 0.2727-0.0000  plane waves:   15940
 k-point 35 :  -0.4545 0.2727 0.0000  plane waves:   15962
 k-point 36 :  -0.3636 0.2727 0.0000  plane waves:   15957
 k-point 37 :  -0.2727 0.2727-0.0000  plane waves:   16011
 k-point 38 :  -0.1818 0.2727 0.0000  plane waves:   15990
 k-point 39 :  -0.0909 0.2727-0.0000  plane waves:   15983
 k-point 40 :  -0.0000 0.3636-0.0000  plane waves:   15993
 k-point 41 :   0.0909 0.3636 0.0000  plane waves:   15978
 k-point 42 :   0.1818 0.3636 0.0000  plane waves:   15973
 k-point 43 :   0.2727 0.3636 0.0000  plane waves:   15954
 k-point 44 :   0.3636 0.3636-0.0000  plane waves:   15944
 k-point 45 :   0.4545 0.3636 0.0000  plane waves:   15953
 k-point 46 :  -0.4545 0.3636 0.0000  plane waves:   15977
 k-point 47 :  -0.3636 0.3636 0.0000  plane waves:   15988
 k-point 48 :  -0.2727 0.3636 0.0000  plane waves:   15999
 k-point 49 :  -0.1818 0.3636-0.0000  plane waves:   16000
 k-point 50 :  -0.0909 0.3636 0.0000  plane waves:   15996
 k-point 51 :  -0.0000 0.4545-0.0000  plane waves:   15994
 k-point 52 :   0.0909 0.4545-0.0000  plane waves:   15980
 k-point 53 :   0.1818 0.4545-0.0000  plane waves:   15980
 k-point 54 :   0.2727 0.4545-0.0000  plane waves:   15993
 k-point 55 :   0.3636 0.4545-0.0000  plane waves:   15975
 k-point 56 :   0.4545 0.4545-0.0000  plane waves:   15988
 k-point 57 :  -0.4545 0.4545-0.0000  plane waves:   15990
 k-point 58 :  -0.3636 0.4545-0.0000  plane waves:   15966
 k-point 59 :  -0.2727 0.4545 0.0000  plane waves:   15980
 k-point 60 :  -0.1818 0.4545-0.0000  plane waves:   16005
 k-point 61 :  -0.0909 0.4545 0.0000  plane waves:   15982

 maximum and minimum number of plane-waves per node :     16011    15936

 maximum number of plane-waves:     16011
 maximum index in each direction: 
   IXMAX=   10   IYMAX=   10   IZMAX=   38
   IXMIN=  -10   IYMIN=  -10   IZMIN=  -38

 WARNING: aliasing errors must be expected set NGX to  42 to avoid them
 NGY is ok and might be reduce to  42
 NGZ is ok and might be reduce to 154
 aliasing errors are usually negligible using standard VASP settings
 and one can safely disregard these warnings

 serial   3D FFT for wavefunctions
 parallel 3D FFT for charge:
    minimum data exchange during FFTs selected (reduces bandwidth)


 total amount of memory used by VASP on root node   270087. kBytes
========================================================================

   base      :      30000. kBytes
   nonl-proj :     205312. kBytes
   fftplans  :       3657. kBytes
   grid      :      15314. kBytes
   one-center:         64. kBytes
   wavefun   :      15740. kBytes
 
     INWAV:  cpu time    0.0010: real time    0.0001
 Broyden mixing: mesh for mixing (old mesh)
   NGX = 19   NGY = 21   NGZ = 77
  (NGX  = 80   NGY  = 84   NGZ  =320)
  gives a total of  30723 points

 initial charge density was supplied:
 charge density of overlapping atoms calculated
 number of electron      36.0000000 magnetization 
 keeping initial charge density in first step


--------------------------------------------------------------------------------------------------------


 Maximum index for augmentation-charges         2874 (set IRDMAX)


--------------------------------------------------------------------------------------------------------


 First call to EWALD:  gamma=   0.207
 Maximum number of real-space cells 4x 4x 1
 Maximum number of reciprocal cells 2x 2x 6

 FEWALD executed in parallel
    FEWALD:  cpu time    0.0010: real time    0.0015


----------------------------------------- Iteration    1(   1)  ---------------------------------------


    POTLOK:  cpu time    0.0810: real time    0.0808
    SETDIJ:  cpu time    0.0100: real time    0.0095
     EDDAV:  cpu time   10.8224: real time   10.8581
 BZINTS: Fermi energy:  4.782262; 36.000000 electrons
         Band energy: -93.448895;  BLOECHL correction: -0.061416
       DOS:  cpu time    0.0240: real time    0.0247
    --------------------------------------------
      LOOP:  cpu time   10.9383: real time   10.9778

 eigenvalue-minimisations  :  4392
 total energy-change (2. order) : 0.1792269E+03  (-0.1178389E+04)
 number of electron      36.0000000 magnetization 
 augmentation part       36.0000000 magnetization 

 Free energy of the ion-electron system (eV)
  ---------------------------------------------------
  alpha Z        PSCENC =         6.76191189
  Ewald energy   TEWEN  =      3230.15913431
  -Hartree energ DENC   =     -4203.39332632
  -exchange      EXHF   =         0.00000000
  -V(xc)+E(xc)   XCENC  =       -92.41147055
  PAW double counting   =      1027.00566769     -859.27814511
  entropy T*S    EENTRO =         0.00000000
  eigenvalues    EBANDS =       -93.44889458
  atomic energy  EATOM  =      1163.83202030
  Solvation  Ediel_sol  =         0.00000000
  ---------------------------------------------------
  free energy    TOTEN  =       179.22689763 eV

  energy without entropy =      179.22689763  energy(sigma->0) =      179.22689763


--------------------------------------------------------------------------------------------------------




----------------------------------------- Iteration    1(   2)  ---------------------------------------


     EDDAV:  cpu time   14.9647: real time   15.0109
 BZINTS: Fermi energy: -2.305332; 36.000000 electrons
         Band energy:-298.699613;  BLOECHL correction:  0.000000
       DOS:  cpu time    0.0050: real time    0.0049
    --------------------------------------------
      LOOP:  cpu time   14.9727: real time   15.0192

 eigenvalue-minimisations  :  6624
 total energy-change (2. order) :-0.2052507E+03  (-0.2046142E+03)
 number of electron      36.0000000 magnetization 
 augmentation part       36.0000000 magnetization 

 Free energy of the ion-electron system (eV)
  ---------------------------------------------------
  alpha Z        PSCENC =         6.76191189
  Ewald energy   TEWEN  =      3230.15913431
  -Hartree energ DENC   =     -4203.39332632
  -exchange      EXHF   =         0.00000000
  -V(xc)+E(xc)   XCENC  =       -92.41147055
  PAW double counting   =      1027.00566769     -859.27814511
  entropy T*S    EENTRO =         0.00000000
  eigenvalues    EBANDS =      -298.69961267
  atomic energy  EATOM  =      1163.83202030
  Solvation  Ediel_sol  =         0.00000000
  ---------------------------------------------------
  free energy    TOTEN  =       -26.02382046 eV

  energy without entropy =      -26.02382046  energy(sigma->0) =      -26.02382046


--------------------------------------------------------------------------------------------------------




----------------------------------------- Iteration    1(   3)  ---------------------------------------


     EDDAV:  cpu time   17.6013: real time   17.6551
 BZINTS: Fermi energy: -3.162397; 36.000000 electrons
         Band energy:-310.589917;  BLOECHL correction:  0.000000
       DOS:  cpu time    0.0040: real time    0.0043
    --------------------------------------------
      LOOP:  cpu time   17.6063: real time   17.6683

 eigenvalue-minimisations  :  7884
 total energy-change (2. order) :-0.1189030E+02  (-0.1189030E+02)
 number of electron      36.0000000 magnetization 
 augmentation part       36.0000000 magnetization 

 Free energy of the ion-electron system (eV)
  ---------------------------------------------------
  alpha Z        PSCENC =         6.76191189
  Ewald energy   TEWEN  =      3230.15913431
  -Hartree energ DENC   =     -4203.39332632
  -exchange      EXHF   =         0.00000000
  -V(xc)+E(xc)   XCENC  =       -92.41147055
  PAW double counting   =      1027.00566769     -859.27814511
  entropy T*S    EENTRO =         0.00000000
  eigenvalues    EBANDS =      -310.58991701
  atomic energy  EATOM  =      1163.83202030
  Solvation  Ediel_sol  =         0.00000000
  ---------------------------------------------------
  free energy    TOTEN  =       -37.91412480 eV

  energy without entropy =      -37.91412480  energy(sigma->0) =      -37.91412480


--------------------------------------------------------------------------------------------------------




----------------------------------------- Iteration    1(   4)  ---------------------------------------


     EDDAV:  cpu time   16.0636: real time   16.0966
 BZINTS: Fermi energy: -3.158204; 36.000000 electrons
         Band energy:-310.623808;  BLOECHL correction:  0.000000
       DOS:  cpu time    0.0030: real time    0.0041
    --------------------------------------------
      LOOP:  cpu time   16.0686: real time   16.1034

 eigenvalue-minimisations  :  7128
 total energy-change (2. order) :-0.3389113E-01  (-0.3389113E-01)
 number of electron      36.0000000 magnetization 
 augmentation part       36.0000000 magnetization 

 Free energy of the ion-electron system (eV)
  ---------------------------------------------------
  alpha Z        PSCENC =         6.76191189
  Ewald energy   TEWEN  =      3230.15913431
  -Hartree energ DENC   =     -4203.39332632
  -exchange      EXHF   =         0.00000000
  -V(xc)+E(xc)   XCENC  =       -92.41147055
  PAW double counting   =      1027.00566769     -859.27814511
  entropy T*S    EENTRO =         0.00000000
  eigenvalues    EBANDS =      -310.62380813
  atomic energy  EATOM  =      1163.83202030
  Solvation  Ediel_sol  =         0.00000000
  ---------------------------------------------------
  free energy    TOTEN  =       -37.94801593 eV

  energy without entropy =      -37.94801593  energy(sigma->0) =      -37.94801593


--------------------------------------------------------------------------------------------------------




----------------------------------------- Iteration    1(   5)  ---------------------------------------


     EDDAV:  cpu time   17.7493: real time   17.7850
 BZINTS: Fermi energy: -3.190044; 36.000000 electrons
         Band energy:-310.623892;  BLOECHL correction:  0.000000
       DOS:  cpu time    0.0040: real time    0.0042
    CHARGE:  cpu time    1.2958: real time    1.2973
    MIXING:  cpu time    0.0020: real time    0.0024
    --------------------------------------------
      LOOP:  cpu time   19.0521: real time   19.0917

 eigenvalue-minimisations  :  7920
 total energy-change (2. order) :-0.8416886E-04  (-0.8416885E-04)
 number of electron      36.0000002 magnetization 
 augmentation part       -4.4951302 magnetization 

 Broyden mixing:
  rms(total) = 0.12274E+01    rms(broyden)= 0.12274E+01
  rms(prec ) = 0.12564E+01
  weight for this iteration     100.00

 Free energy of the ion-electron system (eV)
  ---------------------------------------------------
  alpha Z        PSCENC =         6.76191189
  Ewald energy   TEWEN  =      3230.15913431
  -Hartree energ DENC   =     -4203.39332632
  -exchange      EXHF   =         0.00000000
  -V(xc)+E(xc)   XCENC  =       -92.41147055
  PAW double counting   =      1027.00566769     -859.27814511
  entropy T*S    EENTRO =         0.00000000
  eigenvalues    EBANDS =      -310.62389230
  atomic energy  EATOM  =      1163.83202030
  Solvation  Ediel_sol  =         0.00000000
  ---------------------------------------------------
  free energy    TOTEN  =       -37.94810010 eV

  energy without entropy =      -37.94810010  energy(sigma->0) =      -37.94810010


--------------------------------------------------------------------------------------------------------




----------------------------------------- Iteration    1(   6)  ---------------------------------------


    POTLOK:  cpu time    0.0710: real time    0.0713
    SETDIJ:  cpu time    0.0050: real time    0.0049
     EDDAV:  cpu time   18.0693: real time   18.1108
 BZINTS: Fermi energy: -2.736605; 36.000000 electrons
         Band energy:-294.433314;  BLOECHL correction:  0.000000
       DOS:  cpu time    0.0040: real time    0.0043
    CHARGE:  cpu time    1.2928: real time    1.2965
    MIXING:  cpu time    0.0030: real time    0.0020
    --------------------------------------------
      LOOP:  cpu time   19.4460: real time   19.4923

 eigenvalue-minimisations  :  8136
 total energy-change (2. order) : 0.9094902E+00  (-0.2506603E+00)
 number of electron      36.0000002 magnetization 
 augmentation part       -4.5561644 magnetization 

 Broyden mixing:
  rms(total) = 0.70179E+00    rms(broyden)= 0.70179E+00
  rms(prec ) = 0.71242E+00
  weight for this iteration     100.00

 eigenvalues of (default mixing * dielectric matrix)
  average eigenvalue GAMMA=   2.2051
  2.2051

 Free energy of the ion-electron system (eV)
  ---------------------------------------------------
  alpha Z        PSCENC =         6.76191189
  Ewald energy   TEWEN  =      3230.15913431
  -Hartree energ DENC   =     -4219.21735143
  -exchange      EXHF   =         0.00000000
  -V(xc)+E(xc)   XCENC  =       -91.26831973
  PAW double counting   =      1764.04810738    -1596.92079843
  entropy T*S    EENTRO =         0.00000000
  eigenvalues    EBANDS =      -294.43331421
  atomic energy  EATOM  =      1163.83202030
  Solvation  Ediel_sol  =         0.00000000
  ---------------------------------------------------
  free energy    TOTEN  =       -37.03860993 eV

  energy without entropy =      -37.03860993  energy(sigma->0) =      -37.03860993


--------------------------------------------------------------------------------------------------------




----------------------------------------- Iteration    1(   7)  ---------------------------------------


    POTLOK:  cpu time    0.0730: real time    0.0734
    SETDIJ:  cpu time    0.0050: real time    0.0049
     EDDAV:  cpu time   19.2821: real time   19.3397
 BZINTS: Fermi energy: -2.289852; 36.000000 electrons
         Band energy:-277.967942;  BLOECHL correction:  0.000000
       DOS:  cpu time    0.0040: real time    0.0042
    CHARGE:  cpu time    1.2948: real time    1.2992
    MIXING:  cpu time    0.0020: real time    0.0019
    --------------------------------------------
      LOOP:  cpu time   20.6619: real time   20.7325

 eigenvalue-minimisations  :  8712
 total energy-change (2. order) : 0.1869566E+00  (-0.1170050E+00)
 number of electron      36.0000002 magnetization 
 augmentation part       -4.5966368 magnetization 

 Broyden mixing:
  rms(total) = 0.11900E+00    rms(broyden)= 0.11900E+00
  rms(prec ) = 0.12589E+00
  weight for this iteration     100.00

 eigenvalues of (default mixing * dielectric matrix)
  average eigenvalue GAMMA=   1.8643
  1.2859  2.4426

 Free energy of the ion-electron system (eV)
  ---------------------------------------------------
  alpha Z        PSCENC =         6.76191189
  Ewald energy   TEWEN  =      3230.15913431
  -Hartree energ DENC   =     -4236.15198220
  -exchange      EXHF   =         0.00000000
  -V(xc)+E(xc)   XCENC  =       -90.04752817
  PAW double counting   =      3091.54101398    -2924.97828120
  entropy T*S    EENTRO =         0.00000000
  eigenvalues    EBANDS =      -277.96794225
  atomic energy  EATOM  =      1163.83202030
  Solvation  Ediel_sol  =         0.00000000
  ---------------------------------------------------
  free energy    TOTEN  =       -36.85165334 eV

  energy without entropy =      -36.85165334  energy(sigma->0) =      -36.85165334


--------------------------------------------------------------------------------------------------------




----------------------------------------- Iteration    1(   8)  ---------------------------------------


    POTLOK:  cpu time    0.0710: real time    0.0716
    SETDIJ:  cpu time    0.0050: real time    0.0048
     EDDAV:  cpu time   18.6322: real time   18.6688
 BZINTS: Fermi energy: -2.197034; 36.000000 electrons
         Band energy:-276.116524;  BLOECHL correction:  0.000000
       DOS:  cpu time    0.0040: real time    0.0043
    CHARGE:  cpu time    1.2948: real time    1.2976
    MIXING:  cpu time    0.0020: real time    0.0019
    --------------------------------------------
      LOOP:  cpu time   20.0110: real time   20.0516

 eigenvalue-minimisations  :  8388
 total energy-change (2. order) : 0.1973351E-01  (-0.1079871E-01)
 number of electron      36.0000002 magnetization 
 augmentation part       -4.5931349 magnetization 

 Broyden mixing:
  rms(total) = 0.48319E-01    rms(broyden)= 0.48319E-01
  rms(prec ) = 0.52634E-01
  weight for this iteration     100.00

 eigenvalues of (default mixing * dielectric matrix)
  average eigenvalue GAMMA=   1.5324
  2.4853  1.3829  0.7289

 Free energy of the ion-electron system (eV)
  ---------------------------------------------------
  alpha Z        PSCENC =         6.76191189
  Ewald energy   TEWEN  =      3230.15913431
  -Hartree energ DENC   =     -4238.07006779
  -exchange      EXHF   =         0.00000000
  -V(xc)+E(xc)   XCENC  =       -89.96396181
  PAW double counting   =      3341.49996119    -3174.93439363
  entropy T*S    EENTRO =         0.00000000
  eigenvalues    EBANDS =      -276.11652427
  atomic energy  EATOM  =      1163.83202030
  Solvation  Ediel_sol  =         0.00000000
  ---------------------------------------------------
  free energy    TOTEN  =       -36.83191982 eV

  energy without entropy =      -36.83191982  energy(sigma->0) =      -36.83191982


--------------------------------------------------------------------------------------------------------




----------------------------------------- Iteration    1(   9)  ---------------------------------------


    POTLOK:  cpu time    0.0710: real time    0.0726
    SETDIJ:  cpu time    0.0060: real time    0.0050
     EDDAV:  cpu time   19.3071: real time   19.3440
 BZINTS: Fermi energy: -2.187204; 36.000000 electrons
         Band energy:-274.828259;  BLOECHL correction:  0.000000
       DOS:  cpu time    0.0040: real time    0.0044
    CHARGE:  cpu time    1.2918: real time    1.2937
    MIXING:  cpu time    0.0020: real time    0.0019
    --------------------------------------------
      LOOP:  cpu time   20.6829: real time   20.7261

 eigenvalue-minimisations  :  8748
 total energy-change (2. order) : 0.2162660E-02  (-0.5013907E-03)
 number of electron      36.0000002 magnetization 
 augmentation part       -4.5914286 magnetization 

 Broyden mixing:
  rms(total) = 0.26716E-01    rms(broyden)= 0.26716E-01
  rms(prec ) = 0.31793E-01
  weight for this iteration     100.00

 eigenvalues of (default mixing * dielectric matrix)
  average eigenvalue GAMMA=   1.5653
  2.1314  1.8390  1.1455  1.1455

 Free energy of the ion-electron system (eV)
  ---------------------------------------------------
  alpha Z        PSCENC =         6.76191189
  Ewald energy   TEWEN  =      3230.15913431
  -Hartree energ DENC   =     -4239.39591333
  -exchange      EXHF   =         0.00000000
  -V(xc)+E(xc)   XCENC  =       -89.93905022
  PAW double counting   =      3371.56226302    -3204.98186453
  entropy T*S    EENTRO =         0.00000000
  eigenvalues    EBANDS =      -274.82825860
  atomic energy  EATOM  =      1163.83202030
  Solvation  Ediel_sol  =         0.00000000
  ---------------------------------------------------
  free energy    TOTEN  =       -36.82975716 eV

  energy without entropy =      -36.82975716  energy(sigma->0) =      -36.82975716


--------------------------------------------------------------------------------------------------------




----------------------------------------- Iteration    1(  10)  ---------------------------------------


    POTLOK:  cpu time    0.0720: real time    0.0714
    SETDIJ:  cpu time    0.0050: real time    0.0049
     EDDAV:  cpu time   18.8991: real time   18.9388
 BZINTS: Fermi energy: -2.144979; 36.000000 electrons
         Band energy:-272.893382;  BLOECHL correction:  0.000000
       DOS:  cpu time    0.0030: real time    0.0036
    CHARGE:  cpu time    1.2958: real time    1.2978
    MIXING:  cpu time    0.0030: real time    0.0023
    --------------------------------------------
      LOOP:  cpu time   20.2779: real time   20.3248

 eigenvalue-minimisations  :  8568
 total energy-change (2. order) : 0.1619165E-02  (-0.1512577E-03)
 number of electron      36.0000002 magnetization 
 augmentation part       -4.5901365 magnetization 

 Broyden mixing:
  rms(total) = 0.11394E-01    rms(broyden)= 0.11394E-01
  rms(prec ) = 0.17470E-01
  weight for this iteration     100.00

 eigenvalues of (default mixing * dielectric matrix)
  average eigenvalue GAMMA=   1.6480
  2.4879  2.4879  0.9955  1.1344  1.1344

 Free energy of the ion-electron system (eV)
  ---------------------------------------------------
  alpha Z        PSCENC =         6.76191189
  Ewald energy   TEWEN  =      3230.15913431
  -Hartree energ DENC   =     -4241.36949006
  -exchange      EXHF   =         0.00000000
  -V(xc)+E(xc)   XCENC  =       -89.91851308
  PAW double counting   =      3342.97461516    -3176.37443488
  entropy T*S    EENTRO =         0.00000000
  eigenvalues    EBANDS =      -272.89338164
  atomic energy  EATOM  =      1163.83202030
  Solvation  Ediel_sol  =         0.00000000
  ---------------------------------------------------
  free energy    TOTEN  =       -36.82813800 eV

  energy without entropy =      -36.82813800  energy(sigma->0) =      -36.82813800


--------------------------------------------------------------------------------------------------------




----------------------------------------- Iteration    1(  11)  ---------------------------------------


    POTLOK:  cpu time    0.0720: real time    0.0717
    SETDIJ:  cpu time    0.0050: real time    0.0048
     EDDAV:  cpu time   19.1341: real time   19.1722
 BZINTS: Fermi energy: -2.086564; 36.000000 electrons
         Band energy:-270.075427;  BLOECHL correction:  0.000000
       DOS:  cpu time    0.0020: real time    0.0035
    CHARGE:  cpu time    1.2978: real time    1.2986
    MIXING:  cpu time    0.0020: real time    0.0020
    --------------------------------------------
      LOOP:  cpu time   20.5129: real time   20.5555

 eigenvalue-minimisations  :  8640
 total energy-change (2. order) : 0.1599694E-02  (-0.1900391E-03)
 number of electron      36.0000002 magnetization 
 augmentation part       -4.5890946 magnetization 

 Broyden mixing:
  rms(total) = 0.62522E-02    rms(broyden)= 0.62522E-02
  rms(prec ) = 0.10134E-01
  weight for this iteration     100.00

 eigenvalues of (default mixing * dielectric matrix)
  average eigenvalue GAMMA=   1.6590
  2.5850  2.5850  1.3204  1.3204  1.2592  0.8840

 Free energy of the ion-electron system (eV)
  ---------------------------------------------------
  alpha Z        PSCENC =         6.76191189
  Ewald energy   TEWEN  =      3230.15913431
  -Hartree energ DENC   =     -4244.24665659
  -exchange      EXHF   =         0.00000000
  -V(xc)+E(xc)   XCENC  =       -89.86525420
  PAW double counting   =      3358.56598889    -3191.95825613
  entropy T*S    EENTRO =         0.00000000
  eigenvalues    EBANDS =      -270.07542677
  atomic energy  EATOM  =      1163.83202030
  Solvation  Ediel_sol  =         0.00000000
  ---------------------------------------------------
  free energy    TOTEN  =       -36.82653831 eV

  energy without entropy =      -36.82653831  energy(sigma->0) =      -36.82653831


--------------------------------------------------------------------------------------------------------




----------------------------------------- Iteration    1(  12)  ---------------------------------------


    POTLOK:  cpu time    0.0720: real time    0.0721
    SETDIJ:  cpu time    0.0050: real time    0.0048
     EDDAV:  cpu time   16.8154: real time   16.8620
 BZINTS: Fermi energy: -1.976355; 36.000000 electrons
         Band energy:-267.819630;  BLOECHL correction:  0.000000
       DOS:  cpu time    0.0030: real time    0.0043
    CHARGE:  cpu time    1.2938: real time    1.2980
    MIXING:  cpu time    0.0030: real time    0.0021
    --------------------------------------------
      LOOP:  cpu time   18.1922: real time   18.2495

 eigenvalue-minimisations  :  7560
 total energy-change (2. order) :-0.7375482E-03  (-0.1175188E-03)
 number of electron      36.0000002 magnetization 
 augmentation part       -4.5879831 magnetization 

 Broyden mixing:
  rms(total) = 0.32692E-02    rms(broyden)= 0.32692E-02
  rms(prec ) = 0.52375E-02
  weight for this iteration     100.00

 eigenvalues of (default mixing * dielectric matrix)
  average eigenvalue GAMMA=   1.8180
  3.6772  2.2509  2.2509  1.3863  1.2019  0.9794  0.9794

 Free energy of the ion-electron system (eV)
  ---------------------------------------------------
  alpha Z        PSCENC =         6.76191189
  Ewald energy   TEWEN  =      3230.15913431
  -Hartree energ DENC   =     -4246.53141027
  -exchange      EXHF   =         0.00000000
  -V(xc)+E(xc)   XCENC  =       -89.83890481
  PAW double counting   =      3348.94381345    -3182.33421119
  entropy T*S    EENTRO =         0.00000000
  eigenvalues    EBANDS =      -267.81962953
  atomic energy  EATOM  =      1163.83202030
  Solvation  Ediel_sol  =         0.00000000
  ---------------------------------------------------
  free energy    TOTEN  =       -36.82727585 eV

  energy without entropy =      -36.82727585  energy(sigma->0) =      -36.82727585


--------------------------------------------------------------------------------------------------------




----------------------------------------- Iteration    1(  13)  ---------------------------------------


    POTLOK:  cpu time    0.0710: real time    0.0716
    SETDIJ:  cpu time    0.0050: real time    0.0048
     EDDAV:  cpu time   13.8499: real time   13.8879
 BZINTS: Fermi energy: -1.943104; 36.000000 electrons
         Band energy:-266.564402;  BLOECHL correction:  0.000000
       DOS:  cpu time    0.0040: real time    0.0043
    CHARGE:  cpu time    1.2918: real time    1.2965
    MIXING:  cpu time    0.0030: real time    0.0021
    --------------------------------------------
      LOOP:  cpu time   15.2257: real time   15.2699

 eigenvalue-minimisations  :  6012
 total energy-change (2. order) :-0.1000666E-02  (-0.2642826E-04)
 number of electron      36.0000002 magnetization 
 augmentation part       -4.5872573 magnetization 

 Broyden mixing:
  rms(total) = 0.21569E-02    rms(broyden)= 0.21569E-02
  rms(prec ) = 0.30285E-02
  weight for this iteration     100.00

 eigenvalues of (default mixing * dielectric matrix)
  average eigenvalue GAMMA=   2.0486
  5.0754  2.5670  2.5670  1.6397  0.9446  0.9965  1.2994  1.2994

 Free energy of the ion-electron system (eV)
  ---------------------------------------------------
  alpha Z        PSCENC =         6.76191189
  Ewald energy   TEWEN  =      3230.15913431
  -Hartree energ DENC   =     -4247.80071249
  -exchange      EXHF   =         0.00000000
  -V(xc)+E(xc)   XCENC  =       -89.82724695
  PAW double counting   =      3348.30094030    -3181.68992196
  entropy T*S    EENTRO =         0.00000000
  eigenvalues    EBANDS =      -266.56440192
  atomic energy  EATOM  =      1163.83202030
  Solvation  Ediel_sol  =         0.00000000
  ---------------------------------------------------
  free energy    TOTEN  =       -36.82827652 eV

  energy without entropy =      -36.82827652  energy(sigma->0) =      -36.82827652


--------------------------------------------------------------------------------------------------------




----------------------------------------- Iteration    1(  14)  ---------------------------------------


    POTLOK:  cpu time    0.0710: real time    0.0719
    SETDIJ:  cpu time    0.0050: real time    0.0050
     EDDAV:  cpu time   14.1079: real time   14.1516
 BZINTS: Fermi energy: -1.976488; 36.000000 electrons
         Band energy:-265.871313;  BLOECHL correction:  0.000000
       DOS:  cpu time    0.0040: real time    0.0036
    CHARGE:  cpu time    1.2938: real time    1.2984
    MIXING:  cpu time    0.0030: real time    0.0022
    --------------------------------------------
      LOOP:  cpu time   15.4856: real time   15.5401

 eigenvalue-minimisations  :  6120
 total energy-change (2. order) :-0.1005849E-02  (-0.9374398E-05)
 number of electron      36.0000002 magnetization 
 augmentation part       -4.5869188 magnetization 

 Broyden mixing:
  rms(total) = 0.83681E-03    rms(broyden)= 0.83681E-03
  rms(prec ) = 0.12038E-02
  weight for this iteration     100.00

 eigenvalues of (default mixing * dielectric matrix)
  average eigenvalue GAMMA=   2.1118
  6.2518  2.7982  2.3287  1.9440  1.4493  0.9132  1.0391  1.0391  1.2430

 Free energy of the ion-electron system (eV)
  ---------------------------------------------------
  alpha Z        PSCENC =         6.76191189
  Ewald energy   TEWEN  =      3230.15913431
  -Hartree energ DENC   =     -4248.49647358
  -exchange      EXHF   =         0.00000000
  -V(xc)+E(xc)   XCENC  =       -89.82674285
  PAW double counting   =      3346.73228636    -3180.12010594
  entropy T*S    EENTRO =         0.00000000
  eigenvalues    EBANDS =      -265.87131284
  atomic energy  EATOM  =      1163.83202030
  Solvation  Ediel_sol  =         0.00000000
  ---------------------------------------------------
  free energy    TOTEN  =       -36.82928237 eV

  energy without entropy =      -36.82928237  energy(sigma->0) =      -36.82928237


--------------------------------------------------------------------------------------------------------




----------------------------------------- Iteration    1(  15)  ---------------------------------------


    POTLOK:  cpu time    0.0720: real time    0.0720
    SETDIJ:  cpu time    0.0050: real time    0.0049
     EDDAV:  cpu time   16.9224: real time   16.9543
 BZINTS: Fermi energy: -1.966181; 36.000000 electrons
         Band energy:-265.686888;  BLOECHL correction:  0.000000
       DOS:  cpu time    0.0020: real time    0.0035
    CHARGE:  cpu time    1.2958: real time    1.2981
    MIXING:  cpu time    0.0030: real time    0.0022
    --------------------------------------------
      LOOP:  cpu time   18.3012: real time   18.3380

 eigenvalue-minimisations  :  7560
 total energy-change (2. order) :-0.3216500E-03  (-0.1121260E-05)
 number of electron      36.0000002 magnetization 
 augmentation part       -4.5869045 magnetization 

 Broyden mixing:
  rms(total) = 0.65910E-03    rms(broyden)= 0.65910E-03
  rms(prec ) = 0.83536E-03
  weight for this iteration     100.00

 eigenvalues of (default mixing * dielectric matrix)
  average eigenvalue GAMMA=   2.1902
  6.8631  3.2348  2.4672  2.2126  1.4040  1.4040  1.3462  0.9308  0.9308  1.1085

 Free energy of the ion-electron system (eV)
  ---------------------------------------------------
  alpha Z        PSCENC =         6.76191189
  Ewald energy   TEWEN  =      3230.15913431
  -Hartree energ DENC   =     -4248.68162858
  -exchange      EXHF   =         0.00000000
  -V(xc)+E(xc)   XCENC  =       -89.82658597
  PAW double counting   =      3346.33484631    -3179.72241455
  entropy T*S    EENTRO =         0.00000000
  eigenvalues    EBANDS =      -265.68688774
  atomic energy  EATOM  =      1163.83202030
  Solvation  Ediel_sol  =         0.00000000
  ---------------------------------------------------
  free energy    TOTEN  =       -36.82960402 eV

  energy without entropy =      -36.82960402  energy(sigma->0) =      -36.82960402


--------------------------------------------------------------------------------------------------------




----------------------------------------- Iteration    1(  16)  ---------------------------------------


    POTLOK:  cpu time    0.0730: real time    0.0728
    SETDIJ:  cpu time    0.0050: real time    0.0047
     EDDAV:  cpu time   15.6436: real time   15.6870
 BZINTS: Fermi energy: -1.951731; 36.000000 electrons
         Band energy:-265.594579;  BLOECHL correction:  0.000000
       DOS:  cpu time    0.0030: real time    0.0036
    CHARGE:  cpu time    1.2928: real time    1.2967
    MIXING:  cpu time    0.0020: real time    0.0023
    --------------------------------------------
      LOOP:  cpu time   17.0194: real time   17.0707

 eigenvalue-minimisations  :  6912
 total energy-change (2. order) :-0.2567939E-03  (-0.8978589E-06)
 number of electron      36.0000002 magnetization 
 augmentation part       -4.5869608 magnetization 

 Broyden mixing:
  rms(total) = 0.29557E-03    rms(broyden)= 0.29557E-03
  rms(prec ) = 0.35912E-03
  weight for this iteration     100.00

 eigenvalues of (default mixing * dielectric matrix)
  average eigenvalue GAMMA=   2.2443
  7.3669  3.8214  2.5136  2.5136  1.6361  1.6361  1.2619  1.0634  0.9832  0.9456
  0.9456

 Free energy of the ion-electron system (eV)
  ---------------------------------------------------
  alpha Z        PSCENC =         6.76191189
  Ewald energy   TEWEN  =      3230.15913431
  -Hartree energ DENC   =     -4248.77369544
  -exchange      EXHF   =         0.00000000
  -V(xc)+E(xc)   XCENC  =       -89.82674943
  PAW double counting   =      3347.55541599    -3180.94331973
  entropy T*S    EENTRO =         0.00000000
  eigenvalues    EBANDS =      -265.59457871
  atomic energy  EATOM  =      1163.83202030
  Solvation  Ediel_sol  =         0.00000000
  ---------------------------------------------------
  free energy    TOTEN  =       -36.82986081 eV

  energy without entropy =      -36.82986081  energy(sigma->0) =      -36.82986081


--------------------------------------------------------------------------------------------------------




----------------------------------------- Iteration    1(  17)  ---------------------------------------


    POTLOK:  cpu time    0.0730: real time    0.0736
    SETDIJ:  cpu time    0.0050: real time    0.0049
     EDDAV:  cpu time   15.4347: real time   15.4782
 BZINTS: Fermi energy: -1.943942; 36.000000 electrons
         Band energy:-265.567291;  BLOECHL correction:  0.000000
       DOS:  cpu time    0.0040: real time    0.0037
    CHARGE:  cpu time    1.2928: real time    1.2967
    MIXING:  cpu time    0.0020: real time    0.0023
    --------------------------------------------
      LOOP:  cpu time   16.8124: real time   16.8619

 eigenvalue-minimisations  :  6804
 total energy-change (2. order) :-0.6575750E-04  (-0.1855894E-06)
 number of electron      36.0000002 magnetization 
 augmentation part       -4.5869636 magnetization 

 Broyden mixing:
  rms(total) = 0.10126E-03    rms(broyden)= 0.10126E-03
  rms(prec ) = 0.15632E-03
  weight for this iteration     100.00

 eigenvalues of (default mixing * dielectric matrix)
  average eigenvalue GAMMA=   2.2761
  7.7242  4.2573  2.7422  2.3811  1.8882  1.5440  1.3034  1.3034  1.2579  0.9342
  0.9885  0.9885

 Free energy of the ion-electron system (eV)
  ---------------------------------------------------
  alpha Z        PSCENC =         6.76191189
  Ewald energy   TEWEN  =      3230.15913431
  -Hartree energ DENC   =     -4248.80094692
  -exchange      EXHF   =         0.00000000
  -V(xc)+E(xc)   XCENC  =       -89.82684490
  PAW double counting   =      3347.38868500    -3180.77659503
  entropy T*S    EENTRO =         0.00000000
  eigenvalues    EBANDS =      -265.56729123
  atomic energy  EATOM  =      1163.83202030
  Solvation  Ediel_sol  =         0.00000000
  ---------------------------------------------------
  free energy    TOTEN  =       -36.82992657 eV

  energy without entropy =      -36.82992657  energy(sigma->0) =      -36.82992657


--------------------------------------------------------------------------------------------------------




----------------------------------------- Iteration    1(  18)  ---------------------------------------


    POTLOK:  cpu time    0.0740: real time    0.0751
    SETDIJ:  cpu time    0.0050: real time    0.0047
     EDDAV:  cpu time   11.9782: real time   12.0150
 BZINTS: Fermi energy: -1.943372; 36.000000 electrons
         Band energy:-265.549871;  BLOECHL correction:  0.000000
       DOS:  cpu time    0.0040: real time    0.0037
    CHARGE:  cpu time    1.2908: real time    1.2960
    MIXING:  cpu time    0.0030: real time    0.0024
    --------------------------------------------
      LOOP:  cpu time   13.3560: real time   13.4063

 eigenvalue-minimisations  :  5040
 total energy-change (2. order) :-0.2620944E-04  (-0.1118517E-06)
 number of electron      36.0000002 magnetization 
 augmentation part       -4.5869558 magnetization 

 Broyden mixing:
  rms(total) = 0.84918E-04    rms(broyden)= 0.84918E-04
  rms(prec ) = 0.11407E-03
  weight for this iteration     100.00

 eigenvalues of (default mixing * dielectric matrix)
  average eigenvalue GAMMA=   2.2570
  7.7391  4.4500  2.5945  2.5945  2.3043  1.6715  1.6715  1.2555  0.9310  0.9310
  1.1172  1.0403  1.0403

 Free energy of the ion-electron system (eV)
  ---------------------------------------------------
  alpha Z        PSCENC =         6.76191189
  Ewald energy   TEWEN  =      3230.15913431
  -Hartree energ DENC   =     -4248.81842819
  -exchange      EXHF   =         0.00000000
  -V(xc)+E(xc)   XCENC  =       -89.82681119
  PAW double counting   =      3347.44033868    -3180.82824744
  entropy T*S    EENTRO =         0.00000000
  eigenvalues    EBANDS =      -265.54987113
  atomic energy  EATOM  =      1163.83202030
  Solvation  Ediel_sol  =         0.00000000
  ---------------------------------------------------
  free energy    TOTEN  =       -36.82995278 eV

  energy without entropy =      -36.82995278  energy(sigma->0) =      -36.82995278


--------------------------------------------------------------------------------------------------------




----------------------------------------- Iteration    1(  19)  ---------------------------------------


    POTLOK:  cpu time    0.0740: real time    0.0738
    SETDIJ:  cpu time    0.0050: real time    0.0049
     EDDAV:  cpu time   16.8054: real time   16.8384
 BZINTS: Fermi energy: -1.958508; 36.000000 electrons
         Band energy:-265.542595;  BLOECHL correction:  0.000000
       DOS:  cpu time    0.0040: real time    0.0042
    CHARGE:  cpu time    1.2928: real time    1.2952
    MIXING:  cpu time    0.0030: real time    0.0025
    --------------------------------------------
      LOOP:  cpu time   18.1842: real time   18.2215

 eigenvalue-minimisations  :  7524
 total energy-change (2. order) :-0.1176724E-04  (-0.6397153E-07)
 number of electron      36.0000002 magnetization 
 augmentation part       -4.5869507 magnetization 

 Broyden mixing:
  rms(total) = 0.31655E-04    rms(broyden)= 0.31654E-04
  rms(prec ) = 0.60562E-04
  weight for this iteration     100.00

 eigenvalues of (default mixing * dielectric matrix)
  average eigenvalue GAMMA=   2.2710
  7.8187  4.8124  3.1281  2.6286  2.4485  1.6979  1.6979  1.2272  1.2272  1.2380
  1.0756  0.9479  0.9479  0.8987

 Free energy of the ion-electron system (eV)
  ---------------------------------------------------
  alpha Z        PSCENC =         6.76191189
  Ewald energy   TEWEN  =      3230.15913431
  -Hartree energ DENC   =     -4248.82566242
  -exchange      EXHF   =         0.00000000
  -V(xc)+E(xc)   XCENC  =       -89.82688902
  PAW double counting   =      3347.31140736    -3180.69929218
  entropy T*S    EENTRO =         0.00000000
  eigenvalues    EBANDS =      -265.54259478
  atomic energy  EATOM  =      1163.83202030
  Solvation  Ediel_sol  =         0.00000000
  ---------------------------------------------------
  free energy    TOTEN  =       -36.82996455 eV

  energy without entropy =      -36.82996455  energy(sigma->0) =      -36.82996455


--------------------------------------------------------------------------------------------------------




----------------------------------------- Iteration    1(  20)  ---------------------------------------


    POTLOK:  cpu time    0.0740: real time    0.0740
    SETDIJ:  cpu time    0.0050: real time    0.0049
     EDDAV:  cpu time   17.2124: real time   17.2471
 BZINTS: Fermi energy: -1.955825; 36.000000 electrons
         Band energy:-265.533932;  BLOECHL correction:  0.000000
       DOS:  cpu time    0.0040: real time    0.0042
    --------------------------------------------
      LOOP:  cpu time   17.2964: real time   17.3363

 eigenvalue-minimisations  :  7740
 total energy-change (2. order) :-0.4363421E-05  (-0.2365169E-07)
 number of electron      36.0000002 magnetization 
 augmentation part       -4.5869507 magnetization 

 Free energy of the ion-electron system (eV)
  ---------------------------------------------------
  alpha Z        PSCENC =         6.76191189
  Ewald energy   TEWEN  =      3230.15913431
  -Hartree energ DENC   =     -4248.83436924
  -exchange      EXHF   =         0.00000000
  -V(xc)+E(xc)   XCENC  =       -89.82686022
  PAW double counting   =      3347.29200364    -3180.67987796
  entropy T*S    EENTRO =         0.00000000
  eigenvalues    EBANDS =      -265.53393162
  atomic energy  EATOM  =      1163.83202030
  Solvation  Ediel_sol  =         0.00000000
  ---------------------------------------------------
  free energy    TOTEN  =       -36.82996891 eV

  energy without entropy =      -36.82996891  energy(sigma->0) =      -36.82996891


--------------------------------------------------------------------------------------------------------




 average (electrostatic) potential at core
  the test charge radii are     0.9587  1.4837
  (the norm of the test charge is              1.0000)
       1 -90.6884       2 -90.2561       3 -90.6884       4 -90.2560       5 -90.8247
       6 -90.8248       7 -44.5031       8 -44.5030
 
 
 
 E-fermi :  -1.9558     XC(G=0):  -3.1482     alpha+bet : -2.9700


 k-point     1 :       0.0000    0.0000    0.0000
  band No.  band energies     occupation 
      1     -16.0136      2.00000
      2     -13.8008      2.00000
      3     -12.1588      2.00000
      4     -12.0676      2.00000
      5     -10.2131      2.00000
      6      -9.2201      2.00000
      7      -7.5732      2.00000
      8      -7.1819      2.00000
      9      -6.8106      2.00000
     10      -6.1596      2.00000
     11      -5.4481      2.00000
     12      -4.9017      2.00000
     13      -4.4440      2.00000
     14      -4.3763      2.00000
     15      -4.3500      2.00000
     16      -3.3502      2.00000
     17      -3.1888      2.00000
     18      -2.9147      2.00000
     19      -1.8205      0.00000
     20      -1.5179      0.00000
     21       0.0040      0.00000
     22       0.6418      0.00000
     23       1.0980      0.00000
     24       1.6887      0.00000
     25       2.0348      0.00000
     26       2.2226      0.00000
     27       2.8700      0.00000
     28       2.9023      0.00000
     29       2.9316      0.00000
     30       3.4483      0.00000
     31       3.5334      0.00000
     32       3.7852      0.00000
     33       4.5350      0.00000
     34       4.6190      0.00000
     35       4.6641      0.00000
     36       4.8988      0.00000

 k-point     2 :       0.0909    0.0000   -0.0000
  band No.  band energies     occupation 
      1     -15.9790      2.00000
      2     -13.8402      2.00000
      3     -12.2194      2.00000
      4     -12.0587      2.00000
      5     -10.1627      2.00000
      6      -9.2906      2.00000
      7      -7.4723      2.00000
      8      -7.3093      2.00000
      9      -6.6639      2.00000
     10      -6.1785      2.00000
     11      -5.2946      2.00000
     12      -5.2644      2.00000
     13      -4.5580      2.00000
     14      -4.5279      2.00000
     15      -3.8594      2.00000
     16      -3.3762      2.00000
     17      -3.3406      2.00000
     18      -2.8262      2.00000
     19      -1.5583      0.00000
     20      -1.5037      0.00000
     21       0.0236      0.00000
     22       0.7893      0.00000
     23       1.0713      0.00000
     24       1.7551      0.00000
     25       2.0382      0.00000
     26       2.2676      0.00000
     27       2.6450      0.00000
     28       2.9311      0.00000
     29       2.9765      0.00000
     30       3.3989      0.00000
     31       3.5540      0.00000
     32       3.5974      0.00000
     33       4.4028      0.00000
     34       4.5415      0.00000
     35       4.7225      0.00000
     36       4.8925      0.00000

 k-point     3 :       0.1818    0.0000   -0.0000
  band No.  band energies     occupation 
      1     -15.8758      2.00000
      2     -13.9726      2.00000
      3     -12.3270      2.00000
      4     -12.0380      2.00000
      5     -10.0689      2.00000
      6      -9.4818      2.00000
      7      -7.4145      2.00000
      8      -7.2189      2.00000
      9      -6.4594      2.00000
     10      -6.2353      2.00000
     11      -5.6083      2.00000
     12      -5.1646      2.00000
     13      -4.7463      2.00000
     14      -4.6293      2.00000
     15      -3.7345      2.00000
     16      -3.4745      2.00000
     17      -2.9431      2.00000
     18      -2.8224      2.00000
     19      -1.4208      0.00000
     20      -0.9277      0.00000
     21       0.0513      0.00000
     22       0.9892      0.00000
     23       1.1884      0.00000
     24       1.6060      0.00000
     25       1.9473      0.00000
     26       2.3959      0.00000
     27       2.4432      0.00000
     28       3.0074      0.00000
     29       3.1060      0.00000
     30       3.1984      0.00000
     31       3.4370      0.00000
     32       3.6461      0.00000
     33       4.3255      0.00000
     34       4.5206      0.00000
     35       4.6456      0.00000
     36       4.7304      0.00000

 k-point     4 :       0.2727    0.0000   -0.0000
  band No.  band energies     occupation 
      1     -15.7063      2.00000
      2     -14.2110      2.00000
      3     -12.3709      2.00000
      4     -12.0229      2.00000
      5     -10.0133      2.00000
      6      -9.7241      2.00000
      7      -7.3783      2.00000
      8      -6.9962      2.00000
      9      -6.2761      2.00000
     10      -6.2515      2.00000
     11      -5.7112      2.00000
     12      -5.5316      2.00000
     13      -4.9315      2.00000
     14      -4.2397      2.00000
     15      -3.9087      2.00000
     16      -3.5882      2.00000
     17      -2.7572      2.00000
     18      -2.4400      2.00000
     19      -1.0662      0.00000
     20      -0.3515      0.00000
     21       0.0854      0.00000
     22       0.7526      0.00000
     23       1.1074      0.00000
     24       1.6411      0.00000
     25       2.2159      0.00000
     26       2.3556      0.00000
     27       2.6375      0.00000
     28       2.7639      0.00000
     29       3.1628      0.00000
     30       3.3280      0.00000
     31       3.6010      0.00000
     32       3.6292      0.00000
     33       4.1048      0.00000
     34       4.3224      0.00000
     35       4.5532      0.00000
     36       4.7452      0.00000

 k-point     5 :       0.3636    0.0000   -0.0000
  band No.  band energies     occupation 
      1     -15.4751      2.00000
      2     -14.5259      2.00000
      3     -12.3227      2.00000
      4     -12.0403      2.00000
      5     -10.0173      2.00000
      6      -9.9270      2.00000
      7      -7.2231      2.00000
      8      -6.9078      2.00000
      9      -6.3648      2.00000
     10      -6.2368      2.00000
     11      -5.7626      2.00000
     12      -5.4444      2.00000
     13      -5.0924      2.00000
     14      -4.2265      2.00000
     15      -3.9213      2.00000
     16      -3.4365      2.00000
     17      -2.6259      2.00000
     18      -2.3701      2.00000
     19      -0.4622      0.00000
     20      -0.3636      0.00000
     21       0.2093      0.00000
     22       0.6889      0.00000
     23       1.2358      0.00000
     24       1.4313      0.00000
     25       2.3698      0.00000
     26       2.5246      0.00000
     27       2.6828      0.00000
     28       2.9476      0.00000
     29       3.3538      0.00000
     30       3.5775      0.00000
     31       3.5976      0.00000
     32       3.6881      0.00000
     33       3.9139      0.00000
     34       4.2036      0.00000
     35       4.2397      0.00000
     36       4.5562      0.00000

 k-point     6 :       0.4545    0.0000   -0.0000
  band No.  band energies     occupation 
      1     -15.1903      2.00000
      2     -14.8658      2.00000
      3     -12.2180      2.00000
      4     -12.1094      2.00000
      5     -10.0452      2.00000
      6     -10.0330      2.00000
      7      -6.9950      2.00000
      8      -6.8376      2.00000
      9      -6.5736      2.00000
     10      -6.4716      2.00000
     11      -5.6052      2.00000
     12      -5.3581      2.00000
     13      -4.9518      2.00000
     14      -4.5488      2.00000
     15      -3.6329      2.00000
     16      -3.3084      2.00000
     17      -2.6379      2.00000
     18      -2.5185      2.00000
     19      -0.3757      0.00000
     20       0.0199      0.00000
     21       0.3285      0.00000
     22       0.4733      0.00000
     23       1.2242      0.00000
     24       1.5759      0.00000
     25       2.4895      0.00000
     26       2.5925      0.00000
     27       2.9466      0.00000
     28       3.1808      0.00000
     29       3.3757      0.00000
     30       3.4438      0.00000
     31       3.5335      0.00000
     32       3.7183      0.00000
     33       4.0037      0.00000
     34       4.0081      0.00000
     35       4.2185      0.00000
     36       4.4317      0.00000

 k-point     7 :      -0.0000    0.0909   -0.0000
  band No.  band energies     occupation 
      1     -16.0000      2.00000
      2     -13.7884      2.00000
      3     -12.1577      2.00000
      4     -12.1500      2.00000
      5     -10.2568      2.00000
      6      -9.1390      2.00000
      7      -7.5913      2.00000
      8      -7.1749      2.00000
      9      -6.7509      2.00000
     10      -6.0856      2.00000
     11      -5.4189      2.00000
     12      -5.1434      2.00000
     13      -4.6732      2.00000
     14      -4.4919      2.00000
     15      -3.8267      2.00000
     16      -3.3187      2.00000
     17      -3.2867      2.00000
     18      -2.8794      2.00000
     19      -1.7026      0.00000
     20      -1.4998      0.00000
     21      -0.0215      0.00000
     22       0.7526      0.00000
     23       1.1782      0.00000
     24       1.7063      0.00000
     25       2.0220      0.00000
     26       2.2668      0.00000
     27       2.7387      0.00000
     28       2.9280      0.00000
     29       2.9675      0.00000
     30       3.2758      0.00000
     31       3.4415      0.00000
     32       3.7891      0.00000
     33       4.3435      0.00000
     34       4.4376      0.00000
     35       4.6416      0.00000
     36       4.9190      0.00000

 k-point     8 :       0.0909    0.0909   -0.0000
  band No.  band energies     occupation 
      1     -15.9673      2.00000
      2     -13.8299      2.00000
      3     -12.2025      2.00000
      4     -12.1212      2.00000
      5     -10.2369      2.00000
      6      -9.2569      2.00000
      7      -7.4874      2.00000
      8      -7.3268      2.00000
      9      -6.5142      2.00000
     10      -6.1913      2.00000
     11      -5.3792      2.00000
     12      -5.3743      2.00000
     13      -4.5943      2.00000
     14      -4.3323      2.00000
     15      -3.7475      2.00000
     16      -3.3880      2.00000
     17      -3.2619      2.00000
     18      -2.8750      2.00000
     19      -1.4950      0.00000
     20      -1.4656      0.00000
     21      -0.0100      0.00000
     22       0.8539      0.00000
     23       1.1338      0.00000
     24       1.7258      0.00000
     25       1.9226      0.00000
     26       2.2956      0.00000
     27       2.5159      0.00000
     28       2.9385      0.00000
     29       3.0074      0.00000
     30       3.2251      0.00000
     31       3.5219      0.00000
     32       3.6162      0.00000
     33       4.3302      0.00000
     34       4.3583      0.00000
     35       4.7186      0.00000
     36       4.9812      0.00000

 k-point     9 :       0.1818    0.0909   -0.0000
  band No.  band energies     occupation 
      1     -15.8660      2.00000
      2     -13.9617      2.00000
      3     -12.3082      2.00000
      4     -12.0766      2.00000
      5     -10.1549      2.00000
      6      -9.4971      2.00000
      7      -7.4152      2.00000
      8      -7.2855      2.00000
      9      -6.3111      2.00000
     10      -6.2802      2.00000
     11      -5.5685      2.00000
     12      -5.3234      2.00000
     13      -4.6061      2.00000
     14      -4.4798      2.00000
     15      -3.6453      2.00000
     16      -3.3420      2.00000
     17      -3.0050      2.00000
     18      -2.8309      2.00000
     19      -1.4476      0.00000
     20      -0.8844      0.00000
     21       0.0313      0.00000
     22       1.0277      0.00000
     23       1.1947      0.00000
     24       1.5083      0.00000
     25       1.8772      0.00000
     26       2.2460      0.00000
     27       2.4351      0.00000
     28       2.9405      0.00000
     29       3.1090      0.00000
     30       3.1134      0.00000
     31       3.4085      0.00000
     32       3.6584      0.00000
     33       4.2961      0.00000
     34       4.4010      0.00000
     35       4.6263      0.00000
     36       4.7191      0.00000

 k-point    10 :       0.2727    0.0909    0.0000
  band No.  band energies     occupation 
      1     -15.6986      2.00000
      2     -14.1965      2.00000
      3     -12.3650      2.00000
      4     -12.0353      2.00000
      5     -10.0884      2.00000
      6      -9.7757      2.00000
      7      -7.3894      2.00000
      8      -7.1873      2.00000
      9      -6.1848      2.00000
     10      -6.1807      2.00000
     11      -5.5781      2.00000
     12      -5.5653      2.00000
     13      -4.7601      2.00000
     14      -4.2343      2.00000
     15      -3.8174      2.00000
     16      -3.4623      2.00000
     17      -2.7484      2.00000
     18      -2.4713      2.00000
     19      -1.1382      0.00000
     20      -0.2689      0.00000
     21       0.0925      0.00000
     22       0.7026      0.00000
     23       1.0356      0.00000
     24       1.5631      0.00000
     25       2.1433      0.00000
     26       2.2527      0.00000
     27       2.6324      0.00000
     28       2.6406      0.00000
     29       3.1794      0.00000
     30       3.2557      0.00000
     31       3.4767      0.00000
     32       3.6411      0.00000
     33       4.0000      0.00000
     34       4.3283      0.00000
     35       4.5384      0.00000
     36       4.6469      0.00000

 k-point    11 :       0.3636    0.0909   -0.0000
  band No.  band energies     occupation 
      1     -15.4694      2.00000
      2     -14.5078      2.00000
      3     -12.3386      2.00000
      4     -12.0285      2.00000
      5     -10.0673      2.00000
      6     -10.0012      2.00000
      7      -7.2811      2.00000
      8      -7.1451      2.00000
      9      -6.2468      2.00000
     10      -6.2127      2.00000
     11      -5.6156      2.00000
     12      -5.2916      2.00000
     13      -4.9673      2.00000
     14      -4.1637      2.00000
     15      -3.8628      2.00000
     16      -3.4218      2.00000
     17      -2.5820      2.00000
     18      -2.4081      2.00000
     19      -0.4238      0.00000
     20      -0.3857      0.00000
     21       0.2436      0.00000
     22       0.7030      0.00000
     23       1.0982      0.00000
     24       1.3306      0.00000
     25       2.3121      0.00000
     26       2.4628      0.00000
     27       2.5297      0.00000
     28       2.9287      0.00000
     29       3.4044      0.00000
     30       3.4432      0.00000
     31       3.5633      0.00000
     32       3.6011      0.00000
     33       3.7682      0.00000
     34       3.9657      0.00000
     35       4.2265      0.00000
     36       4.5312      0.00000

 k-point    12 :       0.4545    0.0909    0.0000
  band No.  band energies     occupation 
      1     -15.1862      2.00000
      2     -14.8457      2.00000
      3     -12.2612      2.00000
      4     -12.0829      2.00000
      5     -10.1146      2.00000
      6     -10.0624      2.00000
      7      -7.1535      2.00000
      8      -7.0179      2.00000
      9      -6.4352      2.00000
     10      -6.3956      2.00000
     11      -5.4088      2.00000
     12      -5.4022      2.00000
     13      -4.6305      2.00000
     14      -4.5450      2.00000
     15      -3.6456      2.00000
     16      -3.2624      2.00000
     17      -2.6004      2.00000
     18      -2.5733      2.00000
     19      -0.3336      0.00000
     20       0.0127      0.00000
     21       0.3817      0.00000
     22       0.4846      0.00000
     23       1.1206      0.00000
     24       1.4993      0.00000
     25       2.4027      0.00000
     26       2.4882      0.00000
     27       2.8345      0.00000
     28       3.0876      0.00000
     29       3.3134      0.00000
     30       3.3700      0.00000
     31       3.5166      0.00000
     32       3.6978      0.00000
     33       3.8443      0.00000
     34       3.9256      0.00000
     35       4.1240      0.00000
     36       4.3881      0.00000

 k-point    13 :      -0.4545    0.0909    0.0000
  band No.  band energies     occupation 
      1     -15.1698      2.00000
      2     -14.8627      2.00000
      3     -12.1901      2.00000
      4     -12.1820      2.00000
      5     -10.1198      2.00000
      6     -10.0127      2.00000
      7      -7.0822      2.00000
      8      -6.8937      2.00000
      9      -6.5768      2.00000
     10      -6.3814      2.00000
     11      -5.6748      2.00000
     12      -5.1265      2.00000
     13      -5.0665      2.00000
     14      -4.2579      2.00000
     15      -3.5024      2.00000
     16      -3.3209      2.00000
     17      -2.7143      2.00000
     18      -2.5325      2.00000
     19      -0.3820      0.00000
     20       0.0528      0.00000
     21       0.2990      0.00000
     22       0.5248      0.00000
     23       1.2148      0.00000
     24       1.5472      0.00000
     25       2.4038      0.00000
     26       2.5273      0.00000
     27       2.8637      0.00000
     28       3.1146      0.00000
     29       3.3109      0.00000
     30       3.3425      0.00000
     31       3.4972      0.00000
     32       3.6514      0.00000
     33       3.9579      0.00000
     34       4.0100      0.00000
     35       4.1626      0.00000
     36       4.3978      0.00000

 k-point    14 :      -0.3636    0.0909   -0.0000
  band No.  band energies     occupation 
      1     -15.4552      2.00000
      2     -14.5224      2.00000
      3     -12.3030      2.00000
      4     -12.1370      2.00000
      5     -10.0760      2.00000
      6      -9.8706      2.00000
      7      -7.0584      2.00000
      8      -7.0341      2.00000
      9      -6.3412      2.00000
     10      -6.2309      2.00000
     11      -5.8905      2.00000
     12      -5.6529      2.00000
     13      -4.8237      2.00000
     14      -4.0082      2.00000
     15      -3.8224      2.00000
     16      -3.4334      2.00000
     17      -2.6802      2.00000
     18      -2.3920      2.00000
     19      -0.4974      0.00000
     20      -0.3571      0.00000
     21       0.1492      0.00000
     22       0.7413      0.00000
     23       1.2781      0.00000
     24       1.5290      0.00000
     25       2.2745      0.00000
     26       2.5102      0.00000
     27       2.7037      0.00000
     28       2.9791      0.00000
     29       3.2725      0.00000
     30       3.5082      0.00000
     31       3.5635      0.00000
     32       3.6848      0.00000
     33       3.8650      0.00000
     34       4.1541      0.00000
     35       4.2414      0.00000
     36       4.4949      0.00000

 k-point    15 :      -0.2727    0.0909   -0.0000
  band No.  band energies     occupation 
      1     -15.6876      2.00000
      2     -14.2046      2.00000
      3     -12.3646      2.00000
      4     -12.1313      2.00000
      5     -10.0529      2.00000
      6      -9.6388      2.00000
      7      -7.2264      2.00000
      8      -6.9886      2.00000
      9      -6.3307      2.00000
     10      -6.2663      2.00000
     11      -5.9156      2.00000
     12      -5.6976      2.00000
     13      -4.6216      2.00000
     14      -4.1225      2.00000
     15      -3.8963      2.00000
     16      -3.5884      2.00000
     17      -2.7404      2.00000
     18      -2.4513      2.00000
     19      -1.0522      0.00000
     20      -0.4350      0.00000
     21       0.0513      0.00000
     22       0.8170      0.00000
     23       1.2187      0.00000
     24       1.8637      0.00000
     25       2.2094      0.00000
     26       2.2420      0.00000
     27       2.6808      0.00000
     28       2.7797      0.00000
     29       3.2125      0.00000
     30       3.3722      0.00000
     31       3.4716      0.00000
     32       3.6850      0.00000
     33       3.9221      0.00000
     34       4.1701      0.00000
     35       4.4361      0.00000
     36       4.5775      0.00000

 k-point    16 :      -0.1818    0.0909    0.0000
  band No.  band energies     occupation 
      1     -15.8586      2.00000
      2     -13.9616      2.00000
      3     -12.3340      2.00000
      4     -12.1455      2.00000
      5     -10.0919      2.00000
      6      -9.3776      2.00000
      7      -7.2874      2.00000
      8      -7.2035      2.00000
      9      -6.5317      2.00000
     10      -6.2426      2.00000
     11      -5.7929      2.00000
     12      -5.2416      2.00000
     13      -4.6088      2.00000
     14      -4.5412      2.00000
     15      -3.7463      2.00000
     16      -3.5567      2.00000
     17      -2.8746      2.00000
     18      -2.7199      2.00000
     19      -1.4001      0.00000
     20      -0.9754      0.00000
     21       0.0244      0.00000
     22       1.0847      0.00000
     23       1.4034      0.00000
     24       1.7149      0.00000
     25       1.9914      0.00000
     26       2.3090      0.00000
     27       2.4613      0.00000
     28       3.0255      0.00000
     29       3.1259      0.00000
     30       3.1551      0.00000
     31       3.5168      0.00000
     32       3.5731      0.00000
     33       3.9235      0.00000
     34       4.3288      0.00000
     35       4.5820      0.00000
     36       4.6826      0.00000

 k-point    17 :      -0.0909    0.0909    0.0000
  band No.  band energies     occupation 
      1     -15.9635      2.00000
      2     -13.8267      2.00000
      3     -12.2303      2.00000
      4     -12.1567      2.00000
      5     -10.1839      2.00000
      6      -9.1843      2.00000
      7      -7.4896      2.00000
      8      -7.2107      2.00000
      9      -6.7315      2.00000
     10      -6.0767      2.00000
     11      -5.5000      2.00000
     12      -5.1990      2.00000
     13      -4.6709      2.00000
     14      -4.5833      2.00000
     15      -3.6835      2.00000
     16      -3.4855      2.00000
     17      -3.2722      2.00000
     18      -2.7074      2.00000
     19      -1.5302      0.00000
     20      -1.4866      0.00000
     21       0.0024      0.00000
     22       0.9537      0.00000
     23       1.1625      0.00000
     24       1.8050      0.00000
     25       2.1587      0.00000
     26       2.3140      0.00000
     27       2.5082      0.00000
     28       2.9592      0.00000
     29       3.0192      0.00000
     30       3.2537      0.00000
     31       3.4178      0.00000
     32       3.6444      0.00000
     33       4.0420      0.00000
     34       4.4083      0.00000
     35       4.7096      0.00000
     36       4.8775      0.00000

 k-point    18 :      -0.0000    0.1818   -0.0000
  band No.  band energies     occupation 
      1     -15.9621      2.00000
      2     -13.7542      2.00000
      3     -12.3534      2.00000
      4     -12.1555      2.00000
      5     -10.3716      2.00000
      6      -8.9409      2.00000
      7      -7.6133      2.00000
      8      -7.1564      2.00000
      9      -6.5946      2.00000
     10      -6.0629      2.00000
     11      -5.3405      2.00000
     12      -5.3306      2.00000
     13      -4.8345      2.00000
     14      -4.7087      2.00000
     15      -3.4688      2.00000
     16      -3.3163      2.00000
     17      -3.0908      2.00000
     18      -2.9586      2.00000
     19      -1.4288      0.00000
     20      -1.3536      0.00000
     21      -0.0781      0.00000
     22       1.0300      0.00000
     23       1.2754      0.00000
     24       1.7521      0.00000
     25       1.8242      0.00000
     26       2.4025      0.00000
     27       2.6586      0.00000
     28       2.7202      0.00000
     29       3.0508      0.00000
     30       3.0834      0.00000
     31       3.2336      0.00000
     32       3.8578      0.00000
     33       4.2472      0.00000
     34       4.3273      0.00000
     35       4.5731      0.00000
     36       4.7754      0.00000

 k-point    19 :       0.0909    0.1818    0.0000
  band No.  band energies     occupation 
      1     -15.9310      2.00000
      2     -13.7983      2.00000
      3     -12.3120      2.00000
      4     -12.1839      2.00000
      5     -10.3780      2.00000
      6      -9.1039      2.00000
      7      -7.5204      2.00000
      8      -7.2921      2.00000
      9      -6.3092      2.00000
     10      -6.3004      2.00000
     11      -5.4230      2.00000
     12      -5.3390      2.00000
     13      -4.7276      2.00000
     14      -4.4105      2.00000
     15      -3.3587      2.00000
     16      -3.3376      2.00000
     17      -3.1944      2.00000
     18      -2.9121      2.00000
     19      -1.4411      0.00000
     20      -1.1890      0.00000
     21      -0.0613      0.00000
     22       1.0779      0.00000
     23       1.2131      0.00000
     24       1.7188      0.00000
     25       1.7289      0.00000
     26       2.3041      0.00000
     27       2.4493      0.00000
     28       2.6886      0.00000
     29       3.0669      0.00000
     30       3.1127      0.00000
     31       3.3279      0.00000
     32       3.7248      0.00000
     33       4.2480      0.00000
     34       4.2703      0.00000
     35       4.6239      0.00000
     36       4.9737      0.00000

 k-point    20 :       0.1818    0.1818   -0.0000
  band No.  band energies     occupation 
      1     -15.8316      2.00000
      2     -13.9318      2.00000
      3     -12.2820      2.00000
      4     -12.2446      2.00000
      5     -10.3143      2.00000
      6      -9.4131      2.00000
      7      -7.4050      2.00000
      8      -7.3511      2.00000
      9      -6.3993      2.00000
     10      -6.1121      2.00000
     11      -5.4955      2.00000
     12      -5.4233      2.00000
     13      -4.6071      2.00000
     14      -4.1243      2.00000
     15      -3.4455      2.00000
     16      -3.3436      2.00000
     17      -2.9990      2.00000
     18      -2.7208      2.00000
     19      -1.4555      0.00000
     20      -0.7862      0.00000
     21       0.0038      0.00000
     22       1.0952      0.00000
     23       1.3399      0.00000
     24       1.4872      0.00000
     25       1.7956      0.00000
     26       1.8067      0.00000
     27       2.5290      0.00000
     28       2.6020      0.00000
     29       3.1012      0.00000
     30       3.1953      0.00000
     31       3.5245      0.00000
     32       3.5440      0.00000
     33       4.0991      0.00000
     34       4.3311      0.00000
     35       4.5854      0.00000
     36       4.6962      0.00000

 k-point    21 :       0.2727    0.1818    0.0000
  band No.  band energies     occupation 
      1     -15.6662      2.00000
      2     -14.1648      2.00000
      3     -12.3491      2.00000
      4     -12.1680      2.00000
      5     -10.2424      2.00000
      6      -9.7578      2.00000
      7      -7.4637      2.00000
      8      -7.3498      2.00000
      9      -6.1080      2.00000
     10      -6.0943      2.00000
     11      -5.5740      2.00000
     12      -5.4905      2.00000
     13      -4.3125      2.00000
     14      -4.2155      2.00000
     15      -3.5635      2.00000
     16      -3.3097      2.00000
     17      -2.6575      2.00000
     18      -2.5434      2.00000
     19      -1.2491      0.00000
     20      -0.2022      0.00000
     21       0.1023      0.00000
     22       0.6150      0.00000
     23       1.0908      0.00000
     24       1.5531      0.00000
     25       1.7962      0.00000
     26       2.0178      0.00000
     27       2.3937      0.00000
     28       2.6821      0.00000
     29       3.2171      0.00000
     30       3.2664      0.00000
     31       3.5302      0.00000
     32       3.5754      0.00000
     33       3.7799      0.00000
     34       4.2595      0.00000
     35       4.4445      0.00000
     36       4.6183      0.00000

 k-point    22 :       0.3636    0.1818   -0.0000
  band No.  band energies     occupation 
      1     -15.4393      2.00000
      2     -14.4724      2.00000
      3     -12.3491      2.00000
      4     -12.1131      2.00000
      5     -10.1943      2.00000
      6     -10.0446      2.00000
      7      -7.5038      2.00000
      8      -7.3460      2.00000
      9      -6.2299      2.00000
     10      -5.9139      2.00000
     11      -5.4456      2.00000
     12      -5.3418      2.00000
     13      -4.5056      2.00000
     14      -3.9831      2.00000
     15      -3.6046      2.00000
     16      -3.3464      2.00000
     17      -2.5165      2.00000
     18      -2.4850      2.00000
     19      -0.5603      0.00000
     20      -0.2694      0.00000
     21       0.2692      0.00000
     22       0.7085      0.00000
     23       0.9451      0.00000
     24       1.2661      0.00000
     25       1.9069      0.00000
     26       2.1898      0.00000
     27       2.2982      0.00000
     28       2.8909      0.00000
     29       3.2436      0.00000
     30       3.4111      0.00000
     31       3.4834      0.00000
     32       3.5671      0.00000
     33       3.7483      0.00000
     34       3.9503      0.00000
     35       4.2215      0.00000
     36       4.4304      0.00000

 k-point    23 :       0.4545    0.1818   -0.0000
  band No.  band energies     occupation 
      1     -15.1586      2.00000
      2     -14.8073      2.00000
      3     -12.3120      2.00000
      4     -12.1165      2.00000
      5     -10.2115      2.00000
      6     -10.1466      2.00000
      7      -7.4044      2.00000
      8      -7.3842      2.00000
      9      -6.2488      2.00000
     10      -6.0938      2.00000
     11      -5.3169      2.00000
     12      -5.2061      2.00000
     13      -4.2930      2.00000
     14      -4.2446      2.00000
     15      -3.4980      2.00000
     16      -3.2032      2.00000
     17      -2.6574      2.00000
     18      -2.5490      2.00000
     19      -0.2567      0.00000
     20       0.0089      0.00000
     21       0.4461      0.00000
     22       0.5654      0.00000
     23       0.9477      0.00000
     24       1.3290      0.00000
     25       1.9217      0.00000
     26       2.0702      0.00000
     27       2.6014      0.00000
     28       2.8433      0.00000
     29       3.0950      0.00000
     30       3.3135      0.00000
     31       3.4919      0.00000
     32       3.6367      0.00000
     33       3.8346      0.00000
     34       3.9501      0.00000
     35       4.2094      0.00000
     36       4.2800      0.00000

 k-point    24 :      -0.4545    0.1818    0.0000
  band No.  band energies     occupation 
      1     -15.1296      2.00000
      2     -14.8373      2.00000
      3     -12.2821      2.00000
      4     -12.1871      2.00000
      5     -10.2502      2.00000
      6     -10.0432      2.00000
      7      -7.4217      2.00000
      8      -7.1814      2.00000
      9      -6.3271      2.00000
     10      -6.1362      2.00000
     11      -5.5662      2.00000
     12      -5.0440      2.00000
     13      -4.7436      2.00000
     14      -3.8499      2.00000
     15      -3.3176      2.00000
     16      -3.2711      2.00000
     17      -2.7593      2.00000
     18      -2.5900      2.00000
     19      -0.3518      0.00000
     20       0.0985      0.00000
     21       0.3319      0.00000
     22       0.6191      0.00000
     23       1.1352      0.00000
     24       1.4173      0.00000
     25       1.9863      0.00000
     26       2.0541      0.00000
     27       2.6021      0.00000
     28       2.9261      0.00000
     29       3.1039      0.00000
     30       3.1619      0.00000
     31       3.4347      0.00000
     32       3.6046      0.00000
     33       3.9019      0.00000
     34       3.9722      0.00000
     35       4.2653      0.00000
     36       4.4425      0.00000

 k-point    25 :      -0.3636    0.1818    0.0000
  band No.  band energies     occupation 
      1     -15.4143      2.00000
      2     -14.4981      2.00000
      3     -12.2847      2.00000
      4     -12.2841      2.00000
      5     -10.2175      2.00000
      6      -9.8442      2.00000
      7      -7.3691      2.00000
      8      -6.9614      2.00000
      9      -6.4587      2.00000
     10      -6.0331      2.00000
     11      -5.8117      2.00000
     12      -5.5608      2.00000
     13      -4.5060      2.00000
     14      -3.6829      2.00000
     15      -3.5739      2.00000
     16      -3.4663      2.00000
     17      -2.6476      2.00000
     18      -2.4541      2.00000
     19      -0.4847      0.00000
     20      -0.3825      0.00000
     21       0.1388      0.00000
     22       0.8167      0.00000
     23       1.2592      0.00000
     24       1.5580      0.00000
     25       1.8709      0.00000
     26       2.2591      0.00000
     27       2.4598      0.00000
     28       3.0335      0.00000
     29       3.1482      0.00000
     30       3.2641      0.00000
     31       3.5632      0.00000
     32       3.5999      0.00000
     33       3.7868      0.00000
     34       4.0027      0.00000
     35       4.2350      0.00000
     36       4.5492      0.00000

 k-point    26 :      -0.2727    0.1818    0.0000
  band No.  band energies     occupation 
      1     -15.6467      2.00000
      2     -14.1789      2.00000
      3     -12.3477      2.00000
      4     -12.3125      2.00000
      5     -10.1893      2.00000
      6      -9.5578      2.00000
      7      -7.1888      2.00000
      8      -6.9708      2.00000
      9      -6.4196      2.00000
     10      -6.4185      2.00000
     11      -5.8421      2.00000
     12      -5.6494      2.00000
     13      -4.2304      2.00000
     14      -3.9620      2.00000
     15      -3.7808      2.00000
     16      -3.6060      2.00000
     17      -2.6018      2.00000
     18      -2.4582      2.00000
     19      -1.0526      0.00000
     20      -0.4731      0.00000
     21       0.0307      0.00000
     22       0.8747      0.00000
     23       1.3029      0.00000
     24       1.8357      0.00000
     25       1.9621      0.00000
     26       2.1752      0.00000
     27       2.5533      0.00000
     28       2.7727      0.00000
     29       3.2430      0.00000
     30       3.3849      0.00000
     31       3.4209      0.00000
     32       3.6164      0.00000
     33       3.7231      0.00000
     34       4.1402      0.00000
     35       4.4497      0.00000
     36       4.5172      0.00000

 k-point    27 :      -0.1818    0.1818    0.0000
  band No.  band energies     occupation 
      1     -15.8183      2.00000
      2     -13.9315      2.00000
      3     -12.3458      2.00000
      4     -12.3282      2.00000
      5     -10.2132      2.00000
      6      -9.2414      2.00000
      7      -7.1842      2.00000
      8      -7.0405      2.00000
      9      -6.6028      2.00000
     10      -6.5546      2.00000
     11      -5.5604      2.00000
     12      -5.4851      2.00000
     13      -4.4833      2.00000
     14      -4.2967      2.00000
     15      -3.6739      2.00000
     16      -3.6596      2.00000
     17      -2.7132      2.00000
     18      -2.5522      2.00000
     19      -1.3636      0.00000
     20      -0.9575      0.00000
     21      -0.0198      0.00000
     22       1.2228      0.00000
     23       1.6861      0.00000
     24       1.7330      0.00000
     25       1.9392      0.00000
     26       1.9849      0.00000
     27       2.5788      0.00000
     28       2.6793      0.00000
     29       3.0977      0.00000
     30       3.2595      0.00000
     31       3.4921      0.00000
     32       3.6051      0.00000
     33       3.8722      0.00000
     34       4.2421      0.00000
     35       4.5003      0.00000
     36       4.6178      0.00000

 k-point    28 :      -0.0909    0.1818   -0.0000
  band No.  band energies     occupation 
      1     -15.9243      2.00000
      2     -13.7926      2.00000
      3     -12.3635      2.00000
      4     -12.2336      2.00000
      5     -10.2917      2.00000
      6      -8.9978      2.00000
      7      -7.4943      2.00000
      8      -7.0540      2.00000
      9      -6.7062      2.00000
     10      -6.2114      2.00000
     11      -5.5091      2.00000
     12      -5.1719      2.00000
     13      -4.8278      2.00000
     14      -4.6231      2.00000
     15      -3.6603      2.00000
     16      -3.4351      2.00000
     17      -2.9542      2.00000
     18      -2.6748      2.00000
     19      -1.4280      0.00000
     20      -1.3212      0.00000
     21      -0.0545      0.00000
     22       1.2771      0.00000
     23       1.2774      0.00000
     24       1.8461      0.00000
     25       1.9115      0.00000
     26       2.4079      0.00000
     27       2.5418      0.00000
     28       2.7201      0.00000
     29       3.0193      0.00000
     30       3.1383      0.00000
     31       3.2966      0.00000
     32       3.7252      0.00000
     33       3.9401      0.00000
     34       4.3742      0.00000
     35       4.5702      0.00000
     36       4.6957      0.00000

 k-point    29 :      -0.0000    0.2727    0.0000
  band No.  band energies     occupation 
      1     -15.9093      2.00000
      2     -13.7067      2.00000
      3     -12.5927      2.00000
      4     -12.1544      2.00000
      5     -10.5164      2.00000
      6      -8.7102      2.00000
      7      -7.6028      2.00000
      8      -7.1359      2.00000
      9      -6.4192      2.00000
     10      -6.2854      2.00000
     11      -5.3111      2.00000
     12      -5.2597      2.00000
     13      -4.8238      2.00000
     14      -4.7942      2.00000
     15      -3.6715      2.00000
     16      -3.1860      2.00000
     17      -3.1526      2.00000
     18      -2.5244      2.00000
     19      -1.2350      0.00000
     20      -0.9991      0.00000
     21      -0.1141      0.00000
     22       0.9669      0.00000
     23       1.1967      0.00000
     24       1.8112      0.00000
     25       1.9281      0.00000
     26       2.2654      0.00000
     27       2.6255      0.00000
     28       2.8152      0.00000
     29       2.9640      0.00000
     30       3.2695      0.00000
     31       3.2875      0.00000
     32       3.9476      0.00000
     33       4.1164      0.00000
     34       4.2071      0.00000
     35       4.4636      0.00000
     36       4.6896      0.00000

 k-point    30 :       0.0909    0.2727    0.0000
  band No.  band energies     occupation 
      1     -15.8790      2.00000
      2     -13.7536      2.00000
      3     -12.5486      2.00000
      4     -12.1704      2.00000
      5     -10.5367      2.00000
      6      -8.9023      2.00000
      7      -7.5326      2.00000
      8      -7.2397      2.00000
      9      -6.5392      2.00000
     10      -6.1761      2.00000
     11      -5.3562      2.00000
     12      -5.0724      2.00000
     13      -4.7658      2.00000
     14      -4.5824      2.00000
     15      -3.5183      2.00000
     16      -3.2436      2.00000
     17      -3.0918      2.00000
     18      -2.6005      2.00000
     19      -1.2661      0.00000
     20      -0.8305      0.00000
     21      -0.0769      0.00000
     22       0.8702      0.00000
     23       1.1531      0.00000
     24       1.7472      0.00000
     25       1.8470      0.00000
     26       2.3075      0.00000
     27       2.3678      0.00000
     28       2.6390      0.00000
     29       3.0041      0.00000
     30       3.2861      0.00000
     31       3.3036      0.00000
     32       3.8394      0.00000
     33       4.0843      0.00000
     34       4.1494      0.00000
     35       4.5498      0.00000
     36       4.6946      0.00000

 k-point    31 :       0.1818    0.2727   -0.0000
  band No.  band energies     occupation 
      1     -15.7808      2.00000
      2     -13.8909      2.00000
      3     -12.4688      2.00000
      4     -12.2566      2.00000
      5     -10.4897      2.00000
      6      -9.2715      2.00000
      7      -7.5352      2.00000
      8      -7.2888      2.00000
      9      -6.5624      2.00000
     10      -6.0719      2.00000
     11      -5.3742      2.00000
     12      -5.0959      2.00000
     13      -4.5922      2.00000
     14      -4.0437      2.00000
     15      -3.4758      2.00000
     16      -3.3081      2.00000
     17      -2.6975      2.00000
     18      -2.6777      2.00000
     19      -1.3518      0.00000
     20      -0.5378      0.00000
     21       0.0251      0.00000
     22       0.7638      0.00000
     23       1.2366      0.00000
     24       1.5424      0.00000
     25       1.7200      0.00000
     26       1.7306      0.00000
     27       2.3755      0.00000
     28       2.6918      0.00000
     29       3.0870      0.00000
     30       3.3448      0.00000
     31       3.4643      0.00000
     32       3.6663      0.00000
     33       3.8874      0.00000
     34       4.1858      0.00000
     35       4.4609      0.00000
     36       4.5795      0.00000

 k-point    32 :       0.2727    0.2727    0.0000
  band No.  band energies     occupation 
      1     -15.6171      2.00000
      2     -14.1245      2.00000
      3     -12.3664      2.00000
      4     -12.3283      2.00000
      5     -10.4158      2.00000
      6      -9.6764      2.00000
      7      -7.7273      2.00000
      8      -7.3602      2.00000
      9      -6.1317      2.00000
     10      -6.1175      2.00000
     11      -5.2984      2.00000
     12      -5.1971      2.00000
     13      -4.2190      2.00000
     14      -4.0140      2.00000
     15      -3.3292      2.00000
     16      -3.1653      2.00000
     17      -2.5863      2.00000
     18      -2.4663      2.00000
     19      -1.2881      0.00000
     20      -0.1047      0.00000
     21       0.1690      0.00000
     22       0.5306      0.00000
     23       0.9539      0.00000
     24       1.2619      0.00000
     25       1.5086      0.00000
     26       1.7939      0.00000
     27       2.3370      0.00000
     28       2.8085      0.00000
     29       3.1328      0.00000
     30       3.2706      0.00000
     31       3.4968      0.00000
     32       3.5502      0.00000
     33       3.7918      0.00000
     34       4.1838      0.00000
     35       4.3625      0.00000
     36       4.4332      0.00000

 k-point    33 :       0.3636    0.2727   -0.0000
  band No.  band energies     occupation 
      1     -15.3923      2.00000
      2     -14.4297      2.00000
      3     -12.3539      2.00000
      4     -12.2672      2.00000
      5     -10.3415      2.00000
      6     -10.0271      2.00000
      7      -7.8334      2.00000
      8      -7.4984      2.00000
      9      -6.1415      2.00000
     10      -5.6820      2.00000
     11      -5.2351      2.00000
     12      -5.1422      2.00000
     13      -4.1653      2.00000
     14      -3.9097      2.00000
     15      -3.2651      2.00000
     16      -3.1713      2.00000
     17      -2.5262      2.00000
     18      -2.3385      2.00000
     19      -0.7309      0.00000
     20      -0.1376      0.00000
     21       0.3545      0.00000
     22       0.4694      0.00000
     23       1.0011      0.00000
     24       1.0787      0.00000
     25       1.3653      0.00000
     26       1.8043      0.00000
     27       2.0398      0.00000
     28       2.8439      0.00000
     29       3.0878      0.00000
     30       3.2399      0.00000
     31       3.3460      0.00000
     32       3.6858      0.00000
     33       3.8332      0.00000
     34       4.0949      0.00000
     35       4.2294      0.00000
     36       4.4257      0.00000

 k-point    34 :       0.4545    0.2727   -0.0000
  band No.  band energies     occupation 
      1     -15.1143      2.00000
      2     -14.7611      2.00000
      3     -12.3609      2.00000
      4     -12.2086      2.00000
      5     -10.2655      2.00000
      6     -10.2477      2.00000
      7      -7.7682      2.00000
      8      -7.6604      2.00000
      9      -6.0369      2.00000
     10      -5.7714      2.00000
     11      -5.1245      2.00000
     12      -4.9378      2.00000
     13      -4.0341      2.00000
     14      -3.9823      2.00000
     15      -3.2262      2.00000
     16      -3.1885      2.00000
     17      -2.6237      2.00000
     18      -2.3694      2.00000
     19      -0.1520      0.00000
     20      -0.0482      0.00000
     21       0.4933      0.00000
     22       0.6636      0.00000
     23       0.8313      0.00000
     24       0.9980      0.00000
     25       1.3677      0.00000
     26       1.4487      0.00000
     27       2.2770      0.00000
     28       2.5351      0.00000
     29       2.8404      0.00000
     30       3.3579      0.00000
     31       3.4025      0.00000
     32       3.6168      0.00000
     33       3.9324      0.00000
     34       4.0802      0.00000
     35       4.2659      0.00000
     36       4.3409      0.00000

 k-point    35 :      -0.4545    0.2727    0.0000
  band No.  band energies     occupation 
      1     -15.0805      2.00000
      2     -14.7960      2.00000
      3     -12.3854      2.00000
      4     -12.2182      2.00000
      5     -10.3695      2.00000
      6     -10.0872      2.00000
      7      -7.7590      2.00000
      8      -7.5493      2.00000
      9      -6.0105      2.00000
     10      -5.8749      2.00000
     11      -5.2951      2.00000
     12      -4.8952      2.00000
     13      -4.3839      2.00000
     14      -3.5720      2.00000
     15      -3.3283      2.00000
     16      -3.0482      2.00000
     17      -2.5958      2.00000
     18      -2.5610      2.00000
     19      -0.2965      0.00000
     20       0.1522      0.00000
     21       0.4525      0.00000
     22       0.7126      0.00000
     23       0.9883      0.00000
     24       1.1882      0.00000
     25       1.3546      0.00000
     26       1.3804      0.00000
     27       2.2268      0.00000
     28       2.6327      0.00000
     29       2.7813      0.00000
     30       2.9151      0.00000
     31       3.5429      0.00000
     32       3.7374      0.00000
     33       4.0754      0.00000
     34       4.0905      0.00000
     35       4.2888      0.00000
     36       4.5201      0.00000

 k-point    36 :      -0.3636    0.2727    0.0000
  band No.  band energies     occupation 
      1     -15.3631      2.00000
      2     -14.4593      2.00000
      3     -12.4388      2.00000
      4     -12.2767      2.00000
      5     -10.3780      2.00000
      6      -9.8310      2.00000
      7      -7.7211      2.00000
      8      -7.2353      2.00000
      9      -6.2422      2.00000
     10      -5.8742      2.00000
     11      -5.5322      2.00000
     12      -5.2999      2.00000
     13      -4.2063      2.00000
     14      -3.6377      2.00000
     15      -3.3729      2.00000
     16      -3.2399      2.00000
     17      -2.5005      2.00000
     18      -2.4471      2.00000
     19      -0.4170      0.00000
     20      -0.3808      0.00000
     21       0.2230      0.00000
     22       0.8260      0.00000
     23       1.0739      0.00000
     24       1.3747      0.00000
     25       1.4494      0.00000
     26       1.7600      0.00000
     27       2.1360      0.00000
     28       2.8696      0.00000
     29       2.9545      0.00000
     30       3.1028      0.00000
     31       3.3298      0.00000
     32       3.7123      0.00000
     33       3.9183      0.00000
     34       4.2596      0.00000
     35       4.2760      0.00000
     36       4.7909      0.00000

 k-point    37 :      -0.2727    0.2727   -0.0000
  band No.  band energies     occupation 
      1     -15.5942      2.00000
      2     -14.1408      2.00000
      3     -12.5061      2.00000
      4     -12.3258      2.00000
      5     -10.3654      2.00000
      6      -9.4909      2.00000
      7      -7.5065      2.00000
      8      -6.9398      2.00000
      9      -6.4178      2.00000
     10      -6.4170      2.00000
     11      -5.6853      2.00000
     12      -5.2770      2.00000
     13      -3.9755      2.00000
     14      -3.9147      2.00000
     15      -3.6261      2.00000
     16      -3.5523      2.00000
     17      -2.4070      2.00000
     18      -2.3936      2.00000
     19      -0.9738      0.00000
     20      -0.4106      0.00000
     21       0.0700      0.00000
     22       0.8161      0.00000
     23       1.0451      0.00000
     24       1.5742      0.00000
     25       1.6785      0.00000
     26       1.9135      0.00000
     27       2.4663      0.00000
     28       2.9225      0.00000
     29       3.1448      0.00000
     30       3.2987      0.00000
     31       3.5283      0.00000
     32       3.5619      0.00000
     33       3.8039      0.00000
     34       4.3117      0.00000
     35       4.3155      0.00000
     36       4.4479      0.00000

 k-point    38 :      -0.1818    0.2727    0.0000
  band No.  band energies     occupation 
      1     -15.7652      2.00000
      2     -13.8903      2.00000
      3     -12.5648      2.00000
      4     -12.3113      2.00000
      5     -10.3838      2.00000
      6      -9.1169      2.00000
      7      -7.1906      2.00000
      8      -6.9285      2.00000
      9      -6.8477      2.00000
     10      -6.5274      2.00000
     11      -5.5836      2.00000
     12      -5.1809      2.00000
     13      -4.3407      2.00000
     14      -4.2493      2.00000
     15      -3.8292      2.00000
     16      -3.4770      2.00000
     17      -2.4738      2.00000
     18      -2.4348      2.00000
     19      -1.2271      0.00000
     20      -0.8165      0.00000
     21      -0.0293      0.00000
     22       0.9467      0.00000
     23       1.5922      0.00000
     24       1.5972      0.00000
     25       1.8762      0.00000
     26       2.0245      0.00000
     27       2.3401      0.00000
     28       2.7581      0.00000
     29       3.2562      0.00000
     30       3.4144      0.00000
     31       3.6434      0.00000
     32       3.6901      0.00000
     33       3.8295      0.00000
     34       4.1001      0.00000
     35       4.4687      0.00000
     36       4.5383      0.00000

 k-point    39 :      -0.0909    0.2727   -0.0000
  band No.  band energies     occupation 
      1     -15.8711      2.00000
      2     -13.7466      2.00000
      3     -12.5971      2.00000
      4     -12.2292      2.00000
      5     -10.4448      2.00000
      6      -8.8070      2.00000
      7      -7.4588      2.00000
      8      -6.9612      2.00000
      9      -6.5640      2.00000
     10      -6.5609      2.00000
     11      -5.2987      2.00000
     12      -5.2347      2.00000
     13      -4.7185      2.00000
     14      -4.6833      2.00000
     15      -3.8600      2.00000
     16      -3.2733      2.00000
     17      -2.7837      2.00000
     18      -2.4826      2.00000
     19      -1.2550      0.00000
     20      -1.0340      0.00000
     21      -0.0925      0.00000
     22       0.9823      0.00000
     23       1.4223      0.00000
     24       1.8278      0.00000
     25       1.9199      0.00000
     26       2.2706      0.00000
     27       2.5876      0.00000
     28       2.7046      0.00000
     29       3.0325      0.00000
     30       3.3213      0.00000
     31       3.4166      0.00000
     32       3.8115      0.00000
     33       4.0093      0.00000
     34       4.2580      0.00000
     35       4.4759      0.00000
     36       4.5522      0.00000

 k-point    40 :      -0.0000    0.3636   -0.0000
  band No.  band energies     occupation 
      1     -15.8572      2.00000
      2     -13.6599      2.00000
      3     -12.7948      2.00000
      4     -12.1557      2.00000
      5     -10.6444      2.00000
      6      -8.5126      2.00000
      7      -7.5646      2.00000
      8      -7.1266      2.00000
      9      -6.5114      2.00000
     10      -6.3270      2.00000
     11      -5.4439      2.00000
     12      -5.1998      2.00000
     13      -4.6525      2.00000
     14      -4.5494      2.00000
     15      -3.8399      2.00000
     16      -3.3455      2.00000
     17      -3.0905      2.00000
     18      -2.1491      2.00000
     19      -1.0609      0.00000
     20      -0.8642      0.00000
     21      -0.0640      0.00000
     22       0.8408      0.00000
     23       0.9576      0.00000
     24       1.8495      0.00000
     25       2.2175      0.00000
     26       2.2823      0.00000
     27       2.9043      0.00000
     28       2.9607      0.00000
     29       3.0360      0.00000
     30       3.4046      0.00000
     31       3.4822      0.00000
     32       3.7154      0.00000
     33       3.7636      0.00000
     34       4.1065      0.00000
     35       4.1637      0.00000
     36       4.1877      0.00000

 k-point    41 :       0.0909    0.3636    0.0000
  band No.  band energies     occupation 
      1     -15.8264      2.00000
      2     -13.7087      2.00000
      3     -12.7554      2.00000
      4     -12.1687      2.00000
      5     -10.6626      2.00000
      6      -8.7163      2.00000
      7      -7.5103      2.00000
      8      -7.1887      2.00000
      9      -6.7560      2.00000
     10      -6.2053      2.00000
     11      -5.1592      2.00000
     12      -4.9974      2.00000
     13      -4.6763      2.00000
     14      -4.5295      2.00000
     15      -3.6116      2.00000
     16      -3.3516      2.00000
     17      -3.1474      2.00000
     18      -2.2102      2.00000
     19      -0.8957      0.00000
     20      -0.8581      0.00000
     21      -0.0063      0.00000
     22       0.7717      0.00000
     23       0.8383      0.00000
     24       1.7370      0.00000
     25       2.1304      0.00000
     26       2.4162      0.00000
     27       2.5017      0.00000
     28       2.8831      0.00000
     29       2.9587      0.00000
     30       3.3604      0.00000
     31       3.4358      0.00000
     32       3.6412      0.00000
     33       3.6918      0.00000
     34       4.0665      0.00000
     35       4.1118      0.00000
     36       4.3890      0.00000

 k-point    42 :       0.1818    0.3636    0.0000
  band No.  band energies     occupation 
      1     -15.7282      2.00000
      2     -13.8511      2.00000
      3     -12.6736      2.00000
      4     -12.2417      2.00000
      5     -10.6270      2.00000
      6      -9.1239      2.00000
      7      -7.6324      2.00000
      8      -7.2525      2.00000
      9      -6.6868      2.00000
     10      -6.1690      2.00000
     11      -5.0340      2.00000
     12      -4.7780      2.00000
     13      -4.5517      2.00000
     14      -4.1259      2.00000
     15      -3.5739      2.00000
     16      -3.2231      2.00000
     17      -2.8615      2.00000
     18      -2.3337      2.00000
     19      -1.0144      0.00000
     20      -0.4663      0.00000
     21       0.1176      0.00000
     22       0.5793      0.00000
     23       0.7762      0.00000
     24       1.5996      0.00000
     25       1.6011      0.00000
     26       1.9953      0.00000
     27       2.4692      0.00000
     28       2.8911      0.00000
     29       2.9996      0.00000
     30       3.2775      0.00000
     31       3.5488      0.00000
     32       3.6112      0.00000
     33       3.6309      0.00000
     34       3.8931      0.00000
     35       4.1498      0.00000
     36       4.4996      0.00000

 k-point    43 :       0.2727    0.3636    0.0000
  band No.  band energies     occupation 
      1     -15.5650      2.00000
      2     -14.0883      2.00000
      3     -12.5598      2.00000
      4     -12.3092      2.00000
      5     -10.5562      2.00000
      6      -9.5675      2.00000
      7      -7.9184      2.00000
      8      -7.4215      2.00000
      9      -6.1630      2.00000
     10      -6.1476      2.00000
     11      -4.9122      2.00000
     12      -4.8943      2.00000
     13      -4.2262      2.00000
     14      -3.8598      2.00000
     15      -3.3790      2.00000
     16      -2.9606      2.00000
     17      -2.4787      2.00000
     18      -2.4526      2.00000
     19      -1.0854      0.00000
     20       0.0592      0.00000
     21       0.2814      0.00000
     22       0.3006      0.00000
     23       0.7582      0.00000
     24       0.8084      0.00000
     25       1.5539      0.00000
     26       1.6993      0.00000
     27       2.4500      0.00000
     28       2.7096      0.00000
     29       2.8453      0.00000
     30       3.0687      0.00000
     31       3.4850      0.00000
     32       3.6238      0.00000
     33       3.8746      0.00000
     34       3.9320      0.00000
     35       4.2588      0.00000
     36       4.5253      0.00000

 k-point    44 :       0.3636    0.3636   -0.0000
  band No.  band energies     occupation 
      1     -15.3416      2.00000
      2     -14.3931      2.00000
      3     -12.4344      2.00000
      4     -12.3505      2.00000
      5     -10.4647      2.00000
      6      -9.9624      2.00000
      7      -8.0731      2.00000
      8      -7.6666      2.00000
      9      -6.0393      2.00000
     10      -5.6196      2.00000
     11      -5.0038      2.00000
     12      -4.7775      2.00000
     13      -3.9340      2.00000
     14      -3.9136      2.00000
     15      -3.2087      2.00000
     16      -2.8411      2.00000
     17      -2.4211      2.00000
     18      -2.1983      2.00000
     19      -0.7900      0.00000
     20      -0.1367      0.00000
     21       0.3935      0.00000
     22       0.4984      0.00000
     23       0.6626      0.00000
     24       0.7705      0.00000
     25       1.3569      0.00000
     26       1.6018      0.00000
     27       1.8736      0.00000
     28       2.5327      0.00000
     29       2.6911      0.00000
     30       2.9615      0.00000
     31       3.3385      0.00000
     32       3.8565      0.00000
     33       4.0217      0.00000
     34       4.0281      0.00000
     35       4.2016      0.00000
     36       4.5903      0.00000

 k-point    45 :       0.4545    0.3636    0.0000
  band No.  band energies     occupation 
      1     -15.0656      2.00000
      2     -14.7218      2.00000
      3     -12.3924      2.00000
      4     -12.3297      2.00000
      5     -10.3339      2.00000
      6     -10.2593      2.00000
      7      -8.0410      2.00000
      8      -7.8945      2.00000
      9      -5.8586      2.00000
     10      -5.5853      2.00000
     11      -4.8574      2.00000
     12      -4.6365      2.00000
     13      -3.8727      2.00000
     14      -3.8454      2.00000
     15      -3.1652      2.00000
     16      -3.0571      2.00000
     17      -2.3521      2.00000
     18      -2.1527      2.00000
     19      -0.1471      0.00000
     20      -0.0985      0.00000
     21       0.3789      0.00000
     22       0.4249      0.00000
     23       0.8323      0.00000
     24       0.9305      0.00000
     25       1.0792      0.00000
     26       1.0991      0.00000
     27       1.9503      0.00000
     28       2.2432      0.00000
     29       2.6199      0.00000
     30       2.9769      0.00000
     31       3.3909      0.00000
     32       3.4584      0.00000
     33       3.9338      0.00000
     34       4.1314      0.00000
     35       4.4161      0.00000
     36       4.4563      0.00000

 k-point    46 :      -0.4545    0.3636    0.0000
  band No.  band energies     occupation 
      1     -15.0379      2.00000
      2     -14.7502      2.00000
      3     -12.4616      2.00000
      4     -12.2794      2.00000
      5     -10.4323      2.00000
      6     -10.1266      2.00000
      7      -8.0255      2.00000
      8      -7.8430      2.00000
      9      -5.8173      2.00000
     10      -5.6708      2.00000
     11      -4.9027      2.00000
     12      -4.7196      2.00000
     13      -4.0757      2.00000
     14      -3.6095      2.00000
     15      -3.1809      2.00000
     16      -2.9765      2.00000
     17      -2.3351      2.00000
     18      -2.3277      2.00000
     19      -0.2191      0.00000
     20       0.1247      0.00000
     21       0.5335      0.00000
     22       0.5785      0.00000
     23       0.6971      0.00000
     24       0.8847      0.00000
     25       1.0107      0.00000
     26       1.2323      0.00000
     27       1.8918      0.00000
     28       2.3123      0.00000
     29       2.5392      0.00000
     30       2.5411      0.00000
     31       3.5611      0.00000
     32       3.8365      0.00000
     33       3.8875      0.00000
     34       4.1467      0.00000
     35       4.4812      0.00000
     36       4.5181      0.00000

 k-point    47 :      -0.3636    0.3636    0.0000
  band No.  band energies     occupation 
      1     -15.3176      2.00000
      2     -14.4171      2.00000
      3     -12.5571      2.00000
      4     -12.2860      2.00000
      5     -10.5002      2.00000
      6      -9.8247      2.00000
      7      -8.0002      2.00000
      8      -7.5300      2.00000
      9      -6.0630      2.00000
     10      -5.7546      2.00000
     11      -5.0925      2.00000
     12      -5.0330      2.00000
     13      -3.9549      2.00000
     14      -3.7821      2.00000
     15      -3.1902      2.00000
     16      -2.9548      2.00000
     17      -2.4664      2.00000
     18      -2.2780      2.00000
     19      -0.3273      0.00000
     20      -0.2998      0.00000
     21       0.3704      0.00000
     22       0.4832      0.00000
     23       0.8838      0.00000
     24       0.9156      0.00000
     25       1.4583      0.00000
     26       1.5268      0.00000
     27       1.9566      0.00000
     28       2.4640      0.00000
     29       2.4716      0.00000
     30       2.7709      0.00000
     31       3.4772      0.00000
     32       3.9198      0.00000
     33       4.1862      0.00000
     34       4.2410      0.00000
     35       4.3261      0.00000
     36       4.6640      0.00000

 k-point    48 :      -0.2727    0.3636    0.0000
  band No.  band energies     occupation 
      1     -15.5463      2.00000
      2     -14.1013      2.00000
      3     -12.6576      2.00000
      4     -12.3063      2.00000
      5     -10.5219      2.00000
      6      -9.4428      2.00000
      7      -7.7841      2.00000
      8      -7.1779      2.00000
      9      -6.3474      2.00000
     10      -6.2746      2.00000
     11      -5.2806      2.00000
     12      -4.9451      2.00000
     13      -4.0418      2.00000
     14      -3.8573      2.00000
     15      -3.5034      2.00000
     16      -3.3026      2.00000
     17      -2.3469      2.00000
     18      -2.3298      2.00000
     19      -0.7457      0.00000
     20      -0.3156      0.00000
     21       0.1708      0.00000
     22       0.4835      0.00000
     23       0.9872      0.00000
     24       1.0143      0.00000
     25       1.5495      0.00000
     26       1.8562      0.00000
     27       2.4378      0.00000
     28       2.7999      0.00000
     29       2.8966      0.00000
     30       3.0768      0.00000
     31       3.4112      0.00000
     32       3.6174      0.00000
     33       3.9460      0.00000
     34       4.2228      0.00000
     35       4.2419      0.00000
     36       4.6365      0.00000

 k-point    49 :      -0.1818    0.3636   -0.0000
  band No.  band energies     occupation 
      1     -15.7154      2.00000
      2     -13.8505      2.00000
      3     -12.7402      2.00000
      4     -12.2872      2.00000
      5     -10.5471      2.00000
      6      -9.0240      2.00000
      7      -7.3924      2.00000
      8      -6.9459      2.00000
      9      -6.9342      2.00000
     10      -6.4127      2.00000
     11      -5.3651      2.00000
     12      -4.8367      2.00000
     13      -4.3096      2.00000
     14      -4.2776      2.00000
     15      -3.8533      2.00000
     16      -3.2977      2.00000
     17      -2.5721      2.00000
     18      -2.2148      2.00000
     19      -0.8965      0.00000
     20      -0.7875      0.00000
     21       0.0219      0.00000
     22       0.7446      0.00000
     23       1.0226      0.00000
     24       1.6646      0.00000
     25       1.6780      0.00000
     26       2.1961      0.00000
     27       2.3853      0.00000
     28       2.9771      0.00000
     29       3.2924      0.00000
     30       3.3028      0.00000
     31       3.5862      0.00000
     32       3.5978      0.00000
     33       3.8629      0.00000
     34       4.0853      0.00000
     35       4.1216      0.00000
     36       4.3033      0.00000

 k-point    50 :      -0.0909    0.3636    0.0000
  band No.  band energies     occupation 
      1     -15.8199      2.00000
      2     -13.7027      2.00000
      3     -12.7889      2.00000
      4     -12.2176      2.00000
      5     -10.5926      2.00000
      6      -8.6569      2.00000
      7      -7.4061      2.00000
      8      -6.9754      2.00000
      9      -6.8397      2.00000
     10      -6.4165      2.00000
     11      -5.2796      2.00000
     12      -5.1384      2.00000
     13      -4.5504      2.00000
     14      -4.5470      2.00000
     15      -3.9965      2.00000
     16      -3.1510      2.00000
     17      -2.9542      2.00000
     18      -2.1561      2.00000
     19      -1.0577      0.00000
     20      -0.8903      0.00000
     21      -0.0612      0.00000
     22       0.9083      0.00000
     23       0.9566      0.00000
     24       1.8190      0.00000
     25       2.1715      0.00000
     26       2.2618      0.00000
     27       2.6908      0.00000
     28       2.9303      0.00000
     29       3.2337      0.00000
     30       3.4956      0.00000
     31       3.5591      0.00000
     32       3.6489      0.00000
     33       3.8159      0.00000
     34       3.9806      0.00000
     35       4.0999      0.00000
     36       4.1723      0.00000

 k-point    51 :      -0.0000    0.4545   -0.0000
  band No.  band energies     occupation 
      1     -15.8242      2.00000
      2     -13.6305      2.00000
      3     -12.9095      2.00000
      4     -12.1579      2.00000
      5     -10.7181      2.00000
      6      -8.3959      2.00000
      7      -7.5299      2.00000
      8      -7.1297      2.00000
      9      -6.6370      2.00000
     10      -6.3158      2.00000
     11      -5.5523      2.00000
     12      -5.1307      2.00000
     13      -4.5057      2.00000
     14      -4.3369      2.00000
     15      -3.9014      2.00000
     16      -3.4554      2.00000
     17      -3.0392      2.00000
     18      -1.9704      2.00000
     19      -1.3662      0.00000
     20      -0.5816      0.00000
     21       0.1357      0.00000
     22       0.4162      0.00000
     23       1.2979      0.00000
     24       1.9042      0.00000
     25       2.3565      0.00000
     26       2.4085      0.00000
     27       2.8906      0.00000
     28       2.9733      0.00000
     29       3.1720      0.00000
     30       3.3025      0.00000
     31       3.4055      0.00000
     32       3.6723      0.00000
     33       3.8498      0.00000
     34       3.8522      0.00000
     35       4.1113      0.00000
     36       4.1136      0.00000

 k-point    52 :       0.0909    0.4545   -0.0000
  band No.  band energies     occupation 
      1     -15.7916      2.00000
      2     -13.6791      2.00000
      3     -12.8794      2.00000
      4     -12.1807      2.00000
      5     -10.7194      2.00000
      6      -8.5969      2.00000
      7      -7.4569      2.00000
      8      -7.1311      2.00000
      9      -6.9039      2.00000
     10      -6.2826      2.00000
     11      -5.1035      2.00000
     12      -5.0449      2.00000
     13      -4.5707      2.00000
     14      -4.3595      2.00000
     15      -3.6667      2.00000
     16      -3.4444      2.00000
     17      -3.0883      2.00000
     18      -2.0219      2.00000
     19      -1.1905      0.00000
     20      -0.5802      0.00000
     21       0.1781      0.00000
     22       0.3796      0.00000
     23       1.1975      0.00000
     24       1.7980      0.00000
     25       2.3004      0.00000
     26       2.3474      0.00000
     27       2.6342      0.00000
     28       2.8499      0.00000
     29       3.0533      0.00000
     30       3.3203      0.00000
     31       3.3396      0.00000
     32       3.6232      0.00000
     33       3.8022      0.00000
     34       3.8228      0.00000
     35       4.0237      0.00000
     36       4.3105      0.00000

 k-point    53 :       0.1818    0.4545   -0.0000
  band No.  band energies     occupation 
      1     -15.6920      2.00000
      2     -13.8262      2.00000
      3     -12.8038      2.00000
      4     -12.2440      2.00000
      5     -10.6880      2.00000
      6      -9.0168      2.00000
      7      -7.6554      2.00000
      8      -7.2072      2.00000
      9      -6.7794      2.00000
     10      -6.2492      2.00000
     11      -4.8520      2.00000
     12      -4.6106      2.00000
     13      -4.5125      2.00000
     14      -4.2157      2.00000
     15      -3.5475      2.00000
     16      -3.1660      2.00000
     17      -3.0232      2.00000
     18      -2.1521      2.00000
     19      -0.7715      0.00000
     20      -0.6379      0.00000
     21       0.2099      0.00000
     22       0.4703      0.00000
     23       0.9081      0.00000
     24       1.6266      0.00000
     25       1.6731      0.00000
     26       2.0660      0.00000
     27       2.2016      0.00000
     28       2.9537      0.00000
     29       3.0294      0.00000
     30       3.1401      0.00000
     31       3.5117      0.00000
     32       3.5332      0.00000
     33       3.7807      0.00000
     34       3.8087      0.00000
     35       4.0601      0.00000
     36       4.4481      0.00000

 k-point    54 :       0.2727    0.4545   -0.0000
  band No.  band energies     occupation 
      1     -15.5279      2.00000
      2     -14.0689      2.00000
      3     -12.6912      2.00000
      4     -12.2973      2.00000
      5     -10.6287      2.00000
      6      -9.4744      2.00000
      7      -8.0006      2.00000
      8      -7.4504      2.00000
      9      -6.2113      2.00000
     10      -6.1504      2.00000
     11      -4.7235      2.00000
     12      -4.7043      2.00000
     13      -4.2220      2.00000
     14      -3.8068      2.00000
     15      -3.3195      2.00000
     16      -2.9723      2.00000
     17      -2.6036      2.00000
     18      -2.3382      2.00000
     19      -0.7323      0.00000
     20      -0.1967      0.00000
     21       0.3349      0.00000
     22       0.4103      0.00000
     23       0.5684      0.00000
     24       1.0033      0.00000
     25       1.4806      0.00000
     26       1.8741      0.00000
     27       1.8986      0.00000
     28       2.6232      0.00000
     29       2.7174      0.00000
     30       2.9039      0.00000
     31       3.4623      0.00000
     32       3.6875      0.00000
     33       3.9256      0.00000
     34       4.0490      0.00000
     35       4.2095      0.00000
     36       4.5973      0.00000

 k-point    55 :       0.3636    0.4545   -0.0000
  band No.  band energies     occupation 
      1     -15.3041      2.00000
      2     -14.3760      2.00000
      3     -12.5587      2.00000
      4     -12.3352      2.00000
      5     -10.5401      2.00000
      6      -9.8882      2.00000
      7      -8.1884      2.00000
      8      -7.7580      2.00000
      9      -5.9749      2.00000
     10      -5.6268      2.00000
     11      -4.8548      2.00000
     12      -4.5776      2.00000
     13      -3.9151      2.00000
     14      -3.8170      2.00000
     15      -3.0788      2.00000
     16      -2.6805      2.00000
     17      -2.3618      2.00000
     18      -2.2991      2.00000
     19      -0.6459      0.00000
     20      -0.1770      0.00000
     21       0.3610      0.00000
     22       0.4050      0.00000
     23       0.6703      0.00000
     24       0.7699      0.00000
     25       1.4863      0.00000
     26       1.5274      0.00000
     27       1.7643      0.00000
     28       2.1097      0.00000
     29       2.2636      0.00000
     30       2.6114      0.00000
     31       3.5448      0.00000
     32       3.9141      0.00000
     33       3.9484      0.00000
     34       4.2353      0.00000
     35       4.2832      0.00000
     36       4.6102      0.00000

 k-point    56 :       0.4545    0.4545   -0.0000
  band No.  band energies     occupation 
      1     -15.0287      2.00000
      2     -14.7041      2.00000
      3     -12.4334      2.00000
      4     -12.3895      2.00000
      5     -10.3973      2.00000
      6     -10.2158      2.00000
      7      -8.1832      2.00000
      8      -8.0234      2.00000
      9      -5.7544      2.00000
     10      -5.5220      2.00000
     11      -4.6610      2.00000
     12      -4.4794      2.00000
     13      -3.8228      2.00000
     14      -3.7923      2.00000
     15      -3.0184      2.00000
     16      -2.8883      2.00000
     17      -2.1909      2.00000
     18      -2.1598      2.00000
     19      -0.2034      0.00000
     20      -0.1411      0.00000
     21       0.2718      0.00000
     22       0.3338      0.00000
     23       0.7871      0.00000
     24       0.8692      0.00000
     25       1.0318      0.00000
     26       1.1889      0.00000
     27       1.7520      0.00000
     28       2.0629      0.00000
     29       2.4170      0.00000
     30       2.5121      0.00000
     31       3.1398      0.00000
     32       3.3845      0.00000
     33       4.0111      0.00000
     34       4.3877      0.00000
     35       4.6099      0.00000
     36       4.6819      0.00000

 k-point    57 :      -0.4545    0.4545   -0.0000
  band No.  band energies     occupation 
      1     -15.0179      2.00000
      2     -14.7151      2.00000
      3     -12.4819      2.00000
      4     -12.3466      2.00000
      5     -10.4351      2.00000
      6     -10.1670      2.00000
      7      -8.1760      2.00000
      8      -8.0091      2.00000
      9      -5.7380      2.00000
     10      -5.5525      2.00000
     11      -4.6193      2.00000
     12      -4.5802      2.00000
     13      -3.8866      2.00000
     14      -3.7185      2.00000
     15      -2.9791      2.00000
     16      -2.8816      2.00000
     17      -2.2468      2.00000
     18      -2.1882      2.00000
     19      -0.1495      0.00000
     20      -0.1120      0.00000
     21       0.2662      0.00000
     22       0.4971      0.00000
     23       0.7736      0.00000
     24       0.7906      0.00000
     25       0.9744      0.00000
     26       1.2636      0.00000
     27       1.7468      0.00000
     28       2.0749      0.00000
     29       2.2324      0.00000
     30       2.4708      0.00000
     31       3.1663      0.00000
     32       3.5581      0.00000
     33       4.0692      0.00000
     34       4.3647      0.00000
     35       4.5830      0.00000
     36       4.6672      0.00000

 k-point    58 :      -0.3636    0.4545   -0.0000
  band No.  band energies     occupation 
      1     -15.2947      2.00000
      2     -14.3854      2.00000
      3     -12.6029      2.00000
      4     -12.3098      2.00000
      5     -10.5551      2.00000
      6      -9.8390      2.00000
      7      -8.1631      2.00000
      8      -7.7162      2.00000
      9      -5.9782      2.00000
     10      -5.6721      2.00000
     11      -4.8671      2.00000
     12      -4.7030      2.00000
     13      -3.8829      2.00000
     14      -3.8186      2.00000
     15      -3.0354      2.00000
     16      -2.7355      2.00000
     17      -2.4024      2.00000
     18      -2.3345      2.00000
     19      -0.4307      0.00000
     20      -0.1909      0.00000
     21       0.2704      0.00000
     22       0.4514      0.00000
     23       0.7055      0.00000
     24       0.9287      0.00000
     25       1.3785      0.00000
     26       1.5964      0.00000
     27       1.7275      0.00000
     28       2.0831      0.00000
     29       2.2292      0.00000
     30       2.4837      0.00000
     31       3.7389      0.00000
     32       3.8364      0.00000
     33       4.0187      0.00000
     34       4.3306      0.00000
     35       4.4119      0.00000
     36       4.5667      0.00000

 k-point    59 :      -0.2727    0.4545    0.0000
  band No.  band energies     occupation 
      1     -15.5205      2.00000
      2     -14.0739      2.00000
      3     -12.7261      2.00000
      4     -12.2959      2.00000
      5     -10.6168      2.00000
      6      -9.4309      2.00000
      7      -7.9558      2.00000
      8      -7.3735      2.00000
      9      -6.2722      2.00000
     10      -6.1844      2.00000
     11      -4.8658      2.00000
     12      -4.7427      2.00000
     13      -4.1689      2.00000
     14      -3.8118      2.00000
     15      -3.3420      2.00000
     16      -3.0944      2.00000
     17      -2.5308      2.00000
     18      -2.2906      2.00000
     19      -0.5802      0.00000
     20      -0.3344      0.00000
     21       0.2648      0.00000
     22       0.4669      0.00000
     23       0.7034      0.00000
     24       1.0767      0.00000
     25       1.4301      0.00000
     26       1.8752      0.00000
     27       1.9472      0.00000
     28       2.6265      0.00000
     29       2.7578      0.00000
     30       2.8465      0.00000
     31       3.5319      0.00000
     32       3.6846      0.00000
     33       3.8449      0.00000
     34       4.2918      0.00000
     35       4.3152      0.00000
     36       4.4363      0.00000

 k-point    60 :      -0.1818    0.4545   -0.0000
  band No.  band energies     occupation 
      1     -15.6870      2.00000
      2     -13.8259      2.00000
      3     -12.8275      2.00000
      4     -12.2619      2.00000
      5     -10.6582      2.00000
      6      -8.9832      2.00000
      7      -7.5766      2.00000
      8      -7.0993      2.00000
      9      -6.8649      2.00000
     10      -6.3204      2.00000
     11      -5.0196      2.00000
     12      -4.6351      2.00000
     13      -4.4224      2.00000
     14      -4.2683      2.00000
     15      -3.6772      2.00000
     16      -3.1845      2.00000
     17      -2.8307      2.00000
     18      -2.1184      2.00000
     19      -0.8999      0.00000
     20      -0.5891      0.00000
     21       0.1197      0.00000
     22       0.6132      0.00000
     23       0.9553      0.00000
     24       1.6260      0.00000
     25       1.6907      0.00000
     26       2.0793      0.00000
     27       2.2893      0.00000
     28       3.0062      0.00000
     29       3.0230      0.00000
     30       3.1071      0.00000
     31       3.4995      0.00000
     32       3.7283      0.00000
     33       3.7413      0.00000
     34       4.0540      0.00000
     35       4.1198      0.00000
     36       4.2042      0.00000

 k-point    61 :      -0.0909    0.4545    0.0000
  band No.  band energies     occupation 
      1     -15.7891      2.00000
      2     -13.6768      2.00000
      3     -12.8913      2.00000
      4     -12.1999      2.00000
      5     -10.6931      2.00000
      6      -8.5778      2.00000
      7      -7.4001      2.00000
      8      -7.0513      2.00000
      9      -6.9548      2.00000
     10      -6.3460      2.00000
     11      -5.1509      2.00000
     12      -5.1171      2.00000
     13      -4.5148      2.00000
     14      -4.3684      2.00000
     15      -3.9060      2.00000
     16      -3.1762      2.00000
     17      -3.0855      2.00000
     18      -2.0071      2.00000
     19      -1.2750      0.00000
     20      -0.5767      0.00000
     21       0.0790      0.00000
     22       0.5164      0.00000
     23       1.2070      0.00000
     24       1.8178      0.00000
     25       2.2890      0.00000
     26       2.3167      0.00000
     27       2.7057      0.00000
     28       2.8866      0.00000
     29       3.1065      0.00000
     30       3.3457      0.00000
     31       3.5329      0.00000
     32       3.5952      0.00000
     33       3.7901      0.00000
     34       3.9468      0.00000
     35       4.0501      0.00000
     36       4.1391      0.00000


--------------------------------------------------------------------------------------------------------


 soft charge-density along one line, spin component           1
         0         1         2         3         4         5         6         7         8         9
 total charge-density along one line
 
 pseudopotential strength for first ion, spin component:           1
 30.137  37.596  -0.008  -0.016  -0.013  -0.012  -0.025  -0.021
 37.596  46.905  -0.010  -0.020  -0.016  -0.015  -0.031  -0.026
 -0.008  -0.010   6.637  -0.001  -0.001  10.264  -0.001  -0.001
 -0.016  -0.020  -0.001   6.641  -0.002  -0.001  10.270  -0.003
 -0.013  -0.016  -0.001  -0.002   6.642  -0.001  -0.003  10.272
 -0.012  -0.015  10.264  -0.001  -0.001  15.891  -0.002  -0.001
 -0.025  -0.031  -0.001  10.270  -0.003  -0.002  15.900  -0.005
 -0.021  -0.026  -0.001  -0.003  10.272  -0.001  -0.005  15.903
 total augmentation occupancy for first ion, spin component:           1
  7.511  -4.061  -0.154  -1.639  -1.303  -0.017   0.600   0.467
 -4.061   2.865   0.163   1.383   1.097   0.011  -0.449  -0.346
 -0.154   0.163   2.819  -0.081  -0.054  -0.653   0.053   0.032
 -1.639   1.383  -0.081   3.177  -0.180   0.051  -0.891   0.114
 -1.303   1.097  -0.054  -0.180   3.334   0.031   0.114  -0.983
 -0.017   0.011  -0.653   0.051   0.031   0.180  -0.020  -0.012
  0.600  -0.449   0.053  -0.891   0.114  -0.020   0.285  -0.051
  0.467  -0.346   0.032   0.114  -0.983  -0.012  -0.051   0.322


------------------------ aborting loop because EDIFF is reached ----------------------------------------


    CHARGE:  cpu time    1.2908: real time    1.2965
    FORLOC:  cpu time    0.0040: real time    0.0047
    FORNL :  cpu time    1.0448: real time    1.0458
    STRESS:  cpu time   11.6772: real time   11.7026
    FORCOR:  cpu time    0.0690: real time    0.0693
    FORHAR:  cpu time    0.0200: real time    0.0206
    MIXING:  cpu time    0.0030: real time    0.0029
    OFIELD:  cpu time    0.0000: real time    0.0001

  FORCE on cell =-STRESS in cart. coord.  units (eV):
  Direction    XX          YY          ZZ          XY          YZ          ZX
  --------------------------------------------------------------------------------------
  Alpha Z     6.76191     6.76191     6.76191
  Ewald    4064.88557  3974.49444 -4809.22177   -23.36968    -0.00031    -0.00935
  Hartree  4177.74729  4125.96741 -4054.86358    -6.11584    -0.00025    -0.00837
  E(xc)    -124.64025  -124.62089  -125.06165     0.08272     0.00000     0.00000
  Local   -8764.36328 -8627.35041  8332.84330    26.61303     0.00060     0.01775
  n-local   398.07080   397.54971   393.54085    -1.23712     0.00000    -0.00000
  augment   -78.03018   -78.35529   -78.18592    -0.11397     0.00001     0.00001
  Kinetic   319.66471   325.51033   334.03920     4.12176     0.00006     0.00014
  Fock        0.00000     0.00000     0.00000     0.00000     0.00000     0.00000
  -------------------------------------------------------------------------------------
  Total       0.09658    -0.04279    -0.14766    -0.01911     0.00000    -0.00000
  in kB       0.24588    -0.10894    -0.37592    -0.04865     0.00000    -0.00000
  external pressure =       -0.08 kB  Pullay stress =        0.00 kB


 VOLUME and BASIS-vectors are now :
 -----------------------------------------------------------------------------
  energy-cutoff  :      500.00
  volume of cell :      629.34
      direct lattice vectors                 reciprocal lattice vectors
     5.280271118  0.116474754 -0.000005373     0.189463583 -0.003598076 -0.000000032
     0.106518764  5.608950167 -0.000000270    -0.003934377  0.178361200  0.000000067
     0.000003418 -0.000007873 21.258271417     0.000000048  0.000000001  0.047040513

  length of vectors
     5.281555589  5.609961517 21.258271417     0.189497745  0.178404588  0.047040513


 FORCES acting on ions
    electron-ion (+dipol)            ewald-force                    non-local-force                 convergence-correction
 -----------------------------------------------------------------------------------------------
   -.250E+02 0.204E+02 -.208E+03   0.275E+02 -.185E+02 0.211E+03   -.253E+01 -.194E+01 -.306E+01   -.790E-05 -.188E-04 -.367E-04
   0.577E+01 -.477E+02 0.241E+03   -.506E+01 0.490E+02 -.243E+03   -.708E+00 -.132E+01 0.156E+01   0.808E-05 0.354E-06 -.142E-04
   -.250E+02 0.204E+02 0.208E+03   0.275E+02 -.185E+02 -.211E+03   -.253E+01 -.194E+01 0.306E+01   -.791E-05 -.188E-04 0.360E-04
   0.577E+01 -.477E+02 -.241E+03   -.506E+01 0.490E+02 0.243E+03   -.708E+00 -.132E+01 -.156E+01   0.808E-05 0.359E-06 0.136E-04
   0.208E+02 0.331E+02 -.209E+03   -.237E+02 -.377E+02 0.214E+03   0.291E+01 0.462E+01 -.513E+01   0.305E-04 0.414E-05 -.671E-04
   0.208E+02 0.331E+02 0.209E+03   -.237E+02 -.377E+02 -.214E+03   0.291E+01 0.462E+01 0.513E+01   0.305E-04 0.415E-05 0.664E-04
   -.787E+00 -.652E+01 0.118E+03   0.119E+01 0.716E+01 -.116E+03   -.399E+00 -.644E+00 -.179E+01   -.282E-05 0.951E-05 -.129E-04
   -.787E+00 -.652E+01 -.118E+03   0.119E+01 0.716E+01 0.116E+03   -.399E+00 -.644E+00 0.179E+01   -.282E-05 0.951E-05 0.126E-04
 -----------------------------------------------------------------------------------------------
   0.144E+01 -.143E+01 0.921E-03   0.777E-14 0.133E-13 -.142E-13   -.144E+01 0.143E+01 0.142E-05   0.558E-04 -.966E-05 -.240E-05
 
 
 POSITION                                       TOTAL-FORCE (eV/Angst)
 -----------------------------------------------------------------------------------
      5.05774      1.60847     11.68683        -0.010577     -0.004161     -0.015661
      0.10573      3.89255      9.12429        -0.000948      0.003138      0.017103
      2.41760      1.55024      9.57154        -0.010577     -0.004161      0.015661
      2.74586      3.95078     12.13408        -0.000948      0.003138     -0.017103
      2.83518      1.76585     11.76013         0.010414      0.001737     -0.006351
      0.19504      1.70761      9.49824         0.010414      0.001737      0.006351
      2.78079      4.49145      9.48398         0.001110     -0.000714      0.010370
      0.14066      4.43321     11.77439         0.001110     -0.000714     -0.010370
 -----------------------------------------------------------------------------------
    total drift:                               -0.000069      0.000417      0.000920


--------------------------------------------------------------------------------------------------------



  FREE ENERGIE OF THE ION-ELECTRON SYSTEM (eV)
  ---------------------------------------------------
  free  energy   TOTEN  =       -36.82996891 eV

  energy  without entropy=      -36.82996891  energy(sigma->0) =      -36.82996891
 


--------------------------------------------------------------------------------------------------------


    POTLOK:  cpu time    0.0790: real time    0.0794


--------------------------------------------------------------------------------------------------------


 stress matrix after NEB project (eV)
      0.09658     -0.01911     -0.00000
     -0.01911     -0.04279      0.00000
     -0.00000      0.00000     -0.14766
  FORCES: max atom, RMS     0.019351    0.015320
  FORCE total and by dimension    0.043331    0.017103
  Stress total and by dimension    0.183558    0.147661
     LOOP+:  cpu time  364.3086: real time  365.2878
    4ORBIT:  cpu time    0.0000: real time    0.0000
 BZINTS: Fermi energy: -1.955825; 36.000000 electrons
         Band energy:-265.533932;  BLOECHL correction:  0.000000

 total amount of memory used by VASP on root node   270087. kBytes
========================================================================

   base      :      30000. kBytes
   nonl-proj :     205312. kBytes
   fftplans  :       3657. kBytes
   grid      :      15314. kBytes
   one-center:         64. kBytes
   wavefun   :      15740. kBytes
 
  
  
 General timing and accounting informations for this job:
 ========================================================
  
                  Total CPU time used (sec):      370.529
                            User time (sec):      340.153
                          System time (sec):       30.375
                         Elapsed time (sec):      371.994
  
                   Maximum memory used (kb):      592680.
                   Average memory used (kb):           0.
  
                          Minor page faults:      1341827
                          Major page faults:           33
                 Voluntary context switches:          644
