Cu   C    O    H 
   1.00000000000000     
   5.1119999886000000   0.0000000000000000   0.0000000000000000
  -0.0000088492000000   5.1119999885000000   0.0000000000000000
  -0.0000266965000000  -0.0000266965000000  15.4221000671000006
Cu   C    O    H 
16  1  1  1  
Selective dynamics
Direct
  0.0000300000000024  0.0013300000000029  0.1797900050000010 F F F
  0.0004462386279656  0.0043494033166453  0.4130392108256800 T T T
  0.2500000000000000  0.2500000000000000  0.0648399960000035 F F F
  0.2536514991300010  0.2504849076480870  0.2971880905326500 T T T
  0.5000100139999970  0.0004199999999983  0.1793099940000000 F F F
  0.4983433819731290  0.0003839205455733  0.4233853100343050 T T T
  0.7500000000000000  0.2500000000000000  0.0648399960000035 F F F
  0.7412589876311489  0.2506651466884620  0.3006326253928360 T T T
  0.0000199999999992  0.4999800029999970  0.1809100059999980 F F F
  0.0003633928090707  0.4970483746745340  0.4148533711028510 T T T
  0.2500000000000000  0.7500000000000000  0.0648399960000035 F F F
  0.2519067020476840  0.7501239873200940  0.2981530405818800 T T T
  0.5000200269999980  0.5008000139999990  0.1798200010000030 F F F
  0.4987179176808140  0.4981538830344550  0.4255419537949900 T T T
  0.7500000000000000  0.7500000000000000  0.0648399960000035 F F F
  0.7493116515926060  0.7504344933878140  0.3001340253690400 T T T
  0.5097100075959350  0.7177321503990020  0.5289370845793120 T T T
  0.5124074546226250  0.7961465758653150  0.5873498961354851 T T T
  0.3200336563856890  0.3220718507274190  0.4951956788940140 T T T
