Cu   C    
   1.00000000000000
     5.1119999886000000    0.0000000000000000    0.0000000000000000
    -0.0000088492000000    5.1119999885000000    0.0000000000000000
    -0.0000266965000000   -0.0000266965000000   15.4221000671000006
   Cu   C    O    H                                                
    16     1     1     1                                           
Selective dynamics
Cartesian
      0.000149      0.006794      2.772739    F    F    F
      0.000989      0.000931      6.323516    F    F    F
      1.277996      1.277998      0.999969    F    F    F
      1.307257      1.266407      4.636842    F    F    F
      2.556046      0.002142      2.765337    F    F    F
      2.546414      5.008995      6.470307    F    F    F
      3.833996      1.277998      0.999969    F    F    F
      3.793042      1.257950      4.635615    F    F    F
      0.000093      2.555893      2.790012    F    F    F
      5.099231      2.554988      6.323704    F    F    F
      1.277992      3.833998      0.999969    F    F    F
      1.280205      3.825659      4.577362    F    F    F
      2.556093      2.560085      2.773202    F    F    F
      2.565958      2.547504      6.457231    F    F    F
      3.833992      3.833998      0.999969    F    F    F
      3.828290      3.825272      4.573322    F    F    F
      2.540468      3.679058      8.138251    T    T    T
      2.957095      4.470554      8.996092    T    T    T
      2.162949      2.636189      8.506521    T    T    T
