qvasp                                   
   1.00000000000000     
     0.000000    1.783400    1.783400
     1.783400    0.000000    1.783400
     1.783400    1.783400    0.000000
   C 
     2
Direct
  0.750000  0.750000  0.750000
  0.500000  0.500000  0.500000
 
   24   24   24
 0.10085371889E+01 0.10470123417E+01 0.11670105997E+01 0.13798004752E+01 0.16988089103E+01
 0.21352327032E+01 0.26932667490E+01 0.33625909655E+01 0.41082494405E+01 0.48624062208E+01
 0.55257573445E+01 0.59858008841E+01 0.61509417226E+01 0.59856842688E+01 0.55256715433E+01
 0.48624417761E+01 0.41083314939E+01 0.33625966770E+01 0.26931698802E+01 0.21350997372E+01
 0.16987161799E+01 0.13797879691E+01 0.11670669200E+01 0.10470739542E+01 0.10470123417E+01
 0.11083200731E+01 0.12385610448E+01 0.14489858058E+01 0.17499826599E+01 0.21469531391E+01
 0.26354420257E+01 0.31946718981E+01 0.37816305675E+01 0.43304026134E+01 0.47611670686E+01
 0.49994297143E+01 0.49995202435E+01 0.47612251501E+01 0.43301003132E+01 0.37810389016E+01
 0.31942627053E+01 0.26355407949E+01 0.21473606423E+01 0.17502660644E+01 0.14490157523E+01
 0.12385569168E+01 0.11084238713E+01 0.10470881647E+01 0.11670105997E+01 0.12385610448E+01
 0.13677667576E+01 0.15647680706E+01 0.18366915595E+01 0.21837047428E+01 0.25947919811E+01
 0.30433750844E+01 0.34854566368E+01 0.38640138384E+01 0.41207575056E+01 0.42117816692E+01
 0.41207496022E+01 0.38639999719E+01 0.34854301722E+01 0.30433313082E+01 0.25947544769E+01
 0.21837192611E+01 0.18367760928E+01 0.15648794406E+01 0.13678360753E+01 0.12385632590E+01
 0.11669856682E+01 0.11443094370E+01 0.13798004752E+01 0.14489858058E+01 0.15647680706E+01
 0.17358671902E+01 0.19664959209E+01 0.22528714612E+01 0.25802459570E+01 0.29209271291E+01
 0.32354477241E+01 0.34789880821E+01 0.36121651390E+01 0.36120573639E+01 0.34788532878E+01
 0.32356147542E+01 0.29214347146E+01 0.25807388472E+01 0.22529653335E+01 0.19661793467E+01
 0.17354653354E+01 0.15645596343E+01 0.14489741002E+01 0.13798455079E+01 0.13480909660E+01
 0.13480719016E+01 0.16988089103E+01 0.17499826599E+01 0.18366915595E+01 0.19664959209E+01
 0.21414846854E+01 0.23559465963E+01 0.25947626818E+01 0.28330401521E+01 0.30386805562E+01
 0.31788389252E+01 0.32286814343E+01 0.31789134450E+01 0.30387765852E+01 0.28331329974E+01
 0.25948643953E+01 0.23560295156E+01 0.21414762044E+01 0.19663746099E+01 0.18365283570E+01
 0.17498612683E+01 0.16987503464E+01 0.16734517322E+01 0.16660332265E+01 0.16734711195E+01
 0.21352327032E+01 0.21469531391E+01 0.21837047428E+01 0.22528714612E+01 0.23559465963E+01
 0.24876887908E+01 0.26354580382E+01 0.27793794240E+01 0.28951340986E+01 0.29599838760E+01
 0.29600394137E+01 0.28952431343E+01 0.27794038487E+01 0.26352749639E+01 0.24873172030E+01
 0.23556106192E+01 0.22528606224E+01 0.21840672682E+01 0.21473663506E+01 0.21353181612E+01
 0.21370311359E+01 0.21415179686E+01 0.21416725450E+01 0.21372584920E+01 0.26932667490E+01
 0.26354420257E+01 0.25947919811E+01 0.25802459570E+01 0.25947626818E+01 0.26354580382E+01
 0.26933371865E+01 0.27538125122E+01 0.27997229050E+01 0.28168736562E+01 0.27997067601E+01
 0.27537662973E+01 0.26932839840E+01 0.26354213977E+01 0.25947053658E+01 0.25801487223E+01
 0.25947512654E+01 0.26355582150E+01 0.26934701407E+01 0.27538858553E+01 0.27997258178E+01
 0.28168582825E+01 0.27997021799E+01 0.27537560580E+01 0.33625909655E+01 0.31946718981E+01
 0.30433750844E+01 0.29209271291E+01 0.28330401521E+01 0.27793794240E+01 0.27538125122E+01
 0.27461695051E+01 0.27458345642E+01 0.27459131396E+01 0.27462481814E+01 0.27537392621E+01
 0.27793678133E+01 0.28333574412E+01 0.29213831510E+01 0.30434896112E+01 0.31943171105E+01
 0.33621620146E+01 0.35270947422E+01 0.36617658678E+01 0.37380762735E+01 0.37379448752E+01
 0.36615706322E+01 0.35271910145E+01 0.41082494405E+01 0.37816305675E+01 0.34854566368E+01
 0.32354477241E+01 0.30386805562E+01 0.28951340986E+01 0.27997229050E+01 0.27458345642E+01
 0.27285303034E+01 0.27459764945E+01 0.27998359168E+01 0.28951579168E+01 0.30387252441E+01
 0.32355628494E+01 0.34855556721E+01 0.37816602809E+01 0.41082333482E+01 0.44377984736E+01
 0.47290786946E+01 0.49325989649E+01 0.50061367546E+01 0.49327966265E+01 0.47292806432E+01
 0.44378875545E+01 0.48624062208E+01 0.43304026134E+01 0.38640138384E+01 0.34789880821E+01
 0.31788389252E+01 0.29599838760E+01 0.28168736562E+01 0.27459131396E+01 0.27459764945E+01
 0.28170018988E+01 0.29600720816E+01 0.31788185751E+01 0.34788025243E+01 0.38636917059E+01
 0.43301886875E+01 0.48625653958E+01 0.54259533227E+01 0.59610684066E+01 0.63884167315E+01
 0.66278728885E+01 0.66279988424E+01 0.63885387869E+01 0.59608486196E+01 0.54255445760E+01
 0.55257573445E+01 0.47611670686E+01 0.41207575056E+01 0.36121651390E+01 0.32286814343E+01
 0.29600394137E+01 0.27997067601E+01 0.27462481814E+01 0.27998359168E+01 0.29600720816E+01
 0.32285617601E+01 0.36120627409E+01 0.41207221477E+01 0.47610729166E+01 0.55256171903E+01
 0.63793807262E+01 0.72473366516E+01 0.80142288133E+01 0.85474339642E+01 0.87390739433E+01
 0.85473859120E+01 0.80140710993E+01 0.72471673068E+01 0.63793817700E+01 0.59858008841E+01
 0.49994297143E+01 0.42117816692E+01 0.36120573639E+01 0.31789134450E+01 0.28952431343E+01
 0.27537662973E+01 0.27537392621E+01 0.28951579168E+01 0.31788185751E+01 0.36120627409E+01
 0.42119051798E+01 0.49995562235E+01 0.59858653956E+01 0.71487422043E+01 0.84084543121E+01
 0.96175620765E+01 0.10583432616E+02 0.11103797481E+02 0.11103989191E+02 0.10583800606E+02
 0.96177773391E+01 0.84084666509E+01 0.71486961125E+01 0.61509417226E+01 0.49995202435E+01
 0.41207496022E+01 0.34788532878E+01 0.30387765852E+01 0.27794038487E+01 0.26932839840E+01
 0.27793678133E+01 0.30387252441E+01 0.34788025243E+01 0.41207221477E+01 0.49995562235E+01
 0.61510387033E+01 0.75818202506E+01 0.92284815569E+01 0.10928418465E+02 0.12409556319E+02
 0.13454134017E+02 0.13831146817E+02 0.13454106427E+02 0.12409574942E+02 0.10928485665E+02
 0.92285021916E+01 0.75817465427E+01 0.59856842688E+01 0.47612251501E+01 0.38639999719E+01
 0.32356147542E+01 0.28331329974E+01 0.26352749639E+01 0.26354213977E+01 0.28333574412E+01
 0.32355628494E+01 0.38636917059E+01 0.47610729166E+01 0.59858653956E+01 0.75818202506E+01
 0.95252561080E+01 0.11651970067E+02 0.13719560800E+02 0.15400427568E+02 0.16350870914E+02
 0.16350280564E+02 0.15399379496E+02 0.13719217755E+02 0.11652425766E+02 0.95256694789E+01
 0.75817375904E+01 0.55256715433E+01 0.43301003132E+01 0.34854301722E+01 0.29214347146E+01
 0.25948643953E+01 0.24873172030E+01 0.25947053658E+01 0.29213831510E+01 0.34855556721E+01
 0.43301886875E+01 0.55256171903E+01 0.71487422043E+01 0.92284815569E+01 0.11651970067E+02
 0.14196352449E+02 0.16513373913E+02 0.18155789271E+02 0.18750800126E+02 0.18155638153E+02
 0.16513306230E+02 0.14196443252E+02 0.11652070342E+02 0.92285336590E+01 0.71488202993E+01
 0.48624417761E+01 0.37810389016E+01 0.30433313082E+01 0.25807388472E+01 0.23560295156E+01
 0.23556106192E+01 0.25801487223E+01 0.30434896112E+01 0.37816602809E+01 0.48625653958E+01
 0.63793807262E+01 0.84084543121E+01 0.10928418465E+02 0.13719560800E+02 0.16513373913E+02
 0.18812593194E+02 0.20116922502E+02 0.20117525688E+02 0.18813734048E+02 0.16513835268E+02
 0.13719020367E+02 0.10927768152E+02 0.84085285657E+01 0.63798094008E+01 0.41083314939E+01
 0.31942627053E+01 0.25947544769E+01 0.22529653335E+01 0.21414762044E+01 0.22528606224E+01
 0.25947512654E+01 0.31943171105E+01 0.41082333482E+01 0.54259533227E+01 0.72473366516E+01
 0.96175620765E+01 0.12409556319E+02 0.15400427568E+02 0.18155789271E+02 0.20116922502E+02
 0.20827874733E+02 0.20116644644E+02 0.18155648174E+02 0.15400490352E+02 0.12409468004E+02
 0.96172668045E+01 0.72471980184E+01 0.54260827706E+01 0.33625966770E+01 0.26355407949E+01
 0.21837192611E+01 0.19661793467E+01 0.19663746099E+01 0.21840672682E+01 0.26355582150E+01
 0.33621620146E+01 0.44377984736E+01 0.59610684066E+01 0.80142288133E+01 0.10583432616E+02
 0.13454134017E+02 0.16350870914E+02 0.18750800126E+02 0.20117525688E+02 0.20116644644E+02
 0.18749302563E+02 0.16350494244E+02 0.13454816015E+02 0.10583829973E+02 0.80139031918E+01
 0.59608219810E+01 0.44381322167E+01 0.26931698802E+01 0.21473606423E+01 0.18367760928E+01
 0.17354653354E+01 0.18365283570E+01 0.21473663506E+01 0.26934701407E+01 0.35270947422E+01
 0.47290786946E+01 0.63884167315E+01 0.85474339642E+01 0.11103797481E+02 0.13831146817E+02
 0.16350280564E+02 0.18155638153E+02 0.18813734048E+02 0.18155648174E+02 0.16350494244E+02
 0.13831422381E+02 0.11103810288E+02 0.85473142852E+01 0.63885396527E+01 0.47293111543E+01
 0.35270025845E+01 0.21350997372E+01 0.17502660644E+01 0.15648794406E+01 0.15645596343E+01
 0.17498612683E+01 0.21353181612E+01 0.27538858553E+01 0.36617658678E+01 0.49325989649E+01
 0.66278728885E+01 0.87390739433E+01 0.11103989191E+02 0.13454106427E+02 0.15399379496E+02
 0.16513306230E+02 0.16513835268E+02 0.15400490352E+02 0.13454816015E+02 0.11103810288E+02
 0.87385481064E+01 0.66278118412E+01 0.49329300481E+01 0.36617366968E+01 0.27533803034E+01
 0.16987161799E+01 0.14490157523E+01 0.13678360753E+01 0.14489741002E+01 0.16987503464E+01
 0.21370311359E+01 0.27997258178E+01 0.37380762735E+01 0.50061367546E+01 0.66279988424E+01
 0.85473859120E+01 0.10583800606E+02 0.12409574942E+02 0.13719217755E+02 0.14196443252E+02
 0.13719020367E+02 0.12409468004E+02 0.10583829973E+02 0.85473142852E+01 0.66278118412E+01
 0.50061017541E+01 0.37382466437E+01 0.27998452939E+01 0.21369908196E+01 0.13797879691E+01
 0.12385569168E+01 0.12385632590E+01 0.13798455079E+01 0.16734517322E+01 0.21415179686E+01
 0.28168582825E+01 0.37379448752E+01 0.49327966265E+01 0.63885387869E+01 0.80140710993E+01
 0.96177773391E+01 0.10928485665E+02 0.11652425766E+02 0.11652070342E+02 0.10927768152E+02
 0.96172668045E+01 0.80139031918E+01 0.63885396527E+01 0.49329300481E+01 0.37382466437E+01
 0.28171576526E+01 0.21416034648E+01 0.16733753360E+01 0.11670669200E+01 0.11084238713E+01
 0.11669856682E+01 0.13480909660E+01 0.16660332265E+01 0.21416725450E+01 0.27997021799E+01
 0.36615706322E+01 0.47292806432E+01 0.59608486196E+01 0.72471673068E+01 0.84084666509E+01
 0.92285021916E+01 0.95256694789E+01 0.92285336590E+01 0.84085285657E+01 0.72471980184E+01
 0.59608219810E+01 0.47293111543E+01 0.36617366968E+01 0.27998452939E+01 0.21416034648E+01
 0.16658548310E+01 0.13480476207E+01 0.10470739542E+01 0.10470881647E+01 0.11443094370E+01
 0.13480719016E+01 0.16734711195E+01 0.21372584920E+01 0.27537560580E+01 0.35271910145E+01
 0.44378875545E+01 0.54255445760E+01 0.63793817700E+01 0.71486961125E+01 0.75817465427E+01
 0.75817375904E+01 0.71488202993E+01 0.63798094008E+01 0.54260827706E+01 0.44381322167E+01
 0.35270025845E+01 0.27533803034E+01 0.21369908196E+01 0.16733753360E+01 0.13480476207E+01
 0.11442854222E+01 0.10470505700E+01 0.11083485672E+01 0.12385617082E+01 0.14489851812E+01
 0.17499995668E+01 0.21469632325E+01 0.26354221922E+01 0.31946353089E+01 0.37815911958E+01
 0.43303530580E+01 0.47611203206E+01 0.49994332392E+01 0.49995947215E+01 0.47613319887E+01
 0.43301970080E+01 0.37811195952E+01 0.31943181986E+01 0.26355341159E+01 0.21472810342E+01
 0.17501621823E+01 0.14489393626E+01 0.12385131386E+01 0.11084033577E+01 0.10470996284E+01
 0.11083485672E+01 0.11773865602E+01 0.13019329263E+01 0.14916175467E+01 0.17536980827E+01
 0.20891073485E+01 0.24876887676E+01 0.29235355367E+01 0.33534711500E+01 0.37217980509E+01
 0.39717595654E+01 0.40604802104E+01 0.39717985026E+01 0.37215921541E+01 0.33529652385E+01
 0.29231239264E+01 0.24877556959E+01 0.20895183239E+01 0.17539756680E+01 0.14915597816E+01
 0.13018108057E+01 0.11774841570E+01 0.11085478097E+01 0.10865491831E+01 0.12385617082E+01
 0.13019329263E+01 0.14078559223E+01 0.15651014418E+01 0.17789937013E+01 0.20472158128E+01
 0.23559720815E+01 0.26780889891E+01 0.29751685878E+01 0.32046451121E+01 0.33299175143E+01
 0.33298856911E+01 0.32045624913E+01 0.29750697192E+01 0.26780130315E+01 0.23559409021E+01
 0.20472336546E+01 0.17790619112E+01 0.15652103045E+01 0.14079631706E+01 0.13019860644E+01
 0.12385567312E+01 0.12093510974E+01 0.12093637516E+01 0.14489851812E+01 0.14916175467E+01
 0.15651014418E+01 0.16782993383E+01 0.18353979302E+01 0.20319782353E+01 0.22528756978E+01
 0.24730328809E+01 0.26617434056E+01 0.27893831065E+01 0.28345695257E+01 0.27894990013E+01
 0.26619245108E+01 0.24732197647E+01 0.22530152891E+01 0.20320180428E+01 0.18353215081E+01
 0.16781689559E+01 0.15650156281E+01 0.14916158823E+01 0.14490274180E+01 0.14279034899E+01
 0.14216299569E+01 0.14278712486E+01 0.17499995668E+01 0.17536980827E+01 0.17789937013E+01
 0.18353979302E+01 0.19264689212E+01 0.20472058600E+01 0.21836926933E+01 0.23154217287E+01
 0.24198023039E+01 0.24775833173E+01 0.24776601911E+01 0.24199571548E+01 0.23155330718E+01
 0.21837459808E+01 0.20472658196E+01 0.19265387865E+01 0.18353970754E+01 0.17788786727E+01
 0.17535342834E+01 0.17498857875E+01 0.17561786932E+01 0.17622174580E+01 0.17622193400E+01
 0.17562149019E+01 0.21469632325E+01 0.20891073485E+01 0.20472158128E+01 0.20319782353E+01
 0.20472058600E+01 0.20891076602E+01 0.21469715164E+01 0.22054773603E+01 0.22486366962E+01
 0.22644263085E+01 0.22484674548E+01 0.22053195658E+01 0.21469652001E+01 0.20891941547E+01
 0.20472382206E+01 0.20319388656E+01 0.20472191224E+01 0.20891817697E+01 0.21469651314E+01
 0.22053143987E+01 0.22484586888E+01 0.22644339833E+01 0.22486567737E+01 0.22054840590E+01
 0.26354221922E+01 0.24876887676E+01 0.23559720815E+01 0.22528756978E+01 0.21836926933E+01
 0.21469715164E+01 0.21352762100E+01 0.21372721339E+01 0.21416423102E+01 0.21414751156E+01
 0.21369763772E+01 0.21352309225E+01 0.21472815837E+01 0.21840520042E+01 0.22529167990E+01
 0.23556843616E+01 0.24873932901E+01 0.26353732175E+01 0.27794944590E+01 0.28952633026E+01
 0.29599930055E+01 0.29599352459E+01 0.28951062968E+01 0.27793450130E+01 0.31946353089E+01
 0.29235355367E+01 0.26780889891E+01 0.24730328809E+01 0.23154217287E+01 0.22054773603E+01
 0.21372721339E+01 0.21016029828E+01 0.20905909502E+01 0.21013997753E+01 0.21373118565E+01
 0.22060616378E+01 0.23162434836E+01 0.24734203688E+01 0.26777020040E+01 0.29227223149E+01
 0.31940712576E+01 0.34667994092E+01 0.37053757960E+01 0.38700269424E+01 0.39288226268E+01
 0.38696092300E+01 0.37049002501E+01 0.34667479462E+01 0.37815911958E+01 0.33534711500E+01
 0.29751685878E+01 0.26617434056E+01 0.24198023039E+01 0.22486366962E+01 0.21416423102E+01
 0.20905909502E+01 0.20904595613E+01 0.21416820250E+01 0.22494288475E+01 0.24209949778E+01
 0.26622588751E+01 0.29744986090E+01 0.33523067204E+01 0.37809768203E+01 0.42315696028E+01
 0.46566507904E+01 0.49939833833E+01 0.51820676299E+01 0.51820273264E+01 0.49937412271E+01
 0.46561901490E+01 0.42313745820E+01 0.43303530580E+01 0.37217980509E+01 0.32046451121E+01
 0.27893831065E+01 0.24775833173E+01 0.22644263085E+01 0.21414751156E+01 0.21013997753E+01
 0.21416820250E+01 0.22652603789E+01 0.24788163500E+01 0.27898833920E+01 0.32036750047E+01
 0.37201337585E+01 0.43295221415E+01 0.50037436649E+01 0.56857544882E+01 0.62874323549E+01
 0.67059556749E+01 0.68565979318E+01 0.67060429329E+01 0.62869970928E+01 0.56847594242E+01
 0.50032088295E+01 0.47611203206E+01 0.39717595654E+01 0.33299175143E+01 0.28345695257E+01
 0.24776601911E+01 0.22484674548E+01 0.21369763772E+01 0.21373118565E+01 0.22494288475E+01
 0.24788163500E+01 0.28349554052E+01 0.33288728099E+01 0.39699154232E+01 0.47600097676E+01
 0.56811615628E+01 0.66763032377E+01 0.76358366752E+01 0.84084703500E+01 0.88427622064E+01
 0.88428497647E+01 0.84082994840E+01 0.76348381227E+01 0.66749183377E+01 0.56806835402E+01
 0.49994332392E+01 0.40604802104E+01 0.33298856911E+01 0.27894990013E+01 0.24199571548E+01
 0.22053195658E+01 0.21352309225E+01 0.22060616378E+01 0.24209949778E+01 0.27898833920E+01
 0.33288728099E+01 0.40585896257E+01 0.49982576616E+01 0.61504113572E+01 0.74732054707E+01
 0.88513691145E+01 0.10091887370E+02 0.10964864076E+02 0.11280648996E+02 0.10965198048E+02
 0.10091679358E+02 0.88500477993E+01 0.74715015384E+01 0.61498313622E+01 0.49995947215E+01
 0.39717985026E+01 0.32045624913E+01 0.26619245108E+01 0.23155330718E+01 0.21469652001E+01
 0.21472815837E+01 0.23162434836E+01 0.26622588751E+01 0.32036750047E+01 0.39699154232E+01
 0.49982576616E+01 0.63188816060E+01 0.79213851129E+01 0.97094217312E+01 0.11472665555E+02
 0.12912057112E+02 0.13708084529E+02 0.13708385921E+02 0.12912503148E+02 0.11472285868E+02
 0.97078071590E+01 0.79195111687E+01 0.63183797057E+01 0.47613319887E+01 0.37215921541E+01
 0.29750697192E+01 0.24732197647E+01 0.21837459808E+01 0.20891941547E+01 0.21840520042E+01
 0.24734203688E+01 0.29744986090E+01 0.37201337585E+01 0.47600097676E+01 0.61504113572E+01
 0.79213851129E+01 0.10020377839E+02 0.12257748725E+02 0.14280071712E+02 0.15726033592E+02
 0.16252756946E+02 0.15726185046E+02 0.14280152230E+02 0.12257209808E+02 0.10019004275E+02
 0.79200517300E+01 0.61503699112E+01 0.43301970080E+01 0.33529652385E+01 0.26780130315E+01
 0.22530152891E+01 0.20472658196E+01 0.20472382206E+01 0.22529167990E+01 0.26777020040E+01
 0.33523067204E+01 0.43295221415E+01 0.56811615628E+01 0.74732054707E+01 0.97094217312E+01
 0.12257748725E+02 0.14783837230E+02 0.16884401464E+02 0.18088763515E+02 0.18088618346E+02
 0.16884243262E+02 0.14783902491E+02 0.12257644441E+02 0.97088058357E+01 0.74725629405E+01
 0.56812088350E+01 0.37811195952E+01 0.29231239264E+01 0.23559409021E+01 0.20320180428E+01
 0.19265387865E+01 0.20319388656E+01 0.23556843616E+01 0.29227223149E+01 0.37809768203E+01
 0.50037436649E+01 0.66763032377E+01 0.88513691145E+01 0.11472665555E+02 0.14280071712E+02
 0.16884401464E+02 0.18761999841E+02 0.19449677457E+02 0.18761167926E+02 0.16884105761E+02
 0.14280891935E+02 0.11473523849E+02 0.88511753015E+01 0.66754060759E+01 0.50031931805E+01
 0.31943181986E+01 0.24877556959E+01 0.20472336546E+01 0.18353215081E+01 0.18353970754E+01
 0.20472191224E+01 0.24873932901E+01 0.31940712576E+01 0.42315696028E+01 0.56857544882E+01
 0.76358366752E+01 0.10091887370E+02 0.12912057112E+02 0.15726033592E+02 0.18088763515E+02
 0.19449677457E+02 0.19448618745E+02 0.18087216493E+02 0.15726462890E+02 0.12914185000E+02
 0.10093207270E+02 0.76350762289E+01 0.56841631316E+01 0.42308229470E+01 0.26355341159E+01
 0.20895183239E+01 0.17790619112E+01 0.16781689559E+01 0.17788786727E+01 0.20891817697E+01
 0.26353732175E+01 0.34667994092E+01 0.46566507904E+01 0.62874323549E+01 0.84084703500E+01
 0.10964864076E+02 0.13708084529E+02 0.16252756946E+02 0.18088618346E+02 0.18761167926E+02
 0.18087216493E+02 0.16252357922E+02 0.13709924200E+02 0.10967215486E+02 0.84090204018E+01
 0.62860734117E+01 0.46550492025E+01 0.34661496661E+01 0.21472810342E+01 0.17539756680E+01
 0.15652103045E+01 0.15650156281E+01 0.17535342834E+01 0.21469651314E+01 0.27794944590E+01
 0.37053757960E+01 0.49939833833E+01 0.67059556749E+01 0.88427622064E+01 0.11280648996E+02
 0.13708385921E+02 0.15726185046E+02 0.16884243262E+02 0.16884105761E+02 0.15726462890E+02
 0.13709924200E+02 0.11282757041E+02 0.88437737845E+01 0.67052034324E+01 0.49923899630E+01
 0.37042042059E+01 0.27792067730E+01 0.17501621823E+01 0.14915597816E+01 0.14079631706E+01
 0.14916158823E+01 0.17498857875E+01 0.22053143987E+01 0.28952633026E+01 0.38700269424E+01
 0.51820676299E+01 0.68565979318E+01 0.88428497647E+01 0.10965198048E+02 0.12912503148E+02
 0.14280152230E+02 0.14783902491E+02 0.14280891935E+02 0.12914185000E+02 0.10967215486E+02
 0.88437737845E+01 0.68556860340E+01 0.51802489948E+01 0.38688843191E+01 0.28953469453E+01
 0.22059001528E+01 0.14489393626E+01 0.13018108057E+01 0.13019860644E+01 0.14490274180E+01
 0.17561786932E+01 0.22484586888E+01 0.29599930055E+01 0.39288226268E+01 0.51820273264E+01
 0.67060429329E+01 0.84082994840E+01 0.10091679358E+02 0.11472285868E+02 0.12257209808E+02
 0.12257644441E+02 0.11473523849E+02 0.10093207270E+02 0.84090204018E+01 0.67052034324E+01
 0.51802489948E+01 0.39276447037E+01 0.29602480684E+01 0.22494862539E+01 0.17568029528E+01
 0.12385131386E+01 0.11774841570E+01 0.12385567312E+01 0.14279034899E+01 0.17622174580E+01
 0.22644339833E+01 0.29599352459E+01 0.38696092300E+01 0.49937412271E+01 0.62869970928E+01
 0.76348381227E+01 0.88500477993E+01 0.97078071590E+01 0.10019004275E+02 0.97088058357E+01
 0.88511753015E+01 0.76350762289E+01 0.62860734117E+01 0.49923899630E+01 0.38688843191E+01
 0.29602480684E+01 0.22653093838E+01 0.17629169833E+01 0.14281237178E+01 0.11084033577E+01
 0.11085478097E+01 0.12093510974E+01 0.14216299569E+01 0.17622193400E+01 0.22486567737E+01
 0.28951062968E+01 0.37049002501E+01 0.46561901490E+01 0.56847594242E+01 0.66749183377E+01
 0.74715015384E+01 0.79195111687E+01 0.79200517300E+01 0.74725629405E+01 0.66754060759E+01
 0.56841631316E+01 0.46550492025E+01 0.37042042059E+01 0.28953469453E+01 0.22494862539E+01
 0.17629169833E+01 0.14217899250E+01 0.12091395142E+01 0.10470996284E+01 0.10865491831E+01
 0.12093637516E+01 0.14278712486E+01 0.17562149019E+01 0.22054840590E+01 0.27793450130E+01
 0.34667479462E+01 0.42313745820E+01 0.50032088295E+01 0.56806835402E+01 0.61498313622E+01
 0.63183797057E+01 0.61503699112E+01 0.56812088350E+01 0.50031931805E+01 0.42308229470E+01
 0.34661496661E+01 0.27792067730E+01 0.22059001528E+01 0.17568029528E+01 0.14281237178E+01
 0.12091395142E+01 0.10862128878E+01 0.11670659032E+01 0.12385853889E+01 0.13677534674E+01
 0.15647598878E+01 0.18367050420E+01 0.21836995733E+01 0.25947442630E+01 0.30433180714E+01
 0.34854231070E+01 0.38640037496E+01 0.41207859552E+01 0.42118855927E+01 0.41209145419E+01
 0.38641464362E+01 0.34855025248E+01 0.30433384709E+01 0.25947051713E+01 0.21835958290E+01
 0.18366033363E+01 0.15647422934E+01 0.13677874223E+01 0.12385745993E+01 0.11670163936E+01
 0.11443572355E+01 0.12385853889E+01 0.13019378727E+01 0.14078487095E+01 0.15650973448E+01
 0.17789937119E+01 0.20472049285E+01 0.23559472981E+01 0.26780700785E+01 0.29751757312E+01
 0.32046835551E+01 0.33299851574E+01 0.33299727060E+01 0.32046393547E+01 0.29750991124E+01
 0.26779818595E+01 0.23558650111E+01 0.20471325561E+01 0.17789518930E+01 0.15651209776E+01
 0.14079293880E+01 0.13020125183E+01 0.12386118423E+01 0.12094028956E+01 0.12094024266E+01
 0.13677534674E+01 0.14078487095E+01 0.14772933928E+01 0.15851019830E+01 0.17360686943E+01
 0.19264710749E+01 0.21415022291E+01 0.23561553378E+01 0.25399434471E+01 0.26639536618E+01
 0.27077141779E+01 0.26638653606E+01 0.25397858257E+01 0.23559869329E+01 0.21413985531E+01
 0.19264673895E+01 0.17361457338E+01 0.15852212907E+01 0.14774161952E+01 0.14079322624E+01
 0.13677750020E+01 0.13479089878E+01 0.13420378909E+01 0.13479216183E+01 0.15647598878E+01
 0.15650973448E+01 0.15851019830E+01 0.16352469040E+01 0.17202107572E+01 0.18353944557E+01
 0.19664950703E+01 0.20926701539E+01 0.21919151564E+01 0.22464330597E+01 0.22464245468E+01
 0.21918977687E+01 0.20926633425E+01 0.19665134485E+01 0.18354346429E+01 0.17202636529E+01
 0.16353152613E+01 0.15851809459E+01 0.15651446009E+01 0.15647290726E+01 0.15722867158E+01
 0.15785762414E+01 0.15786221744E+01 0.15723710911E+01 0.18367050420E+01 0.17789937119E+01
 0.17360686943E+01 0.17202107572E+01 0.17360648018E+01 0.17789802109E+01 0.18366738236E+01
 0.18933246851E+01 0.19341645874E+01 0.19490084554E+01 0.19342387730E+01 0.18934322875E+01
 0.18367707260E+01 0.17790472400E+01 0.17360995937E+01 0.17202080724E+01 0.17360224693E+01
 0.17789141608E+01 0.18366205521E+01 0.18933107748E+01 0.19341793623E+01 0.19490145107E+01
 0.19342094833E+01 0.18933730423E+01 0.21836995733E+01 0.20472049285E+01 0.19264710749E+01
 0.18353944557E+01 0.17789802109E+01 0.17536813204E+01 0.17499808502E+01 0.17561939307E+01
 0.17622159741E+01 0.17622610650E+01 0.17562687554E+01 0.17499852071E+01 0.17536051998E+01
 0.17789037195E+01 0.18353673749E+01 0.19264517055E+01 0.20471433252E+01 0.21836316163E+01
 0.23154606655E+01 0.24199357770E+01 0.24776861967E+01 0.24776435924E+01 0.24198664603E+01
 0.23154583432E+01 0.25947442630E+01 0.23559472981E+01 0.21415022291E+01 0.19664950703E+01
 0.18366738236E+01 0.17499808502E+01 0.16988197438E+01 0.16734626450E+01 0.16660124784E+01
 0.16734554806E+01 0.16987745072E+01 0.17498678694E+01 0.18365160211E+01 0.19663739962E+01
 0.21414833042E+01 0.23560133196E+01 0.25948342486E+01 0.28331286455E+01 0.30387967378E+01
 0.31789220009E+01 0.32286774769E+01 0.31788519920E+01 0.30387041086E+01 0.28330397746E+01
 0.30433180714E+01 0.26780700785E+01 0.23561553378E+01 0.20926701539E+01 0.18933246851E+01
 0.17561939307E+01 0.16734626450E+01 0.16353561110E+01 0.16353012045E+01 0.16733713904E+01
 0.17561570158E+01 0.18933093087E+01 0.20926280484E+01 0.23561493701E+01 0.26781617152E+01
 0.30434360154E+01 0.34242273551E+01 0.37787284161E+01 0.40560587047E+01 0.42089730037E+01
 0.42089539854E+01 0.40560372690E+01 0.37787246789E+01 0.34241783998E+01 0.34854231070E+01
 0.29751757312E+01 0.25399434471E+01 0.21919151564E+01 0.19341645874E+01 0.17622159741E+01
 0.16660124784E+01 0.16353012045E+01 0.16658817405E+01 0.17621491269E+01 0.19342313286E+01
 0.21920040912E+01 0.25400117484E+01 0.29752768083E+01 0.34854946583E+01 0.40436940207E+01
 0.46010239370E+01 0.50864092045E+01 0.54203702602E+01 0.55396875931E+01 0.54203399741E+01
 0.50864962557E+01 0.46012109634E+01 0.40437830640E+01 0.38640037496E+01 0.32046835551E+01
 0.26639536618E+01 0.22464330597E+01 0.19490084554E+01 0.17622610650E+01 0.16734554806E+01
 0.16733713904E+01 0.17621491269E+01 0.19490397024E+01 0.22465313496E+01 0.26639840931E+01
 0.32046870983E+01 0.38640262379E+01 0.46222772858E+01 0.54307364542E+01 0.62016213535E+01
 0.68169432388E+01 0.71606996761E+01 0.71606400700E+01 0.68169086486E+01 0.62017717276E+01
 0.54309445366E+01 0.46223498286E+01 0.41207859552E+01 0.33299851574E+01 0.27077141779E+01
 0.22464245468E+01 0.19342387730E+01 0.17562687554E+01 0.16987745072E+01 0.17561570158E+01
 0.19342313286E+01 0.22465313496E+01 0.27077248832E+01 0.33298769757E+01 0.41207421733E+01
 0.50758357317E+01 0.61584759950E+01 0.72764033231E+01 0.82770302063E+01 0.89787684986E+01
 0.92319418685E+01 0.89785953218E+01 0.82769567887E+01 0.72764954119E+01 0.61585320465E+01
 0.50758066158E+01 0.42118855927E+01 0.33299727060E+01 0.26638653606E+01 0.21918977687E+01
 0.18934322875E+01 0.17499852071E+01 0.17498678694E+01 0.18933093087E+01 0.21920040912E+01
 0.26639840931E+01 0.33298769757E+01 0.42117932989E+01 0.53264042250E+01 0.66618623061E+01
 0.81413990942E+01 0.95972042700E+01 0.10786294163E+02 0.11460015456E+02 0.11459864289E+02
 0.10786082984E+02 0.95972003679E+01 0.81414190615E+01 0.66616964380E+01 0.53262642928E+01
 0.41209145419E+01 0.32046393547E+01 0.25397858257E+01 0.20926633425E+01 0.18367707260E+01
 0.17536051998E+01 0.18365160211E+01 0.20926280484E+01 0.25400117484E+01 0.32046870983E+01
 0.41207421733E+01 0.53264042250E+01 0.68423894935E+01 0.86276664304E+01 0.10530789118E+02
 0.12276276271E+02 0.13520951243E+02 0.13973915500E+02 0.13520812125E+02 0.12276301045E+02
 0.10530909465E+02 0.86275280279E+01 0.68420878996E+01 0.53263658387E+01 0.38641464362E+01
 0.29750991124E+01 0.23559869329E+01 0.19665134485E+01 0.17790472400E+01 0.17789037195E+01
 0.19663739962E+01 0.23561493701E+01 0.29752768083E+01 0.38640262379E+01 0.50758357317E+01
 0.66618623061E+01 0.86276664304E+01 0.10869451760E+02 0.13126421978E+02 0.15001243109E+02
 0.16074775160E+02 0.16074735212E+02 0.15001301937E+02 0.13126685473E+02 0.10869594765E+02
 0.86274955440E+01 0.66617232926E+01 0.50759854180E+01 0.34855025248E+01 0.26779818595E+01
 0.21413985531E+01 0.18354346429E+01 0.17360995937E+01 0.18353673749E+01 0.21414833042E+01
 0.26781617152E+01 0.34854946583E+01 0.46222772858E+01 0.61584759950E+01 0.81413990942E+01
 0.10530789118E+02 0.13126421978E+02 0.15542405319E+02 0.17283135023E+02 0.17903896319E+02
 0.17283081771E+02 0.15542552773E+02 0.13126720209E+02 0.10530907272E+02 0.81413208498E+01
 0.61585058594E+01 0.46224414800E+01 0.30433384709E+01 0.23558650111E+01 0.19264673895E+01
 0.17202636529E+01 0.17202080724E+01 0.19264517055E+01 0.23560133196E+01 0.30434360154E+01
 0.40436940207E+01 0.54307364542E+01 0.72764033231E+01 0.95972042700E+01 0.12276276271E+02
 0.15001243109E+02 0.17283135023E+02 0.18577917924E+02 0.18577844032E+02 0.17283065314E+02
 0.15001321830E+02 0.12276343273E+02 0.95971295564E+01 0.72763780602E+01 0.54309031459E+01
 0.40438296647E+01 0.25947051713E+01 0.20471325561E+01 0.17361457338E+01 0.16353152613E+01
 0.17360224693E+01 0.20471433252E+01 0.25948342486E+01 0.34242273551E+01 0.46010239370E+01
 0.62016213535E+01 0.82770302063E+01 0.10786294163E+02 0.13520951243E+02 0.16074775160E+02
 0.17903896319E+02 0.18577844032E+02 0.17903832385E+02 0.16074741027E+02 0.13520883148E+02
 0.10786086133E+02 0.82768522802E+01 0.62017203191E+01 0.46012674805E+01 0.34242769606E+01
 0.21835958290E+01 0.17789518930E+01 0.15852212907E+01 0.15851809459E+01 0.17789141608E+01
 0.21836316163E+01 0.28331286455E+01 0.37787284161E+01 0.50864092045E+01 0.68169432388E+01
 0.89787684986E+01 0.11460015456E+02 0.13973915500E+02 0.16074735212E+02 0.17283081771E+02
 0.17283065314E+02 0.16074741027E+02 0.13973968133E+02 0.11460002642E+02 0.89786474564E+01
 0.68168704326E+01 0.50864925600E+01 0.37788380109E+01 0.28331267708E+01 0.18366033363E+01
 0.15651209776E+01 0.14774161952E+01 0.15651446009E+01 0.18366205521E+01 0.23154606655E+01
 0.30387967378E+01 0.40560587047E+01 0.54203702602E+01 0.71606996761E+01 0.92319418685E+01
 0.11459864289E+02 0.13520812125E+02 0.15001301937E+02 0.15542552773E+02 0.15001321830E+02
 0.13520883148E+02 0.11460002642E+02 0.92320986245E+01 0.71607813603E+01 0.54203347053E+01
 0.40559666243E+01 0.30387350055E+01 0.23154420248E+01 0.15647422934E+01 0.14079293880E+01
 0.14079322624E+01 0.15647290726E+01 0.18933107748E+01 0.24199357770E+01 0.31789220009E+01
 0.42089730037E+01 0.55396875931E+01 0.71606400700E+01 0.89785953218E+01 0.10786082984E+02
 0.12276301045E+02 0.13126685473E+02 0.13126720209E+02 0.12276343273E+02 0.10786086133E+02
 0.89786474564E+01 0.71607813603E+01 0.55397671232E+01 0.42088616764E+01 0.31787277909E+01
 0.24198396892E+01 0.18933189481E+01 0.13677874223E+01 0.13020125183E+01 0.13677750020E+01
 0.15722867158E+01 0.19341793623E+01 0.24776861967E+01 0.32286774769E+01 0.42089539854E+01
 0.54203399741E+01 0.68169086486E+01 0.82769567887E+01 0.95972003679E+01 0.10530909465E+02
 0.10869594765E+02 0.10530907272E+02 0.95971295564E+01 0.82768522802E+01 0.68168704326E+01
 0.54203347053E+01 0.42088616764E+01 0.32285295709E+01 0.24776418959E+01 0.19342645097E+01
 0.15723670704E+01 0.12385745993E+01 0.12386118423E+01 0.13479089878E+01 0.15785762414E+01
 0.19490145107E+01 0.24776435924E+01 0.31788519920E+01 0.40560372690E+01 0.50864962557E+01
 0.62017717276E+01 0.72764954119E+01 0.81414190615E+01 0.86275280279E+01 0.86274955440E+01
 0.81413208498E+01 0.72763780602E+01 0.62017203191E+01 0.50864925600E+01 0.40559666243E+01
 0.31787277909E+01 0.24776418959E+01 0.19491863000E+01 0.15787308846E+01 0.13479103696E+01
 0.11670163936E+01 0.12094028956E+01 0.13420378909E+01 0.15786221744E+01 0.19342094833E+01
 0.24198664603E+01 0.30387041086E+01 0.37787246789E+01 0.46012109634E+01 0.54309445366E+01
 0.61585320465E+01 0.66616964380E+01 0.68420878996E+01 0.66617232926E+01 0.61585058594E+01
 0.54309031459E+01 0.46012674805E+01 0.37788380109E+01 0.30387350055E+01 0.24198396892E+01
 0.19342645097E+01 0.15787308846E+01 0.13420445821E+01 0.12093240163E+01 0.11443572355E+01
 0.12094024266E+01 0.13479216183E+01 0.15723710911E+01 0.18933730423E+01 0.23154583432E+01
 0.28330397746E+01 0.34241783998E+01 0.40437830640E+01 0.46223498286E+01 0.50758066158E+01
 0.53262642928E+01 0.53263658387E+01 0.50759854180E+01 0.46224414800E+01 0.40438296647E+01
 0.34242769606E+01 0.28331267708E+01 0.23154420248E+01 0.18933189481E+01 0.15723670704E+01
 0.13479103696E+01 0.12093240163E+01 0.11443031880E+01 0.13798264398E+01 0.14489848774E+01
 0.15647430462E+01 0.17358568202E+01 0.19665054423E+01 0.22528610468E+01 0.25802069646E+01
 0.29209044654E+01 0.32354697039E+01 0.34790382528E+01 0.36122353063E+01 0.36121580046E+01
 0.34789557721E+01 0.32356542038E+01 0.29213909611E+01 0.25806530651E+01 0.22528668611E+01
 0.19660654506E+01 0.17353624945E+01 0.15645255793E+01 0.14490160852E+01 0.13799048736E+01
 0.13481279471E+01 0.13481003844E+01 0.14489848774E+01 0.14916038399E+01 0.15650848032E+01
 0.16782914290E+01 0.18353939699E+01 0.20319648401E+01 0.22528610468E+01 0.24730471837E+01
 0.26618043696E+01 0.27894777805E+01 0.28346686382E+01 0.27895690479E+01 0.26619298996E+01
 0.24731409546E+01 0.22528715283E+01 0.20318558064E+01 0.18351812802E+01 0.16780777607E+01
 0.15649983172E+01 0.14916807617E+01 0.14491403956E+01 0.14280058387E+01 0.14216883674E+01
 0.14278922501E+01 0.15647430462E+01 0.15650848032E+01 0.15850954608E+01 0.16352437240E+01
 0.17202080100E+01 0.18353939699E+01 0.19665054423E+01 0.20927004185E+01 0.21919633621E+01
 0.22464809650E+01 0.22464451001E+01 0.21918705403E+01 0.20925869140E+01 0.19664066310E+01
 0.18353268592E+01 0.17201827727E+01 0.16352808125E+01 0.15852015804E+01 0.15652140527E+01
 0.15648231495E+01 0.15723712448E+01 0.15786258427E+01 0.15786338346E+01 0.15723597419E+01
 0.17358568202E+01 0.16782914290E+01 0.16352437240E+01 0.16192966491E+01 0.16352437240E+01
 0.16782914290E+01 0.17358568202E+01 0.17919615844E+01 0.18320431439E+01 0.18464068979E+01
 0.18318245641E+01 0.17917728413E+01 0.17358782985E+01 0.16784408232E+01 0.16353481271E+01
 0.16193455548E+01 0.16353481271E+01 0.16784408232E+01 0.17358782985E+01 0.17917728413E+01
 0.18318245641E+01 0.18464068979E+01 0.18320431439E+01 0.17919615844E+01 0.19665054423E+01
 0.18353939699E+01 0.17202080100E+01 0.16352437240E+01 0.15850954608E+01 0.15650848032E+01
 0.15647430462E+01 0.15723597419E+01 0.15786338346E+01 0.15786258427E+01 0.15723712448E+01
 0.15648231495E+01 0.15652140527E+01 0.15852015804E+01 0.16352808125E+01 0.17201827727E+01
 0.18353268592E+01 0.19664066310E+01 0.20925869140E+01 0.21918705403E+01 0.22464451001E+01
 0.22464809650E+01 0.21919633621E+01 0.20927004185E+01 0.22528610468E+01 0.20319648401E+01
 0.18353939699E+01 0.16782914290E+01 0.15650848032E+01 0.14916038399E+01 0.14489848774E+01
 0.14278922501E+01 0.14216883674E+01 0.14280058387E+01 0.14491403956E+01 0.14916807617E+01
 0.15649983172E+01 0.16780777607E+01 0.18351812802E+01 0.20318558064E+01 0.22528715283E+01
 0.24731409546E+01 0.26619298996E+01 0.27895690479E+01 0.28346686382E+01 0.27894777805E+01
 0.26618043696E+01 0.24730471837E+01 0.25802069646E+01 0.22528610468E+01 0.19665054423E+01
 0.17358568202E+01 0.15647430462E+01 0.14489848774E+01 0.13798264398E+01 0.13481003844E+01
 0.13481279471E+01 0.13799048736E+01 0.14490160852E+01 0.15645255793E+01 0.17353624945E+01
 0.19660654506E+01 0.22528668611E+01 0.25806530651E+01 0.29213909611E+01 0.32356542038E+01
 0.34789557721E+01 0.36121580046E+01 0.36122353063E+01 0.34790382528E+01 0.32354697039E+01
 0.29209044654E+01 0.29209044654E+01 0.24730471837E+01 0.20927004185E+01 0.17919615844E+01
 0.15723597419E+01 0.14278922501E+01 0.13481003844E+01 0.13229890181E+01 0.13483089463E+01
 0.14279547678E+01 0.15719128435E+01 0.17911340229E+01 0.20921771089E+01 0.24733846553E+01
 0.29218462810E+01 0.34096569128E+01 0.38909410014E+01 0.43046041882E+01 0.45862942063E+01
 0.46865220048E+01 0.45866254137E+01 0.43049792954E+01 0.38908722767E+01 0.34089172047E+01
 0.32354697039E+01 0.26618043696E+01 0.21919633621E+01 0.18320431439E+01 0.15786338346E+01
 0.14216883674E+01 0.13481279471E+01 0.13483089463E+01 0.14218795485E+01 0.15782181900E+01
 0.18310198523E+01 0.21912270387E+01 0.26622345582E+01 0.32367962052E+01 0.38918812539E+01
 0.45806506608E+01 0.52279006494E+01 0.57385277291E+01 0.60218151726E+01 0.60220339401E+01
 0.57391834061E+01 0.52286636060E+01 0.45807251850E+01 0.38908722767E+01 0.34790382528E+01
 0.27894777805E+01 0.22464809650E+01 0.18464068979E+01 0.15786258427E+01 0.14280058387E+01
 0.13799048736E+01 0.14279547678E+01 0.15782181900E+01 0.18455571964E+01 0.22457706292E+01
 0.27897477067E+01 0.34803238370E+01 0.43061911621E+01 0.52287176813E+01 0.61672100781E+01
 0.69973190742E+01 0.75750860195E+01 0.77829905288E+01 0.75756327055E+01 0.69983998713E+01
 0.61682039032E+01 0.52286636060E+01 0.43049792954E+01 0.36122353063E+01 0.28346686382E+01
 0.22464451001E+01 0.18318245641E+01 0.15723712448E+01 0.14491403956E+01 0.14490160852E+01
 0.15719128435E+01 0.18310198523E+01 0.22457706292E+01 0.28349326611E+01 0.36136205761E+01
 0.45880699182E+01 0.57393237591E+01 0.69971616702E+01 0.82213252905E+01 0.92140489797E+01
 0.97743789300E+01 0.97744570926E+01 0.92146572249E+01 0.82227068194E+01 0.69983998713E+01
 0.57391834061E+01 0.45866254137E+01 0.36121580046E+01 0.27895690479E+01 0.21918705403E+01
 0.17917728413E+01 0.15648231495E+01 0.14916807617E+01 0.15645255793E+01 0.17911340229E+01
 0.21912270387E+01 0.27897477067E+01 0.36136205761E+01 0.46883320410E+01 0.60224293679E+01
 0.75741131862E+01 0.92127984066E+01 0.10706996760E+02 0.11769065887E+02 0.12154805480E+02
 0.11768630533E+02 0.10707533689E+02 0.92146572249E+01 0.75756327055E+01 0.60220339401E+01
 0.46865220048E+01 0.34789557721E+01 0.26619298996E+01 0.20925869140E+01 0.17358782985E+01
 0.15652140527E+01 0.15649983172E+01 0.17353624945E+01 0.20921771089E+01 0.26622345582E+01
 0.34803238370E+01 0.45880699182E+01 0.60224293679E+01 0.77815708040E+01 0.97722216144E+01
 0.11767706154E+02 0.13422242615E+02 0.14368761134E+02 0.14368112824E+02 0.13421495083E+02
 0.11768630533E+02 0.97744570926E+01 0.77829905288E+01 0.60218151726E+01 0.45862942063E+01
 0.32356542038E+01 0.24731409546E+01 0.19664066310E+01 0.16784408232E+01 0.15852015804E+01
 0.16780777607E+01 0.19660654506E+01 0.24733846553E+01 0.32367962052E+01 0.43061911621E+01
 0.57393237591E+01 0.75741131862E+01 0.97722216144E+01 0.12153331903E+02 0.14368399647E+02
 0.15964972928E+02 0.16549028964E+02 0.15963968477E+02 0.14368112824E+02 0.12154805480E+02
 0.97743789300E+01 0.75750860195E+01 0.57385277291E+01 0.43046041882E+01 0.29213909611E+01
 0.22528715283E+01 0.18353268592E+01 0.16353481271E+01 0.16352808125E+01 0.18351812802E+01
 0.22528668611E+01 0.29218462810E+01 0.38918812539E+01 0.52287176813E+01 0.69971616702E+01
 0.92127984066E+01 0.11767706154E+02 0.14368399647E+02 0.16549609025E+02 0.17806705778E+02
 0.17806289295E+02 0.16549028964E+02 0.14368761134E+02 0.11769065887E+02 0.92140489797E+01
 0.69973190742E+01 0.52279006494E+01 0.38909410014E+01 0.25806530651E+01 0.20318558064E+01
 0.17201827727E+01 0.16193455548E+01 0.17201827727E+01 0.20318558064E+01 0.25806530651E+01
 0.34096569128E+01 0.45806506608E+01 0.61672100781E+01 0.82213252905E+01 0.10706996760E+02
 0.13422242615E+02 0.15964972928E+02 0.17806705778E+02 0.18482789838E+02 0.17806705778E+02
 0.15964972928E+02 0.13422242615E+02 0.10706996760E+02 0.82213252905E+01 0.61672100781E+01
 0.45806506608E+01 0.34096569128E+01 0.22528668611E+01 0.18351812802E+01 0.16352808125E+01
 0.16353481271E+01 0.18353268592E+01 0.22528715283E+01 0.29213909611E+01 0.38909410014E+01
 0.52279006494E+01 0.69973190742E+01 0.92140489797E+01 0.11769065887E+02 0.14368761134E+02
 0.16549028964E+02 0.17806289295E+02 0.17806705778E+02 0.16549609025E+02 0.14368399647E+02
 0.11767706154E+02 0.92127984066E+01 0.69971616702E+01 0.52287176813E+01 0.38918812539E+01
 0.29218462810E+01 0.19660654506E+01 0.16780777607E+01 0.15852015804E+01 0.16784408232E+01
 0.19664066310E+01 0.24731409546E+01 0.32356542038E+01 0.43046041882E+01 0.57385277291E+01
 0.75750860195E+01 0.97743789300E+01 0.12154805480E+02 0.14368112824E+02 0.15963968477E+02
 0.16549028964E+02 0.15964972928E+02 0.14368399647E+02 0.12153331903E+02 0.97722216144E+01
 0.75741131862E+01 0.57393237591E+01 0.43061911621E+01 0.32367962052E+01 0.24733846553E+01
 0.17353624945E+01 0.15649983172E+01 0.15652140527E+01 0.17358782985E+01 0.20925869140E+01
 0.26619298996E+01 0.34789557721E+01 0.45862942063E+01 0.60218151726E+01 0.77829905288E+01
 0.97744570926E+01 0.11768630533E+02 0.13421495083E+02 0.14368112824E+02 0.14368761134E+02
 0.13422242615E+02 0.11767706154E+02 0.97722216144E+01 0.77815708040E+01 0.60224293679E+01
 0.45880699182E+01 0.34803238370E+01 0.26622345582E+01 0.20921771089E+01 0.15645255793E+01
 0.14916807617E+01 0.15648231495E+01 0.17917728413E+01 0.21918705403E+01 0.27895690479E+01
 0.36121580046E+01 0.46865220048E+01 0.60220339401E+01 0.75756327055E+01 0.92146572249E+01
 0.10707533689E+02 0.11768630533E+02 0.12154805480E+02 0.11769065887E+02 0.10706996760E+02
 0.92127984066E+01 0.75741131862E+01 0.60224293679E+01 0.46883320410E+01 0.36136205761E+01
 0.27897477067E+01 0.21912270387E+01 0.17911340229E+01 0.14490160852E+01 0.14491403956E+01
 0.15723712448E+01 0.18318245641E+01 0.22464451001E+01 0.28346686382E+01 0.36122353063E+01
 0.45866254137E+01 0.57391834061E+01 0.69983998713E+01 0.82227068194E+01 0.92146572249E+01
 0.97744570926E+01 0.97743789300E+01 0.92140489797E+01 0.82213252905E+01 0.69971616702E+01
 0.57393237591E+01 0.45880699182E+01 0.36136205761E+01 0.28349326611E+01 0.22457706292E+01
 0.18310198523E+01 0.15719128435E+01 0.13799048736E+01 0.14280058387E+01 0.15786258427E+01
 0.18464068979E+01 0.22464809650E+01 0.27894777805E+01 0.34790382528E+01 0.43049792954E+01
 0.52286636060E+01 0.61682039032E+01 0.69983998713E+01 0.75756327055E+01 0.77829905288E+01
 0.75750860195E+01 0.69973190742E+01 0.61672100781E+01 0.52287176813E+01 0.43061911621E+01
 0.34803238370E+01 0.27897477067E+01 0.22457706292E+01 0.18455571964E+01 0.15782181900E+01
 0.14279547678E+01 0.13481279471E+01 0.14216883674E+01 0.15786338346E+01 0.18320431439E+01
 0.21919633621E+01 0.26618043696E+01 0.32354697039E+01 0.38908722767E+01 0.45807251850E+01
 0.52286636060E+01 0.57391834061E+01 0.60220339401E+01 0.60218151726E+01 0.57385277291E+01
 0.52279006494E+01 0.45806506608E+01 0.38918812539E+01 0.32367962052E+01 0.26622345582E+01
 0.21912270387E+01 0.18310198523E+01 0.15782181900E+01 0.14218795485E+01 0.13483089463E+01
 0.13481003844E+01 0.14278922501E+01 0.15723597419E+01 0.17919615844E+01 0.20927004185E+01
 0.24730471837E+01 0.29209044654E+01 0.34089172047E+01 0.38908722767E+01 0.43049792954E+01
 0.45866254137E+01 0.46865220048E+01 0.45862942063E+01 0.43046041882E+01 0.38909410014E+01
 0.34096569128E+01 0.29218462810E+01 0.24733846553E+01 0.20921771089E+01 0.17911340229E+01
 0.15719128435E+01 0.14279547678E+01 0.13483089463E+01 0.13229890181E+01 0.16988197438E+01
 0.17499808502E+01 0.18366738236E+01 0.19664950703E+01 0.21415022291E+01 0.23559472981E+01
 0.25947442630E+01 0.28330397746E+01 0.30387041086E+01 0.31788519920E+01 0.32286774769E+01
 0.31789220009E+01 0.30387967378E+01 0.28331286455E+01 0.25948342486E+01 0.23560133196E+01
 0.21414833042E+01 0.19663739962E+01 0.18365160211E+01 0.17498678694E+01 0.16987745072E+01
 0.16734554806E+01 0.16660124784E+01 0.16734626450E+01 0.17499808502E+01 0.17536813204E+01
 0.17789802109E+01 0.18353944557E+01 0.19264710749E+01 0.20472049285E+01 0.21836995733E+01
 0.23154583432E+01 0.24198664603E+01 0.24776435924E+01 0.24776861967E+01 0.24199357770E+01
 0.23154606655E+01 0.21836316163E+01 0.20471433252E+01 0.19264517055E+01 0.18353673749E+01
 0.17789037195E+01 0.17536051998E+01 0.17499852071E+01 0.17562687554E+01 0.17622610650E+01
 0.17622159741E+01 0.17561939307E+01 0.18366738236E+01 0.17789802109E+01 0.17360648018E+01
 0.17202107572E+01 0.17360686943E+01 0.17789937119E+01 0.18367050420E+01 0.18933730423E+01
 0.19342094833E+01 0.19490145107E+01 0.19341793623E+01 0.18933107748E+01 0.18366205521E+01
 0.17789141608E+01 0.17360224693E+01 0.17202080724E+01 0.17360995937E+01 0.17790472400E+01
 0.18367707260E+01 0.18934322875E+01 0.19342387730E+01 0.19490084554E+01 0.19341645874E+01
 0.18933246851E+01 0.19664950703E+01 0.18353944557E+01 0.17202107572E+01 0.16352469040E+01
 0.15851019830E+01 0.15650973448E+01 0.15647598878E+01 0.15723710911E+01 0.15786221744E+01
 0.15785762414E+01 0.15722867158E+01 0.15647290726E+01 0.15651446009E+01 0.15851809459E+01
 0.16353152613E+01 0.17202636529E+01 0.18354346429E+01 0.19665134485E+01 0.20926633425E+01
 0.21918977687E+01 0.22464245468E+01 0.22464330597E+01 0.21919151564E+01 0.20926701539E+01
 0.21415022291E+01 0.19264710749E+01 0.17360686943E+01 0.15851019830E+01 0.14772933928E+01
 0.14078487095E+01 0.13677534674E+01 0.13479216183E+01 0.13420378909E+01 0.13479089878E+01
 0.13677750020E+01 0.14079322624E+01 0.14774161952E+01 0.15852212907E+01 0.17361457338E+01
 0.19264673895E+01 0.21413985531E+01 0.23559869329E+01 0.25397858257E+01 0.26638653606E+01
 0.27077141779E+01 0.26639536618E+01 0.25399434471E+01 0.23561553378E+01 0.23559472981E+01
 0.20472049285E+01 0.17789937119E+01 0.15650973448E+01 0.14078487095E+01 0.13019378727E+01
 0.12385853889E+01 0.12094024266E+01 0.12094028956E+01 0.12386118423E+01 0.13020125183E+01
 0.14079293880E+01 0.15651209776E+01 0.17789518930E+01 0.20471325561E+01 0.23558650111E+01
 0.26779818595E+01 0.29750991124E+01 0.32046393547E+01 0.33299727060E+01 0.33299851574E+01
 0.32046835551E+01 0.29751757312E+01 0.26780700785E+01 0.25947442630E+01 0.21836995733E+01
 0.18367050420E+01 0.15647598878E+01 0.13677534674E+01 0.12385853889E+01 0.11670659032E+01
 0.11443572355E+01 0.11670163936E+01 0.12385745993E+01 0.13677874223E+01 0.15647422934E+01
 0.18366033363E+01 0.21835958290E+01 0.25947051713E+01 0.30433384709E+01 0.34855025248E+01
 0.38641464362E+01 0.41209145419E+01 0.42118855927E+01 0.41207859552E+01 0.38640037496E+01
 0.34854231070E+01 0.30433180714E+01 0.28330397746E+01 0.23154583432E+01 0.18933730423E+01
 0.15723710911E+01 0.13479216183E+01 0.12094024266E+01 0.11443572355E+01 0.11443031880E+01
 0.12093240163E+01 0.13479103696E+01 0.15723670704E+01 0.18933189481E+01 0.23154420248E+01
 0.28331267708E+01 0.34242769606E+01 0.40438296647E+01 0.46224414800E+01 0.50759854180E+01
 0.53263658387E+01 0.53262642928E+01 0.50758066158E+01 0.46223498286E+01 0.40437830640E+01
 0.34241783998E+01 0.30387041086E+01 0.24198664603E+01 0.19342094833E+01 0.15786221744E+01
 0.13420378909E+01 0.12094028956E+01 0.11670163936E+01 0.12093240163E+01 0.13420445821E+01
 0.15787308846E+01 0.19342645097E+01 0.24198396892E+01 0.30387350055E+01 0.37788380109E+01
 0.46012674805E+01 0.54309031459E+01 0.61585058594E+01 0.66617232926E+01 0.68420878996E+01
 0.66616964380E+01 0.61585320465E+01 0.54309445366E+01 0.46012109634E+01 0.37787246789E+01
 0.31788519920E+01 0.24776435924E+01 0.19490145107E+01 0.15785762414E+01 0.13479089878E+01
 0.12386118423E+01 0.12385745993E+01 0.13479103696E+01 0.15787308846E+01 0.19491863000E+01
 0.24776418959E+01 0.31787277909E+01 0.40559666243E+01 0.50864925600E+01 0.62017203191E+01
 0.72763780602E+01 0.81413208498E+01 0.86274955440E+01 0.86275280279E+01 0.81414190615E+01
 0.72764954119E+01 0.62017717276E+01 0.50864962557E+01 0.40560372690E+01 0.32286774769E+01
 0.24776861967E+01 0.19341793623E+01 0.15722867158E+01 0.13677750020E+01 0.13020125183E+01
 0.13677874223E+01 0.15723670704E+01 0.19342645097E+01 0.24776418959E+01 0.32285295709E+01
 0.42088616764E+01 0.54203347053E+01 0.68168704326E+01 0.82768522802E+01 0.95971295564E+01
 0.10530907272E+02 0.10869594765E+02 0.10530909465E+02 0.95972003679E+01 0.82769567887E+01
 0.68169086486E+01 0.54203399741E+01 0.42089539854E+01 0.31789220009E+01 0.24199357770E+01
 0.18933107748E+01 0.15647290726E+01 0.14079322624E+01 0.14079293880E+01 0.15647422934E+01
 0.18933189481E+01 0.24198396892E+01 0.31787277909E+01 0.42088616764E+01 0.55397671232E+01
 0.71607813603E+01 0.89786474564E+01 0.10786086133E+02 0.12276343273E+02 0.13126720209E+02
 0.13126685473E+02 0.12276301045E+02 0.10786082984E+02 0.89785953218E+01 0.71606400700E+01
 0.55396875931E+01 0.42089730037E+01 0.30387967378E+01 0.23154606655E+01 0.18366205521E+01
 0.15651446009E+01 0.14774161952E+01 0.15651209776E+01 0.18366033363E+01 0.23154420248E+01
 0.30387350055E+01 0.40559666243E+01 0.54203347053E+01 0.71607813603E+01 0.92320986245E+01
 0.11460002642E+02 0.13520883148E+02 0.15001321830E+02 0.15542552773E+02 0.15001301937E+02
 0.13520812125E+02 0.11459864289E+02 0.92319418685E+01 0.71606996761E+01 0.54203702602E+01
 0.40560587047E+01 0.28331286455E+01 0.21836316163E+01 0.17789141608E+01 0.15851809459E+01
 0.15852212907E+01 0.17789518930E+01 0.21835958290E+01 0.28331267708E+01 0.37788380109E+01
 0.50864925600E+01 0.68168704326E+01 0.89786474564E+01 0.11460002642E+02 0.13973968133E+02
 0.16074741027E+02 0.17283065314E+02 0.17283081771E+02 0.16074735212E+02 0.13973915500E+02
 0.11460015456E+02 0.89787684986E+01 0.68169432388E+01 0.50864092045E+01 0.37787284161E+01
 0.25948342486E+01 0.20471433252E+01 0.17360224693E+01 0.16353152613E+01 0.17361457338E+01
 0.20471325561E+01 0.25947051713E+01 0.34242769606E+01 0.46012674805E+01 0.62017203191E+01
 0.82768522802E+01 0.10786086133E+02 0.13520883148E+02 0.16074741027E+02 0.17903832385E+02
 0.18577844032E+02 0.17903896319E+02 0.16074775160E+02 0.13520951243E+02 0.10786294163E+02
 0.82770302063E+01 0.62016213535E+01 0.46010239370E+01 0.34242273551E+01 0.23560133196E+01
 0.19264517055E+01 0.17202080724E+01 0.17202636529E+01 0.19264673895E+01 0.23558650111E+01
 0.30433384709E+01 0.40438296647E+01 0.54309031459E+01 0.72763780602E+01 0.95971295564E+01
 0.12276343273E+02 0.15001321830E+02 0.17283065314E+02 0.18577844032E+02 0.18577917924E+02
 0.17283135023E+02 0.15001243109E+02 0.12276276271E+02 0.95972042700E+01 0.72764033231E+01
 0.54307364542E+01 0.40436940207E+01 0.30434360154E+01 0.21414833042E+01 0.18353673749E+01
 0.17360995937E+01 0.18354346429E+01 0.21413985531E+01 0.26779818595E+01 0.34855025248E+01
 0.46224414800E+01 0.61585058594E+01 0.81413208498E+01 0.10530907272E+02 0.13126720209E+02
 0.15542552773E+02 0.17283081771E+02 0.17903896319E+02 0.17283135023E+02 0.15542405319E+02
 0.13126421978E+02 0.10530789118E+02 0.81413990942E+01 0.61584759950E+01 0.46222772858E+01
 0.34854946583E+01 0.26781617152E+01 0.19663739962E+01 0.17789037195E+01 0.17790472400E+01
 0.19665134485E+01 0.23559869329E+01 0.29750991124E+01 0.38641464362E+01 0.50759854180E+01
 0.66617232926E+01 0.86274955440E+01 0.10869594765E+02 0.13126685473E+02 0.15001301937E+02
 0.16074735212E+02 0.16074775160E+02 0.15001243109E+02 0.13126421978E+02 0.10869451760E+02
 0.86276664304E+01 0.66618623061E+01 0.50758357317E+01 0.38640262379E+01 0.29752768083E+01
 0.23561493701E+01 0.18365160211E+01 0.17536051998E+01 0.18367707260E+01 0.20926633425E+01
 0.25397858257E+01 0.32046393547E+01 0.41209145419E+01 0.53263658387E+01 0.68420878996E+01
 0.86275280279E+01 0.10530909465E+02 0.12276301045E+02 0.13520812125E+02 0.13973915500E+02
 0.13520951243E+02 0.12276276271E+02 0.10530789118E+02 0.86276664304E+01 0.68423894935E+01
 0.53264042250E+01 0.41207421733E+01 0.32046870983E+01 0.25400117484E+01 0.20926280484E+01
 0.17498678694E+01 0.17499852071E+01 0.18934322875E+01 0.21918977687E+01 0.26638653606E+01
 0.33299727060E+01 0.42118855927E+01 0.53262642928E+01 0.66616964380E+01 0.81414190615E+01
 0.95972003679E+01 0.10786082984E+02 0.11459864289E+02 0.11460015456E+02 0.10786294163E+02
 0.95972042700E+01 0.81413990942E+01 0.66618623061E+01 0.53264042250E+01 0.42117932989E+01
 0.33298769757E+01 0.26639840931E+01 0.21920040912E+01 0.18933093087E+01 0.16987745072E+01
 0.17562687554E+01 0.19342387730E+01 0.22464245468E+01 0.27077141779E+01 0.33299851574E+01
 0.41207859552E+01 0.50758066158E+01 0.61585320465E+01 0.72764954119E+01 0.82769567887E+01
 0.89785953218E+01 0.92319418685E+01 0.89787684986E+01 0.82770302063E+01 0.72764033231E+01
 0.61584759950E+01 0.50758357317E+01 0.41207421733E+01 0.33298769757E+01 0.27077248832E+01
 0.22465313496E+01 0.19342313286E+01 0.17561570158E+01 0.16734554806E+01 0.17622610650E+01
 0.19490084554E+01 0.22464330597E+01 0.26639536618E+01 0.32046835551E+01 0.38640037496E+01
 0.46223498286E+01 0.54309445366E+01 0.62017717276E+01 0.68169086486E+01 0.71606400700E+01
 0.71606996761E+01 0.68169432388E+01 0.62016213535E+01 0.54307364542E+01 0.46222772858E+01
 0.38640262379E+01 0.32046870983E+01 0.26639840931E+01 0.22465313496E+01 0.19490397024E+01
 0.17621491269E+01 0.16733713904E+01 0.16660124784E+01 0.17622159741E+01 0.19341645874E+01
 0.21919151564E+01 0.25399434471E+01 0.29751757312E+01 0.34854231070E+01 0.40437830640E+01
 0.46012109634E+01 0.50864962557E+01 0.54203399741E+01 0.55396875931E+01 0.54203702602E+01
 0.50864092045E+01 0.46010239370E+01 0.40436940207E+01 0.34854946583E+01 0.29752768083E+01
 0.25400117484E+01 0.21920040912E+01 0.19342313286E+01 0.17621491269E+01 0.16658817405E+01
 0.16353012045E+01 0.16734626450E+01 0.17561939307E+01 0.18933246851E+01 0.20926701539E+01
 0.23561553378E+01 0.26780700785E+01 0.30433180714E+01 0.34241783998E+01 0.37787246789E+01
 0.40560372690E+01 0.42089539854E+01 0.42089730037E+01 0.40560587047E+01 0.37787284161E+01
 0.34242273551E+01 0.30434360154E+01 0.26781617152E+01 0.23561493701E+01 0.20926280484E+01
 0.18933093087E+01 0.17561570158E+01 0.16733713904E+01 0.16353012045E+01 0.16353561110E+01
 0.21352762100E+01 0.21469715164E+01 0.21836926933E+01 0.22528756978E+01 0.23559720815E+01
 0.24876887676E+01 0.26354221922E+01 0.27793450130E+01 0.28951062968E+01 0.29599352459E+01
 0.29599930055E+01 0.28952633026E+01 0.27794944590E+01 0.26353732175E+01 0.24873932901E+01
 0.23556843616E+01 0.22529167990E+01 0.21840520042E+01 0.21472815837E+01 0.21352309225E+01
 0.21369763772E+01 0.21414751156E+01 0.21416423102E+01 0.21372721339E+01 0.21469715164E+01
 0.20891076602E+01 0.20472058600E+01 0.20319782353E+01 0.20472158128E+01 0.20891073485E+01
 0.21469632325E+01 0.22054840590E+01 0.22486567737E+01 0.22644339833E+01 0.22484586888E+01
 0.22053143987E+01 0.21469651314E+01 0.20891817697E+01 0.20472191224E+01 0.20319388656E+01
 0.20472382206E+01 0.20891941547E+01 0.21469652001E+01 0.22053195658E+01 0.22484674548E+01
 0.22644263085E+01 0.22486366962E+01 0.22054773603E+01 0.21836926933E+01 0.20472058600E+01
 0.19264689212E+01 0.18353979302E+01 0.17789937013E+01 0.17536980827E+01 0.17499995668E+01
 0.17562149019E+01 0.17622193400E+01 0.17622174580E+01 0.17561786932E+01 0.17498857875E+01
 0.17535342834E+01 0.17788786727E+01 0.18353970754E+01 0.19265387865E+01 0.20472658196E+01
 0.21837459808E+01 0.23155330718E+01 0.24199571548E+01 0.24776601911E+01 0.24775833173E+01
 0.24198023039E+01 0.23154217287E+01 0.22528756978E+01 0.20319782353E+01 0.18353979302E+01
 0.16782993383E+01 0.15651014418E+01 0.14916175467E+01 0.14489851812E+01 0.14278712486E+01
 0.14216299569E+01 0.14279034899E+01 0.14490274180E+01 0.14916158823E+01 0.15650156281E+01
 0.16781689559E+01 0.18353215081E+01 0.20320180428E+01 0.22530152891E+01 0.24732197647E+01
 0.26619245108E+01 0.27894990013E+01 0.28345695257E+01 0.27893831065E+01 0.26617434056E+01
 0.24730328809E+01 0.23559720815E+01 0.20472158128E+01 0.17789937013E+01 0.15651014418E+01
 0.14078559223E+01 0.13019329263E+01 0.12385617082E+01 0.12093637516E+01 0.12093510974E+01
 0.12385567312E+01 0.13019860644E+01 0.14079631706E+01 0.15652103045E+01 0.17790619112E+01
 0.20472336546E+01 0.23559409021E+01 0.26780130315E+01 0.29750697192E+01 0.32045624913E+01
 0.33298856911E+01 0.33299175143E+01 0.32046451121E+01 0.29751685878E+01 0.26780889891E+01
 0.24876887676E+01 0.20891073485E+01 0.17536980827E+01 0.14916175467E+01 0.13019329263E+01
 0.11773865602E+01 0.11083485672E+01 0.10865491831E+01 0.11085478097E+01 0.11774841570E+01
 0.13018108057E+01 0.14915597816E+01 0.17539756680E+01 0.20895183239E+01 0.24877556959E+01
 0.29231239264E+01 0.33529652385E+01 0.37215921541E+01 0.39717985026E+01 0.40604802104E+01
 0.39717595654E+01 0.37217980509E+01 0.33534711500E+01 0.29235355367E+01 0.26354221922E+01
 0.21469632325E+01 0.17499995668E+01 0.14489851812E+01 0.12385617082E+01 0.11083485672E+01
 0.10470505700E+01 0.10470996284E+01 0.11084033577E+01 0.12385131386E+01 0.14489393626E+01
 0.17501621823E+01 0.21472810342E+01 0.26355341159E+01 0.31943181986E+01 0.37811195952E+01
 0.43301970080E+01 0.47613319887E+01 0.49995947215E+01 0.49994332392E+01 0.47611203206E+01
 0.43303530580E+01 0.37815911958E+01 0.31946353089E+01 0.27793450130E+01 0.22054840590E+01
 0.17562149019E+01 0.14278712486E+01 0.12093637516E+01 0.10865491831E+01 0.10470996284E+01
 0.10862128878E+01 0.12091395142E+01 0.14281237178E+01 0.17568029528E+01 0.22059001528E+01
 0.27792067730E+01 0.34661496661E+01 0.42308229470E+01 0.50031931805E+01 0.56812088350E+01
 0.61503699112E+01 0.63183797057E+01 0.61498313622E+01 0.56806835402E+01 0.50032088295E+01
 0.42313745820E+01 0.34667479462E+01 0.28951062968E+01 0.22486567737E+01 0.17622193400E+01
 0.14216299569E+01 0.12093510974E+01 0.11085478097E+01 0.11084033577E+01 0.12091395142E+01
 0.14217899250E+01 0.17629169833E+01 0.22494862539E+01 0.28953469453E+01 0.37042042059E+01
 0.46550492025E+01 0.56841631316E+01 0.66754060759E+01 0.74725629405E+01 0.79200517300E+01
 0.79195111687E+01 0.74715015384E+01 0.66749183377E+01 0.56847594242E+01 0.46561901490E+01
 0.37049002501E+01 0.29599352459E+01 0.22644339833E+01 0.17622174580E+01 0.14279034899E+01
 0.12385567312E+01 0.11774841570E+01 0.12385131386E+01 0.14281237178E+01 0.17629169833E+01
 0.22653093838E+01 0.29602480684E+01 0.38688843191E+01 0.49923899630E+01 0.62860734117E+01
 0.76350762289E+01 0.88511753015E+01 0.97088058357E+01 0.10019004275E+02 0.97078071590E+01
 0.88500477993E+01 0.76348381227E+01 0.62869970928E+01 0.49937412271E+01 0.38696092300E+01
 0.29599930055E+01 0.22484586888E+01 0.17561786932E+01 0.14490274180E+01 0.13019860644E+01
 0.13018108057E+01 0.14489393626E+01 0.17568029528E+01 0.22494862539E+01 0.29602480684E+01
 0.39276447037E+01 0.51802489948E+01 0.67052034324E+01 0.84090204018E+01 0.10093207270E+02
 0.11473523849E+02 0.12257644441E+02 0.12257209808E+02 0.11472285868E+02 0.10091679358E+02
 0.84082994840E+01 0.67060429329E+01 0.51820273264E+01 0.39288226268E+01 0.28952633026E+01
 0.22053143987E+01 0.17498857875E+01 0.14916158823E+01 0.14079631706E+01 0.14915597816E+01
 0.17501621823E+01 0.22059001528E+01 0.28953469453E+01 0.38688843191E+01 0.51802489948E+01
 0.68556860340E+01 0.88437737845E+01 0.10967215486E+02 0.12914185000E+02 0.14280891935E+02
 0.14783902491E+02 0.14280152230E+02 0.12912503148E+02 0.10965198048E+02 0.88428497647E+01
 0.68565979318E+01 0.51820676299E+01 0.38700269424E+01 0.27794944590E+01 0.21469651314E+01
 0.17535342834E+01 0.15650156281E+01 0.15652103045E+01 0.17539756680E+01 0.21472810342E+01
 0.27792067730E+01 0.37042042059E+01 0.49923899630E+01 0.67052034324E+01 0.88437737845E+01
 0.11282757041E+02 0.13709924200E+02 0.15726462890E+02 0.16884105761E+02 0.16884243262E+02
 0.15726185046E+02 0.13708385921E+02 0.11280648996E+02 0.88427622064E+01 0.67059556749E+01
 0.49939833833E+01 0.37053757960E+01 0.26353732175E+01 0.20891817697E+01 0.17788786727E+01
 0.16781689559E+01 0.17790619112E+01 0.20895183239E+01 0.26355341159E+01 0.34661496661E+01
 0.46550492025E+01 0.62860734117E+01 0.84090204018E+01 0.10967215486E+02 0.13709924200E+02
 0.16252357922E+02 0.18087216493E+02 0.18761167926E+02 0.18088618346E+02 0.16252756946E+02
 0.13708084529E+02 0.10964864076E+02 0.84084703500E+01 0.62874323549E+01 0.46566507904E+01
 0.34667994092E+01 0.24873932901E+01 0.20472191224E+01 0.18353970754E+01 0.18353215081E+01
 0.20472336546E+01 0.24877556959E+01 0.31943181986E+01 0.42308229470E+01 0.56841631316E+01
 0.76350762289E+01 0.10093207270E+02 0.12914185000E+02 0.15726462890E+02 0.18087216493E+02
 0.19448618745E+02 0.19449677457E+02 0.18088763515E+02 0.15726033592E+02 0.12912057112E+02
 0.10091887370E+02 0.76358366752E+01 0.56857544882E+01 0.42315696028E+01 0.31940712576E+01
 0.23556843616E+01 0.20319388656E+01 0.19265387865E+01 0.20320180428E+01 0.23559409021E+01
 0.29231239264E+01 0.37811195952E+01 0.50031931805E+01 0.66754060759E+01 0.88511753015E+01
 0.11473523849E+02 0.14280891935E+02 0.16884105761E+02 0.18761167926E+02 0.19449677457E+02
 0.18761999841E+02 0.16884401464E+02 0.14280071712E+02 0.11472665555E+02 0.88513691145E+01
 0.66763032377E+01 0.50037436649E+01 0.37809768203E+01 0.29227223149E+01 0.22529167990E+01
 0.20472382206E+01 0.20472658196E+01 0.22530152891E+01 0.26780130315E+01 0.33529652385E+01
 0.43301970080E+01 0.56812088350E+01 0.74725629405E+01 0.97088058357E+01 0.12257644441E+02
 0.14783902491E+02 0.16884243262E+02 0.18088618346E+02 0.18088763515E+02 0.16884401464E+02
 0.14783837230E+02 0.12257748725E+02 0.97094217312E+01 0.74732054707E+01 0.56811615628E+01
 0.43295221415E+01 0.33523067204E+01 0.26777020040E+01 0.21840520042E+01 0.20891941547E+01
 0.21837459808E+01 0.24732197647E+01 0.29750697192E+01 0.37215921541E+01 0.47613319887E+01
 0.61503699112E+01 0.79200517300E+01 0.10019004275E+02 0.12257209808E+02 0.14280152230E+02
 0.15726185046E+02 0.16252756946E+02 0.15726033592E+02 0.14280071712E+02 0.12257748725E+02
 0.10020377839E+02 0.79213851129E+01 0.61504113572E+01 0.47600097676E+01 0.37201337585E+01
 0.29744986090E+01 0.24734203688E+01 0.21472815837E+01 0.21469652001E+01 0.23155330718E+01
 0.26619245108E+01 0.32045624913E+01 0.39717985026E+01 0.49995947215E+01 0.63183797057E+01
 0.79195111687E+01 0.97078071590E+01 0.11472285868E+02 0.12912503148E+02 0.13708385921E+02
 0.13708084529E+02 0.12912057112E+02 0.11472665555E+02 0.97094217312E+01 0.79213851129E+01
 0.63188816060E+01 0.49982576616E+01 0.39699154232E+01 0.32036750047E+01 0.26622588751E+01
 0.23162434836E+01 0.21352309225E+01 0.22053195658E+01 0.24199571548E+01 0.27894990013E+01
 0.33298856911E+01 0.40604802104E+01 0.49994332392E+01 0.61498313622E+01 0.74715015384E+01
 0.88500477993E+01 0.10091679358E+02 0.10965198048E+02 0.11280648996E+02 0.10964864076E+02
 0.10091887370E+02 0.88513691145E+01 0.74732054707E+01 0.61504113572E+01 0.49982576616E+01
 0.40585896257E+01 0.33288728099E+01 0.27898833920E+01 0.24209949778E+01 0.22060616378E+01
 0.21369763772E+01 0.22484674548E+01 0.24776601911E+01 0.28345695257E+01 0.33299175143E+01
 0.39717595654E+01 0.47611203206E+01 0.56806835402E+01 0.66749183377E+01 0.76348381227E+01
 0.84082994840E+01 0.88428497647E+01 0.88427622064E+01 0.84084703500E+01 0.76358366752E+01
 0.66763032377E+01 0.56811615628E+01 0.47600097676E+01 0.39699154232E+01 0.33288728099E+01
 0.28349554052E+01 0.24788163500E+01 0.22494288475E+01 0.21373118565E+01 0.21414751156E+01
 0.22644263085E+01 0.24775833173E+01 0.27893831065E+01 0.32046451121E+01 0.37217980509E+01
 0.43303530580E+01 0.50032088295E+01 0.56847594242E+01 0.62869970928E+01 0.67060429329E+01
 0.68565979318E+01 0.67059556749E+01 0.62874323549E+01 0.56857544882E+01 0.50037436649E+01
 0.43295221415E+01 0.37201337585E+01 0.32036750047E+01 0.27898833920E+01 0.24788163500E+01
 0.22652603789E+01 0.21416820250E+01 0.21013997753E+01 0.21416423102E+01 0.22486366962E+01
 0.24198023039E+01 0.26617434056E+01 0.29751685878E+01 0.33534711500E+01 0.37815911958E+01
 0.42313745820E+01 0.46561901490E+01 0.49937412271E+01 0.51820273264E+01 0.51820676299E+01
 0.49939833833E+01 0.46566507904E+01 0.42315696028E+01 0.37809768203E+01 0.33523067204E+01
 0.29744986090E+01 0.26622588751E+01 0.24209949778E+01 0.22494288475E+01 0.21416820250E+01
 0.20904595613E+01 0.20905909502E+01 0.21372721339E+01 0.22054773603E+01 0.23154217287E+01
 0.24730328809E+01 0.26780889891E+01 0.29235355367E+01 0.31946353089E+01 0.34667479462E+01
 0.37049002501E+01 0.38696092300E+01 0.39288226268E+01 0.38700269424E+01 0.37053757960E+01
 0.34667994092E+01 0.31940712576E+01 0.29227223149E+01 0.26777020040E+01 0.24734203688E+01
 0.23162434836E+01 0.22060616378E+01 0.21373118565E+01 0.21013997753E+01 0.20905909502E+01
 0.21016029828E+01 0.26933371865E+01 0.26354580382E+01 0.25947626818E+01 0.25802459570E+01
 0.25947919811E+01 0.26354420257E+01 0.26932667490E+01 0.27537560580E+01 0.27997021799E+01
 0.28168582825E+01 0.27997258178E+01 0.27538858553E+01 0.26934701407E+01 0.26355582150E+01
 0.25947512654E+01 0.25801487223E+01 0.25947053658E+01 0.26354213977E+01 0.26932839840E+01
 0.27537662973E+01 0.27997067601E+01 0.28168736562E+01 0.27997229050E+01 0.27538125122E+01
 0.26354580382E+01 0.24876887908E+01 0.23559465963E+01 0.22528714612E+01 0.21837047428E+01
 0.21469531391E+01 0.21352327032E+01 0.21372584920E+01 0.21416725450E+01 0.21415179686E+01
 0.21370311359E+01 0.21353181612E+01 0.21473663506E+01 0.21840672682E+01 0.22528606224E+01
 0.23556106192E+01 0.24873172030E+01 0.26352749639E+01 0.27794038487E+01 0.28952431343E+01
 0.29600394137E+01 0.29599838760E+01 0.28951340986E+01 0.27793794240E+01 0.25947626818E+01
 0.23559465963E+01 0.21414846854E+01 0.19664959209E+01 0.18366915595E+01 0.17499826599E+01
 0.16988089103E+01 0.16734711195E+01 0.16660332265E+01 0.16734517322E+01 0.16987503464E+01
 0.17498612683E+01 0.18365283570E+01 0.19663746099E+01 0.21414762044E+01 0.23560295156E+01
 0.25948643953E+01 0.28331329974E+01 0.30387765852E+01 0.31789134450E+01 0.32286814343E+01
 0.31788389252E+01 0.30386805562E+01 0.28330401521E+01 0.25802459570E+01 0.22528714612E+01
 0.19664959209E+01 0.17358671902E+01 0.15647680706E+01 0.14489858058E+01 0.13798004752E+01
 0.13480719016E+01 0.13480909660E+01 0.13798455079E+01 0.14489741002E+01 0.15645596343E+01
 0.17354653354E+01 0.19661793467E+01 0.22529653335E+01 0.25807388472E+01 0.29214347146E+01
 0.32356147542E+01 0.34788532878E+01 0.36120573639E+01 0.36121651390E+01 0.34789880821E+01
 0.32354477241E+01 0.29209271291E+01 0.25947919811E+01 0.21837047428E+01 0.18366915595E+01
 0.15647680706E+01 0.13677667576E+01 0.12385610448E+01 0.11670105997E+01 0.11443094370E+01
 0.11669856682E+01 0.12385632590E+01 0.13678360753E+01 0.15648794406E+01 0.18367760928E+01
 0.21837192611E+01 0.25947544769E+01 0.30433313082E+01 0.34854301722E+01 0.38639999719E+01
 0.41207496022E+01 0.42117816692E+01 0.41207575056E+01 0.38640138384E+01 0.34854566368E+01
 0.30433750844E+01 0.26354420257E+01 0.21469531391E+01 0.17499826599E+01 0.14489858058E+01
 0.12385610448E+01 0.11083200731E+01 0.10470123417E+01 0.10470881647E+01 0.11084238713E+01
 0.12385569168E+01 0.14490157523E+01 0.17502660644E+01 0.21473606423E+01 0.26355407949E+01
 0.31942627053E+01 0.37810389016E+01 0.43301003132E+01 0.47612251501E+01 0.49995202435E+01
 0.49994297143E+01 0.47611670686E+01 0.43304026134E+01 0.37816305675E+01 0.31946718981E+01
 0.26932667490E+01 0.21352327032E+01 0.16988089103E+01 0.13798004752E+01 0.11670105997E+01
 0.10470123417E+01 0.10085371889E+01 0.10470739542E+01 0.11670669200E+01 0.13797879691E+01
 0.16987161799E+01 0.21350997372E+01 0.26931698802E+01 0.33625966770E+01 0.41083314939E+01
 0.48624417761E+01 0.55256715433E+01 0.59856842688E+01 0.61509417226E+01 0.59858008841E+01
 0.55257573445E+01 0.48624062208E+01 0.41082494405E+01 0.33625909655E+01 0.27537560580E+01
 0.21372584920E+01 0.16734711195E+01 0.13480719016E+01 0.11443094370E+01 0.10470881647E+01
 0.10470739542E+01 0.11442854222E+01 0.13480476207E+01 0.16733753360E+01 0.21369908196E+01
 0.27533803034E+01 0.35270025845E+01 0.44381322167E+01 0.54260827706E+01 0.63798094008E+01
 0.71488202993E+01 0.75817375904E+01 0.75817465427E+01 0.71486961125E+01 0.63793817700E+01
 0.54255445760E+01 0.44378875545E+01 0.35271910145E+01 0.27997021799E+01 0.21416725450E+01
 0.16660332265E+01 0.13480909660E+01 0.11669856682E+01 0.11084238713E+01 0.11670669200E+01
 0.13480476207E+01 0.16658548310E+01 0.21416034648E+01 0.27998452939E+01 0.36617366968E+01
 0.47293111543E+01 0.59608219810E+01 0.72471980184E+01 0.84085285657E+01 0.92285336590E+01
 0.95256694789E+01 0.92285021916E+01 0.84084666509E+01 0.72471673068E+01 0.59608486196E+01
 0.47292806432E+01 0.36615706322E+01 0.28168582825E+01 0.21415179686E+01 0.16734517322E+01
 0.13798455079E+01 0.12385632590E+01 0.12385569168E+01 0.13797879691E+01 0.16733753360E+01
 0.21416034648E+01 0.28171576526E+01 0.37382466437E+01 0.49329300481E+01 0.63885396527E+01
 0.80139031918E+01 0.96172668045E+01 0.10927768152E+02 0.11652070342E+02 0.11652425766E+02
 0.10928485665E+02 0.96177773391E+01 0.80140710993E+01 0.63885387869E+01 0.49327966265E+01
 0.37379448752E+01 0.27997258178E+01 0.21370311359E+01 0.16987503464E+01 0.14489741002E+01
 0.13678360753E+01 0.14490157523E+01 0.16987161799E+01 0.21369908196E+01 0.27998452939E+01
 0.37382466437E+01 0.50061017541E+01 0.66278118412E+01 0.85473142852E+01 0.10583829973E+02
 0.12409468004E+02 0.13719020367E+02 0.14196443252E+02 0.13719217755E+02 0.12409574942E+02
 0.10583800606E+02 0.85473859120E+01 0.66279988424E+01 0.50061367546E+01 0.37380762735E+01
 0.27538858553E+01 0.21353181612E+01 0.17498612683E+01 0.15645596343E+01 0.15648794406E+01
 0.17502660644E+01 0.21350997372E+01 0.27533803034E+01 0.36617366968E+01 0.49329300481E+01
 0.66278118412E+01 0.87385481064E+01 0.11103810288E+02 0.13454816015E+02 0.15400490352E+02
 0.16513835268E+02 0.16513306230E+02 0.15399379496E+02 0.13454106427E+02 0.11103989191E+02
 0.87390739433E+01 0.66278728885E+01 0.49325989649E+01 0.36617658678E+01 0.26934701407E+01
 0.21473663506E+01 0.18365283570E+01 0.17354653354E+01 0.18367760928E+01 0.21473606423E+01
 0.26931698802E+01 0.35270025845E+01 0.47293111543E+01 0.63885396527E+01 0.85473142852E+01
 0.11103810288E+02 0.13831422381E+02 0.16350494244E+02 0.18155648174E+02 0.18813734048E+02
 0.18155638153E+02 0.16350280564E+02 0.13831146817E+02 0.11103797481E+02 0.85474339642E+01
 0.63884167315E+01 0.47290786946E+01 0.35270947422E+01 0.26355582150E+01 0.21840672682E+01
 0.19663746099E+01 0.19661793467E+01 0.21837192611E+01 0.26355407949E+01 0.33625966770E+01
 0.44381322167E+01 0.59608219810E+01 0.80139031918E+01 0.10583829973E+02 0.13454816015E+02
 0.16350494244E+02 0.18749302563E+02 0.20116644644E+02 0.20117525688E+02 0.18750800126E+02
 0.16350870914E+02 0.13454134017E+02 0.10583432616E+02 0.80142288133E+01 0.59610684066E+01
 0.44377984736E+01 0.33621620146E+01 0.25947512654E+01 0.22528606224E+01 0.21414762044E+01
 0.22529653335E+01 0.25947544769E+01 0.31942627053E+01 0.41083314939E+01 0.54260827706E+01
 0.72471980184E+01 0.96172668045E+01 0.12409468004E+02 0.15400490352E+02 0.18155648174E+02
 0.20116644644E+02 0.20827874733E+02 0.20116922502E+02 0.18155789271E+02 0.15400427568E+02
 0.12409556319E+02 0.96175620765E+01 0.72473366516E+01 0.54259533227E+01 0.41082333482E+01
 0.31943171105E+01 0.25801487223E+01 0.23556106192E+01 0.23560295156E+01 0.25807388472E+01
 0.30433313082E+01 0.37810389016E+01 0.48624417761E+01 0.63798094008E+01 0.84085285657E+01
 0.10927768152E+02 0.13719020367E+02 0.16513835268E+02 0.18813734048E+02 0.20117525688E+02
 0.20116922502E+02 0.18812593194E+02 0.16513373913E+02 0.13719560800E+02 0.10928418465E+02
 0.84084543121E+01 0.63793807262E+01 0.48625653958E+01 0.37816602809E+01 0.30434896112E+01
 0.25947053658E+01 0.24873172030E+01 0.25948643953E+01 0.29214347146E+01 0.34854301722E+01
 0.43301003132E+01 0.55256715433E+01 0.71488202993E+01 0.92285336590E+01 0.11652070342E+02
 0.14196443252E+02 0.16513306230E+02 0.18155638153E+02 0.18750800126E+02 0.18155789271E+02
 0.16513373913E+02 0.14196352449E+02 0.11651970067E+02 0.92284815569E+01 0.71487422043E+01
 0.55256171903E+01 0.43301886875E+01 0.34855556721E+01 0.29213831510E+01 0.26354213977E+01
 0.26352749639E+01 0.28331329974E+01 0.32356147542E+01 0.38639999719E+01 0.47612251501E+01
 0.59856842688E+01 0.75817375904E+01 0.95256694789E+01 0.11652425766E+02 0.13719217755E+02
 0.15399379496E+02 0.16350280564E+02 0.16350870914E+02 0.15400427568E+02 0.13719560800E+02
 0.11651970067E+02 0.95252561080E+01 0.75818202506E+01 0.59858653956E+01 0.47610729166E+01
 0.38636917059E+01 0.32355628494E+01 0.28333574412E+01 0.26932839840E+01 0.27794038487E+01
 0.30387765852E+01 0.34788532878E+01 0.41207496022E+01 0.49995202435E+01 0.61509417226E+01
 0.75817465427E+01 0.92285021916E+01 0.10928485665E+02 0.12409574942E+02 0.13454106427E+02
 0.13831146817E+02 0.13454134017E+02 0.12409556319E+02 0.10928418465E+02 0.92284815569E+01
 0.75818202506E+01 0.61510387033E+01 0.49995562235E+01 0.41207221477E+01 0.34788025243E+01
 0.30387252441E+01 0.27793678133E+01 0.27537662973E+01 0.28952431343E+01 0.31789134450E+01
 0.36120573639E+01 0.42117816692E+01 0.49994297143E+01 0.59858008841E+01 0.71486961125E+01
 0.84084666509E+01 0.96177773391E+01 0.10583800606E+02 0.11103989191E+02 0.11103797481E+02
 0.10583432616E+02 0.96175620765E+01 0.84084543121E+01 0.71487422043E+01 0.59858653956E+01
 0.49995562235E+01 0.42119051798E+01 0.36120627409E+01 0.31788185751E+01 0.28951579168E+01
 0.27537392621E+01 0.27997067601E+01 0.29600394137E+01 0.32286814343E+01 0.36121651390E+01
 0.41207575056E+01 0.47611670686E+01 0.55257573445E+01 0.63793817700E+01 0.72471673068E+01
 0.80140710993E+01 0.85473859120E+01 0.87390739433E+01 0.85474339642E+01 0.80142288133E+01
 0.72473366516E+01 0.63793807262E+01 0.55256171903E+01 0.47610729166E+01 0.41207221477E+01
 0.36120627409E+01 0.32285617601E+01 0.29600720816E+01 0.27998359168E+01 0.27462481814E+01
 0.28168736562E+01 0.29599838760E+01 0.31788389252E+01 0.34789880821E+01 0.38640138384E+01
 0.43304026134E+01 0.48624062208E+01 0.54255445760E+01 0.59608486196E+01 0.63885387869E+01
 0.66279988424E+01 0.66278728885E+01 0.63884167315E+01 0.59610684066E+01 0.54259533227E+01
 0.48625653958E+01 0.43301886875E+01 0.38636917059E+01 0.34788025243E+01 0.31788185751E+01
 0.29600720816E+01 0.28170018988E+01 0.27459764945E+01 0.27459131396E+01 0.27997229050E+01
 0.28951340986E+01 0.30386805562E+01 0.32354477241E+01 0.34854566368E+01 0.37816305675E+01
 0.41082494405E+01 0.44378875545E+01 0.47292806432E+01 0.49327966265E+01 0.50061367546E+01
 0.49325989649E+01 0.47290786946E+01 0.44377984736E+01 0.41082333482E+01 0.37816602809E+01
 0.34855556721E+01 0.32355628494E+01 0.30387252441E+01 0.28951579168E+01 0.27998359168E+01
 0.27459764945E+01 0.27285303034E+01 0.27458345642E+01 0.27538125122E+01 0.27793794240E+01
 0.28330401521E+01 0.29209271291E+01 0.30433750844E+01 0.31946718981E+01 0.33625909655E+01
 0.35271910145E+01 0.36615706322E+01 0.37379448752E+01 0.37380762735E+01 0.36617658678E+01
 0.35270947422E+01 0.33621620146E+01 0.31943171105E+01 0.30434896112E+01 0.29213831510E+01
 0.28333574412E+01 0.27793678133E+01 0.27537392621E+01 0.27462481814E+01 0.27459131396E+01
 0.27458345642E+01 0.27461695051E+01 0.33626469208E+01 0.31946606561E+01 0.30433268141E+01
 0.29209350189E+01 0.28330814348E+01 0.27793570683E+01 0.27537430880E+01 0.27461546181E+01
 0.27458800350E+01 0.27459505463E+01 0.27462957695E+01 0.27538598784E+01 0.27795022668E+01
 0.28333814677E+01 0.29213007873E+01 0.30433993366E+01 0.31942278974E+01 0.33620222497E+01
 0.35269605807E+01 0.36617499803E+01 0.37381566238E+01 0.37380030304E+01 0.36615889645E+01
 0.35272373318E+01 0.31946606561E+01 0.29235111751E+01 0.26780443405E+01 0.24730327802E+01
 0.23154399645E+01 0.22054465093E+01 0.21372237223E+01 0.21016251012E+01 0.20906813184E+01
 0.21014879798E+01 0.21373852198E+01 0.22061383959E+01 0.23162666045E+01 0.24733177719E+01
 0.26775188711E+01 0.29225658596E+01 0.31939641863E+01 0.34667121400E+01 0.37053489823E+01
 0.38701183280E+01 0.39289733428E+01 0.38697043388E+01 0.37049291768E+01 0.34667760056E+01
 0.30433268141E+01 0.26780443405E+01 0.23561164865E+01 0.20926722241E+01 0.18933457518E+01
 0.17561818763E+01 0.16734478737E+01 0.16354021089E+01 0.16353814943E+01 0.16734085497E+01
 0.17561445732E+01 0.18932856147E+01 0.20925752258E+01 0.23560344657E+01 0.26780369666E+01
 0.30433831378E+01 0.34242392221E+01 0.37787514094E+01 0.40561039021E+01 0.42090724231E+01
 0.42090557243E+01 0.40560645708E+01 0.37786994129E+01 0.34241727261E+01 0.29209350189E+01
 0.24730327802E+01 0.20926722241E+01 0.17919788340E+01 0.15723937502E+01 0.14278846477E+01
 0.13480779406E+01 0.13230062607E+01 0.13483357465E+01 0.14279361791E+01 0.15718823883E+01
 0.17911523696E+01 0.20922155812E+01 0.24733833838E+01 0.29218294488E+01 0.34096761898E+01
 0.38909640492E+01 0.43045752040E+01 0.45862475046E+01 0.46865205569E+01 0.45866438796E+01
 0.43049614772E+01 0.38908455560E+01 0.34089352050E+01 0.28330814348E+01 0.23154399645E+01
 0.18933457518E+01 0.15723937502E+01 0.13479481548E+01 0.12093703645E+01 0.11443086646E+01
 0.11443071947E+01 0.12093604648E+01 0.13479396276E+01 0.15724277228E+01 0.18934405798E+01
 0.23155447431E+01 0.28331244029E+01 0.34242026041E+01 0.40437518710E+01 0.46223442530E+01
 0.50758451526E+01 0.53262567921E+01 0.53262628112E+01 0.50758668318E+01 0.46223889441E+01
 0.40438113236E+01 0.34242340782E+01 0.27793570683E+01 0.22054465093E+01 0.17561818763E+01
 0.14278846477E+01 0.12093703645E+01 0.10865045206E+01 0.10470645087E+01 0.10862552048E+01
 0.12092283841E+01 0.14282060971E+01 0.17568891258E+01 0.22059852436E+01 0.27792082494E+01
 0.34660211843E+01 0.42306422916E+01 0.50030502252E+01 0.56810992861E+01 0.61502815272E+01
 0.63183745365E+01 0.61499414147E+01 0.56808214464E+01 0.50032827636E+01 0.42314050070E+01
 0.34667828068E+01 0.27537430880E+01 0.21372237223E+01 0.16734478737E+01 0.13480779406E+01
 0.11443086646E+01 0.10470645087E+01 0.10470743374E+01 0.11443407973E+01 0.13481171240E+01
 0.16734127968E+01 0.21369993706E+01 0.27533609418E+01 0.35269237876E+01 0.44379990747E+01
 0.54259668953E+01 0.63797627804E+01 0.71488232997E+01 0.75817682398E+01 0.75818243344E+01
 0.71488132546E+01 0.63794695853E+01 0.54255612883E+01 0.44378721698E+01 0.35271851852E+01
 0.27461546181E+01 0.21016251012E+01 0.16354021089E+01 0.13230062607E+01 0.11443071947E+01
 0.10862552048E+01 0.11443407973E+01 0.13230838986E+01 0.16353065920E+01 0.21009814777E+01
 0.27450237896E+01 0.35899137929E+01 0.46388258174E+01 0.58506386682E+01 0.71172115548E+01
 0.82608695114E+01 0.90686695688E+01 0.93618021437E+01 0.90692856814E+01 0.82608627145E+01
 0.71159281919E+01 0.58490257947E+01 0.46382790231E+01 0.35906703698E+01 0.27458800350E+01
 0.20906813184E+01 0.16353814943E+01 0.13483357465E+01 0.12093604648E+01 0.12092283841E+01
 0.13481171240E+01 0.16353065920E+01 0.20905813969E+01 0.27453877946E+01 0.36387228815E+01
 0.48006108146E+01 0.62198025055E+01 0.78053697317E+01 0.93669820131E+01 0.10621275852E+02
 0.11337516509E+02 0.11338276548E+02 0.10622497988E+02 0.93669597244E+01 0.78040193588E+01
 0.62185920526E+01 0.48005605138E+01 0.36393977262E+01 0.27459505463E+01 0.21014879798E+01
 0.16734085497E+01 0.14279361791E+01 0.13479396276E+01 0.14282060971E+01 0.16734127968E+01
 0.21009814777E+01 0.27453877946E+01 0.36578177571E+01 0.48930968424E+01 0.64749468650E+01
 0.83430783808E+01 0.10291189100E+02 0.12062769910E+02 0.13323796125E+02 0.13783833852E+02
 0.13325585940E+02 0.12064779801E+02 0.10291929582E+02 0.83423908041E+01 0.64737045847E+01
 0.48922410326E+01 0.36577802105E+01 0.27462957695E+01 0.21373852198E+01 0.17561445732E+01
 0.15718823883E+01 0.15724277228E+01 0.17568891258E+01 0.21369993706E+01 0.27450237896E+01
 0.36387228815E+01 0.48930968424E+01 0.65670275034E+01 0.86402675933E+01 0.10924999384E+02
 0.13194552262E+02 0.15060558852E+02 0.16119859815E+02 0.16120685436E+02 0.15062504049E+02
 0.13196386311E+02 0.10925578028E+02 0.86392620116E+01 0.65652758703E+01 0.48921157901E+01
 0.36393106228E+01 0.27538598784E+01 0.22061383959E+01 0.18932856147E+01 0.17911523696E+01
 0.18934405798E+01 0.22059852436E+01 0.27533609418E+01 0.35899137929E+01 0.48006108146E+01
 0.64749468650E+01 0.86402675933E+01 0.11150993548E+02 0.13821419537E+02 0.16248945661E+02
 0.17951286531E+02 0.18562424002E+02 0.17952456908E+02 0.16250323678E+02 0.13822115546E+02
 0.11150826844E+02 0.86395208069E+01 0.64740792027E+01 0.48001754975E+01 0.35901590344E+01
 0.27795022668E+01 0.23162666045E+01 0.20925752258E+01 0.20922155812E+01 0.23155447431E+01
 0.27792082494E+01 0.35269237876E+01 0.46388258174E+01 0.62198025055E+01 0.83430783808E+01
 0.10924999384E+02 0.13821419537E+02 0.16670322367E+02 0.18945961515E+02 0.20194176979E+02
 0.20195129578E+02 0.18947903102E+02 0.16671713599E+02 0.13821845945E+02 0.10924977628E+02
 0.83427782377E+01 0.62189700744E+01 0.46377056669E+01 0.35263136470E+01 0.28333814677E+01
 0.24733177719E+01 0.23560344657E+01 0.24733833838E+01 0.28331244029E+01 0.34660211843E+01
 0.44379990747E+01 0.58506386682E+01 0.78053697317E+01 0.10291189100E+02 0.13194552262E+02
 0.16248945661E+02 0.18945961515E+02 0.20757686013E+02 0.21384987669E+02 0.20758576812E+02
 0.18947674260E+02 0.16251017082E+02 0.13195965279E+02 0.10290996466E+02 0.78037547289E+01
 0.58489771700E+01 0.44374439592E+01 0.34663401338E+01 0.29213007873E+01 0.26775188711E+01
 0.26780369666E+01 0.29218294488E+01 0.34242026041E+01 0.42306422916E+01 0.54259668953E+01
 0.71172115548E+01 0.93669820131E+01 0.12062769910E+02 0.15060558852E+02 0.17951286531E+02
 0.20194176979E+02 0.21384987669E+02 0.21383861036E+02 0.20192597798E+02 0.17952072166E+02
 0.15063440387E+02 0.12064562887E+02 0.93657902254E+01 0.71147965970E+01 0.54251469770E+01
 0.42316206468E+01 0.34249167665E+01 0.30433993366E+01 0.29225658596E+01 0.30433831378E+01
 0.34096761898E+01 0.40437518710E+01 0.50030502252E+01 0.63797627804E+01 0.82608695114E+01
 0.10621275852E+02 0.13323796125E+02 0.16119859815E+02 0.18562424002E+02 0.20195129578E+02
 0.20758576812E+02 0.20192597798E+02 0.18560437728E+02 0.16120570715E+02 0.13325862692E+02
 0.10621961946E+02 0.82596040268E+01 0.63784209827E+01 0.50031604251E+01 0.40447770181E+01
 0.34103094179E+01 0.31942278974E+01 0.31939641863E+01 0.34242392221E+01 0.38909640492E+01
 0.46223442530E+01 0.56810992861E+01 0.71488232997E+01 0.90686695688E+01 0.11337516509E+02
 0.13783833852E+02 0.16120685436E+02 0.17952456908E+02 0.18947903102E+02 0.18947674260E+02
 0.17952072166E+02 0.16120570715E+02 0.13783866878E+02 0.11337221484E+02 0.90679678158E+01
 0.71482254002E+01 0.56811281765E+01 0.46230169207E+01 0.38918776690E+01 0.34249557960E+01
 0.33620222497E+01 0.34667121400E+01 0.37787514094E+01 0.43045752040E+01 0.50758451526E+01
 0.61502815272E+01 0.75817682398E+01 0.93618021437E+01 0.11338276548E+02 0.13325585940E+02
 0.15062504049E+02 0.16250323678E+02 0.16671713599E+02 0.16251017082E+02 0.15063440387E+02
 0.13325862692E+02 0.11337221484E+02 0.93599385525E+01 0.75806228343E+01 0.61508524440E+01
 0.50775123475E+01 0.43058413361E+01 0.37788823752E+01 0.34663124210E+01 0.35269605807E+01
 0.37053489823E+01 0.40561039021E+01 0.45862475046E+01 0.53262567921E+01 0.63183745365E+01
 0.75818243344E+01 0.90692856814E+01 0.10622497988E+02 0.12064779801E+02 0.13196386311E+02
 0.13822115546E+02 0.13821845945E+02 0.13195965279E+02 0.12064562887E+02 0.10621961946E+02
 0.90679678158E+01 0.75806228343E+01 0.63187789718E+01 0.53282893071E+01 0.45881146484E+01
 0.40562225824E+01 0.37041431466E+01 0.35262293236E+01 0.36617499803E+01 0.38701183280E+01
 0.42090724231E+01 0.46865205569E+01 0.53262628112E+01 0.61499414147E+01 0.71488132546E+01
 0.82608627145E+01 0.93669597244E+01 0.10291929582E+02 0.10925578028E+02 0.11150826844E+02
 0.10924977628E+02 0.10290996466E+02 0.93657902254E+01 0.82596040268E+01 0.71482254002E+01
 0.61508524440E+01 0.53282893071E+01 0.46880884709E+01 0.42090267984E+01 0.38688492109E+01
 0.36606013278E+01 0.35901392398E+01 0.37381566238E+01 0.39289733428E+01 0.42090557243E+01
 0.45866438796E+01 0.50758668318E+01 0.56808214464E+01 0.63794695853E+01 0.71159281919E+01
 0.78040193588E+01 0.83423908041E+01 0.86392620116E+01 0.86395208069E+01 0.83427782377E+01
 0.78037547289E+01 0.71147965970E+01 0.63784209827E+01 0.56811281765E+01 0.50775123475E+01
 0.45881146484E+01 0.42090267984E+01 0.39276695479E+01 0.37367797606E+01 0.36388144403E+01
 0.36393586934E+01 0.37380030304E+01 0.38697043388E+01 0.40560645708E+01 0.43049614772E+01
 0.46223889441E+01 0.50032827636E+01 0.54255612883E+01 0.58490257947E+01 0.62185920526E+01
 0.64737045847E+01 0.65652758703E+01 0.64740792027E+01 0.62189700744E+01 0.58489771700E+01
 0.54251469770E+01 0.50031604251E+01 0.46230169207E+01 0.43058413361E+01 0.40562225824E+01
 0.38688492109E+01 0.37367797606E+01 0.36569841819E+01 0.36303293949E+01 0.36577809809E+01
 0.36615889645E+01 0.37049291768E+01 0.37786994129E+01 0.38908455560E+01 0.40438113236E+01
 0.42314050070E+01 0.44378721698E+01 0.46382790231E+01 0.48005605138E+01 0.48922410326E+01
 0.48921157901E+01 0.48001754975E+01 0.46377056669E+01 0.44374439592E+01 0.42316206468E+01
 0.40447770181E+01 0.38918776690E+01 0.37788823752E+01 0.37041431466E+01 0.36606013278E+01
 0.36388144403E+01 0.36303293949E+01 0.36304446799E+01 0.36393450559E+01 0.35272373318E+01
 0.34667760056E+01 0.34241727261E+01 0.34089352050E+01 0.34242340782E+01 0.34667828068E+01
 0.35271851852E+01 0.35906703698E+01 0.36393977262E+01 0.36577802105E+01 0.36393106228E+01
 0.35901590344E+01 0.35263136470E+01 0.34663401338E+01 0.34249167665E+01 0.34103094179E+01
 0.34249557960E+01 0.34663124210E+01 0.35262293236E+01 0.35901392398E+01 0.36393586934E+01
 0.36577809809E+01 0.36393450559E+01 0.35906711274E+01 0.41082900682E+01 0.37816027792E+01
 0.34854171459E+01 0.32354842714E+01 0.30387344804E+01 0.28951124532E+01 0.27996799488E+01
 0.27458631718E+01 0.27285810254E+01 0.27459631031E+01 0.27998113769E+01 0.28952049926E+01
 0.30387804374E+01 0.32355300363E+01 0.34854887570E+01 0.37816549619E+01 0.41082455784E+01
 0.44377486930E+01 0.47290262306E+01 0.49326312520E+01 0.50061923312E+01 0.49327783889E+01
 0.47292387352E+01 0.44379120120E+01 0.37816027792E+01 0.33534324557E+01 0.29751324734E+01
 0.26617688633E+01 0.24198303221E+01 0.22486043077E+01 0.21416158125E+01 0.20906498740E+01
 0.20905501771E+01 0.21417169929E+01 0.22494272641E+01 0.24209945566E+01 0.26622011780E+01
 0.29743398069E+01 0.33521386863E+01 0.37809039375E+01 0.42315651894E+01 0.46566579988E+01
 0.49940428375E+01 0.51822110478E+01 0.51821588614E+01 0.49937668414E+01 0.46561632825E+01
 0.42313821809E+01 0.34854171459E+01 0.29751324734E+01 0.25399062581E+01 0.21919334939E+01
 0.19341871508E+01 0.17621960869E+01 0.16660131827E+01 0.16353763119E+01 0.16659545184E+01
 0.17621259052E+01 0.19341374489E+01 0.21918997938E+01 0.25398815855E+01 0.29751164550E+01
 0.34853992507E+01 0.40437388791E+01 0.46011509825E+01 0.50865357153E+01 0.54205055106E+01
 0.55398391552E+01 0.54204230206E+01 0.50864564510E+01 0.46011321759E+01 0.40437575100E+01
 0.32354842714E+01 0.26617688633E+01 0.21919334939E+01 0.18320753157E+01 0.15786697319E+01
 0.14216744418E+01 0.13481229269E+01 0.13483559103E+01 0.14218966683E+01 0.15781359719E+01
 0.18309076727E+01 0.21911699292E+01 0.26622056367E+01 0.32367620841E+01 0.38919060029E+01
 0.45807752670E+01 0.52280383856E+01 0.57385944608E+01 0.60218478237E+01 0.60220750943E+01
 0.57391766195E+01 0.52285757692E+01 0.45806452403E+01 0.38908713661E+01 0.30387344804E+01
 0.24198303221E+01 0.19341871508E+01 0.15786697319E+01 0.13420748491E+01 0.12093703889E+01
 0.11669912787E+01 0.12093631610E+01 0.13420723292E+01 0.15786942667E+01 0.19342433496E+01
 0.24198883687E+01 0.30387706237E+01 0.37787993901E+01 0.46012301347E+01 0.54309241824E+01
 0.61585115674E+01 0.66616639661E+01 0.68420471939E+01 0.66617322836E+01 0.61585640399E+01
 0.54309123911E+01 0.46011892260E+01 0.37787677707E+01 0.28951124532E+01 0.22486043077E+01
 0.17621960869E+01 0.14216744418E+01 0.12093703889E+01 0.11085016495E+01 0.11083930210E+01
 0.12092201482E+01 0.14218688225E+01 0.17629271376E+01 0.22494844791E+01 0.28953537691E+01
 0.37041302281E+01 0.46548750971E+01 0.56840158537E+01 0.66753640327E+01 0.74725576953E+01
 0.79200436352E+01 0.79195759301E+01 0.74716522012E+01 0.66750280934E+01 0.56847602250E+01
 0.46561731520E+01 0.37049295592E+01 0.27996799488E+01 0.21416158125E+01 0.16660131827E+01
 0.13481229269E+01 0.11669912787E+01 0.11083930210E+01 0.11670914797E+01 0.13481439755E+01
 0.16659136681E+01 0.21415637218E+01 0.27997619422E+01 0.36616385712E+01 0.47291586384E+01
 0.59606494685E+01 0.72471301998E+01 0.84086023930E+01 0.92286561624E+01 0.95257875686E+01
 0.92286519782E+01 0.84086224301E+01 0.72472196219E+01 0.59607829751E+01 0.47292129920E+01
 0.36615582286E+01 0.27458631718E+01 0.20906498740E+01 0.16353763119E+01 0.13483559103E+01
 0.12093631610E+01 0.12092201482E+01 0.13481439755E+01 0.16353520311E+01 0.20905735858E+01
 0.27453120887E+01 0.36386347210E+01 0.48005399813E+01 0.62197401750E+01 0.78053447820E+01
 0.93670468123E+01 0.10621411203E+02 0.11337643547E+02 0.11338362897E+02 0.10622563400E+02
 0.93669889628E+01 0.78039727671E+01 0.62184991746E+01 0.48005006578E+01 0.36393852329E+01
 0.27285810254E+01 0.20905501771E+01 0.16659545184E+01 0.14218966683E+01 0.13420723292E+01
 0.14218688225E+01 0.16659136681E+01 0.20905735858E+01 0.27286904879E+01 0.36305442143E+01
 0.48517715480E+01 0.64175023632E+01 0.82667555426E+01 0.10188463413E+02 0.11936257298E+02
 0.13178290436E+02 0.13629881197E+02 0.13178212609E+02 0.11936015886E+02 0.10188169624E+02
 0.82666720995E+01 0.64176596154E+01 0.48519097433E+01 0.36304988574E+01 0.27459631031E+01
 0.21417169929E+01 0.17621259052E+01 0.15781359719E+01 0.15786942667E+01 0.17629271376E+01
 0.21415637218E+01 0.27453120887E+01 0.36305442143E+01 0.48717736267E+01 0.65268972688E+01
 0.85694118635E+01 0.10802008354E+02 0.13018473495E+02 0.14824980924E+02 0.15840477550E+02
 0.15839672290E+02 0.14823740608E+02 0.13018703575E+02 0.10803705287E+02 0.85706373752E+01
 0.65263900023E+01 0.48705442147E+01 0.36302705877E+01 0.27998113769E+01 0.22494272641E+01
 0.19341374489E+01 0.18309076727E+01 0.19342433496E+01 0.22494844791E+01 0.27997619422E+01
 0.36386347210E+01 0.48517715480E+01 0.65268972688E+01 0.86599582998E+01 0.11132501835E+02
 0.13726950090E+02 0.16028750388E+02 0.17591750566E+02 0.18138441445E+02 0.17591972163E+02
 0.16029014833E+02 0.13727124653E+02 0.11132588181E+02 0.86599803750E+01 0.65268658293E+01
 0.48517516377E+01 0.36386849194E+01 0.28952049926E+01 0.24209945566E+01 0.21918997938E+01
 0.21911699292E+01 0.24198883687E+01 0.28953537691E+01 0.36616385712E+01 0.48005399813E+01
 0.64175023632E+01 0.85694118635E+01 0.11132501835E+02 0.13973767763E+02 0.16647915289E+02
 0.18627719752E+02 0.19619159366E+02 0.19619962859E+02 0.18628803176E+02 0.16647331065E+02
 0.13971962479E+02 0.11131761201E+02 0.85705884316E+01 0.64188743334E+01 0.48003601717E+01
 0.36605377643E+01 0.30387804374E+01 0.26622011780E+01 0.25398815855E+01 0.26622056367E+01
 0.30387706237E+01 0.37041302281E+01 0.47291586384E+01 0.62197401750E+01 0.82667555426E+01
 0.10802008354E+02 0.13726950090E+02 0.16647915289E+02 0.18952000882E+02 0.20232512534E+02
 0.20599611575E+02 0.20232508146E+02 0.18951882680E+02 0.16647698999E+02 0.13726807482E+02
 0.10802025029E+02 0.82668295049E+01 0.62197646284E+01 0.47291518942E+01 0.37041386110E+01
 0.32355300363E+01 0.29743398069E+01 0.29751164550E+01 0.32367620841E+01 0.37787993901E+01
 0.46548750971E+01 0.59606494685E+01 0.78053447820E+01 0.10188463413E+02 0.13018473495E+02
 0.16028750388E+02 0.18627719752E+02 0.20232512534E+02 0.20833566853E+02 0.20833213290E+02
 0.20232264286E+02 0.18628602447E+02 0.16030056634E+02 0.13018519135E+02 0.10187070179E+02
 0.78042763337E+01 0.59612070489E+01 0.46560941345E+01 0.37788470069E+01 0.34854887570E+01
 0.33521386863E+01 0.34853992507E+01 0.38919060029E+01 0.46012301347E+01 0.56840158537E+01
 0.72471301998E+01 0.93670468123E+01 0.11936257298E+02 0.14824980924E+02 0.17591750566E+02
 0.19619159366E+02 0.20599611575E+02 0.20833213290E+02 0.20599568531E+02 0.19619257680E+02
 0.17591913366E+02 0.14824943462E+02 0.11936083053E+02 0.93670526468E+01 0.72473069329E+01
 0.56840484729E+01 0.46010833904E+01 0.38918559708E+01 0.37816549619E+01 0.37809039375E+01
 0.40437388791E+01 0.45807752670E+01 0.54309241824E+01 0.66753640327E+01 0.84086023930E+01
 0.10621411203E+02 0.13178290436E+02 0.15840477550E+02 0.18138441445E+02 0.19619962859E+02
 0.20232508146E+02 0.20232264286E+02 0.19619257680E+02 0.18137471444E+02 0.15839802588E+02
 0.13178583277E+02 0.10622582912E+02 0.84094480775E+01 0.66748538653E+01 0.54297555873E+01
 0.45806325427E+01 0.40448725101E+01 0.41082455784E+01 0.42315651894E+01 0.46011509825E+01
 0.52280383856E+01 0.61585115674E+01 0.74725576953E+01 0.92286561624E+01 0.11337643547E+02
 0.13629881197E+02 0.15839672290E+02 0.17591972163E+02 0.18628803176E+02 0.18951882680E+02
 0.18628602447E+02 0.17591913366E+02 0.15839802588E+02 0.13629898688E+02 0.11337489900E+02
 0.92285851920E+01 0.74726023218E+01 0.61584540373E+01 0.52279183406E+01 0.46012299093E+01
 0.42317754793E+01 0.44377486930E+01 0.46566579988E+01 0.50865357153E+01 0.57385944608E+01
 0.66616639661E+01 0.79200436352E+01 0.95257875686E+01 0.11338362897E+02 0.13178212609E+02
 0.14823740608E+02 0.16029014833E+02 0.16647331065E+02 0.16647698999E+02 0.16030056634E+02
 0.14824943462E+02 0.13178583277E+02 0.11337489900E+02 0.95245691486E+01 0.79196950308E+01
 0.66622721965E+01 0.57392289240E+01 0.50865358103E+01 0.46562479194E+01 0.44375198893E+01
 0.47290262306E+01 0.49940428375E+01 0.54205055106E+01 0.60218478237E+01 0.68420471939E+01
 0.79195759301E+01 0.92286519782E+01 0.10622563400E+02 0.11936015886E+02 0.13018703575E+02
 0.13727124653E+02 0.13971962479E+02 0.13726807482E+02 0.13018519135E+02 0.11936083053E+02
 0.10622582912E+02 0.92285851920E+01 0.79196950308E+01 0.68423041686E+01 0.60219029581E+01
 0.54203959442E+01 0.49941271424E+01 0.47292659436E+01 0.46377145807E+01 0.49326312520E+01
 0.51822110478E+01 0.55398391552E+01 0.60220750943E+01 0.66617322836E+01 0.74716522012E+01
 0.84086224301E+01 0.93669889628E+01 0.10188169624E+02 0.10803705287E+02 0.11132588181E+02
 0.11131761201E+02 0.10802025029E+02 0.10187070179E+02 0.93670526468E+01 0.84094480775E+01
 0.74726023218E+01 0.66622721965E+01 0.60219029581E+01 0.55392640082E+01 0.51819924718E+01
 0.49329926090E+01 0.48004945184E+01 0.48002120058E+01 0.50061923312E+01 0.51821588614E+01
 0.54204230206E+01 0.57391766195E+01 0.61585640399E+01 0.66750280934E+01 0.72472196219E+01
 0.78039727671E+01 0.82666720995E+01 0.85706373752E+01 0.86599803750E+01 0.85705884316E+01
 0.82668295049E+01 0.78042763337E+01 0.72473069329E+01 0.66748538653E+01 0.61584540373E+01
 0.57392289240E+01 0.54203959442E+01 0.51819924718E+01 0.50061115903E+01 0.48921959608E+01
 0.48518703434E+01 0.48921421307E+01 0.49327783889E+01 0.49937668414E+01 0.50864564510E+01
 0.52285757692E+01 0.54309123911E+01 0.56847602250E+01 0.59607829751E+01 0.62184991746E+01
 0.64176596154E+01 0.65263900023E+01 0.65268658293E+01 0.64188743334E+01 0.62197646284E+01
 0.59612070489E+01 0.56840484729E+01 0.54297555873E+01 0.52279183406E+01 0.50865358103E+01
 0.49941271424E+01 0.49329926090E+01 0.48921959608E+01 0.48705214283E+01 0.48705336871E+01
 0.48921650532E+01 0.47292387352E+01 0.46561632825E+01 0.46011321759E+01 0.45806452403E+01
 0.46011892260E+01 0.46561731520E+01 0.47292129920E+01 0.48005006578E+01 0.48519097433E+01
 0.48705442147E+01 0.48517516377E+01 0.48003601717E+01 0.47291518942E+01 0.46560941345E+01
 0.46010833904E+01 0.45806325427E+01 0.46012299093E+01 0.46562479194E+01 0.47292659436E+01
 0.48004945184E+01 0.48518703434E+01 0.48705336871E+01 0.48518018837E+01 0.48004483536E+01
 0.44379120120E+01 0.42313821809E+01 0.40437575100E+01 0.38908713661E+01 0.37787677707E+01
 0.37049295592E+01 0.36615582286E+01 0.36393852329E+01 0.36304988574E+01 0.36302705877E+01
 0.36386849194E+01 0.36605377643E+01 0.37041386110E+01 0.37788470069E+01 0.38918559708E+01
 0.40448725101E+01 0.42317754793E+01 0.44375198893E+01 0.46377145807E+01 0.48002120058E+01
 0.48921421307E+01 0.48921650532E+01 0.48004483536E+01 0.46382612677E+01 0.48624493975E+01
 0.43303695237E+01 0.38640014810E+01 0.34790486864E+01 0.31788760824E+01 0.29599432762E+01
 0.28168426058E+01 0.27459334413E+01 0.27459554952E+01 0.28169104510E+01 0.29600350259E+01
 0.31789040122E+01 0.34789102707E+01 0.38637485624E+01 0.43302603660E+01 0.48626756945E+01
 0.54259905143E+01 0.59609799432E+01 0.63883104829E+01 0.66278240409E+01 0.66279421175E+01
 0.63884457078E+01 0.59608161057E+01 0.54256066051E+01 0.43303695237E+01 0.37217623851E+01
 0.32046437378E+01 0.27894374794E+01 0.24776011071E+01 0.22643827552E+01 0.21414639922E+01
 0.21014506763E+01 0.21417053575E+01 0.22652259275E+01 0.24788068675E+01 0.27899186706E+01
 0.32036638704E+01 0.37200554935E+01 0.43294766168E+01 0.50037671064E+01 0.56857627618E+01
 0.62873981976E+01 0.67059616744E+01 0.68566607541E+01 0.67060660846E+01 0.62869535223E+01
 0.56847430508E+01 0.50032516764E+01 0.38640014810E+01 0.32046437378E+01 0.26639475347E+01
 0.22464723825E+01 0.19490145550E+01 0.17622261878E+01 0.16734651203E+01 0.16734298648E+01
 0.17621499717E+01 0.19489466971E+01 0.22464276537E+01 0.26639116207E+01 0.32046033272E+01
 0.38639503722E+01 0.46223071135E+01 0.54308791948E+01 0.62017671141E+01 0.68170385867E+01
 0.71607892830E+01 0.71607152728E+01 0.68168888905E+01 0.62016694627E+01 0.54308783782E+01
 0.46223570429E+01 0.34790486864E+01 0.27894374794E+01 0.22464723825E+01 0.18464501081E+01
 0.15786386086E+01 0.14279731135E+01 0.13799040525E+01 0.14279792378E+01 0.15781604890E+01
 0.18454073001E+01 0.22456544038E+01 0.27897320552E+01 0.34803561779E+01 0.43062585635E+01
 0.52288803714E+01 0.61674385467E+01 0.69974776240E+01 0.75751216983E+01 0.77829752449E+01
 0.75755946775E+01 0.69982903375E+01 0.61680554512E+01 0.52285949735E+01 0.43050051206E+01
 0.31788760824E+01 0.24776011071E+01 0.19490145550E+01 0.15786386086E+01 0.13479275096E+01
 0.12385644169E+01 0.12385560771E+01 0.13479283097E+01 0.15786855259E+01 0.19490864686E+01
 0.24776251574E+01 0.31788287449E+01 0.40560727242E+01 0.50865592785E+01 0.62018173718E+01
 0.72764924101E+01 0.81413326739E+01 0.86273910490E+01 0.86274300457E+01 0.81413723402E+01
 0.72764254398E+01 0.62016811559E+01 0.50864871961E+01 0.40561064693E+01 0.29599432762E+01
 0.22643827552E+01 0.17622261878E+01 0.14279731135E+01 0.12385644169E+01 0.11774256647E+01
 0.12385104505E+01 0.14281831707E+01 0.17629200869E+01 0.22652520070E+01 0.29602475033E+01
 0.38689400156E+01 0.49923787461E+01 0.62859922811E+01 0.76350499537E+01 0.88512139937E+01
 0.97087948597E+01 0.10018942482E+02 0.97078132411E+01 0.88501207051E+01 0.76348523570E+01
 0.62869459464E+01 0.49937450825E+01 0.38696740264E+01 0.28168426058E+01 0.21414639922E+01
 0.16734651203E+01 0.13799040525E+01 0.12385560771E+01 0.12385104505E+01 0.13798175751E+01
 0.16734476239E+01 0.21415799754E+01 0.28170411552E+01 0.37381570748E+01 0.49328764340E+01
 0.63884467352E+01 0.80138223731E+01 0.96173228797E+01 0.10927927826E+02 0.11652189848E+02
 0.11652490267E+02 0.10928577798E+02 0.96178580098E+01 0.80140301441E+01 0.63884239208E+01
 0.49327557073E+01 0.37379754357E+01 0.27459334413E+01 0.21014506763E+01 0.16734298648E+01
 0.14279792378E+01 0.13479283097E+01 0.14281831707E+01 0.16734476239E+01 0.21010057892E+01
 0.27452988017E+01 0.36576666732E+01 0.48930082537E+01 0.64749321590E+01 0.83430911019E+01
 0.10291272631E+02 0.12062973859E+02 0.13324026469E+02 0.13783957358E+02 0.13325610036E+02
 0.12064775908E+02 0.10291872705E+02 0.83422416443E+01 0.64735557157E+01 0.48922037714E+01
 0.36578066348E+01 0.27459554952E+01 0.21417053575E+01 0.17621499717E+01 0.15781604890E+01
 0.15786855259E+01 0.17629200869E+01 0.21415799754E+01 0.27452988017E+01 0.36304709979E+01
 0.48717080204E+01 0.65269095174E+01 0.85694829429E+01 0.10802098346E+02 0.13018593569E+02
 0.14825124914E+02 0.15840568784E+02 0.15839657429E+02 0.14823662869E+02 0.13018618453E+02
 0.10803605650E+02 0.85705245320E+01 0.65263263410E+01 0.48705600539E+01 0.36303023001E+01
 0.28169104510E+01 0.22652259275E+01 0.19489466971E+01 0.18454073001E+01 0.19490864686E+01
 0.22652520070E+01 0.28170411552E+01 0.36576666732E+01 0.48717080204E+01 0.65443977173E+01
 0.86626925879E+01 0.11112627612E+02 0.13670886222E+02 0.15914133708E+02 0.17410969603E+02
 0.17925479274E+02 0.17407851859E+02 0.15911397857E+02 0.13671338517E+02 0.11115364044E+02
 0.86647237908E+01 0.65442497536E+01 0.48704376019E+01 0.36568332837E+01 0.29600350259E+01
 0.24788068675E+01 0.22464276537E+01 0.22456544038E+01 0.24776251574E+01 0.29602475033E+01
 0.37381570748E+01 0.48930082537E+01 0.65269095174E+01 0.86626925879E+01 0.11217294563E+02
 0.13989890864E+02 0.16494918803E+02 0.18203836716E+02 0.18964291937E+02 0.18963785642E+02
 0.18202503355E+02 0.16493449328E+02 0.13989393592E+02 0.11218404262E+02 0.86645911913E+01
 0.65277955398E+01 0.48920487706E+01 0.37366246742E+01 0.31789040122E+01 0.27899186706E+01
 0.26639116207E+01 0.27897320552E+01 0.31788287449E+01 0.38689400156E+01 0.49328764340E+01
 0.64749321590E+01 0.85694829429E+01 0.11112627612E+02 0.13989890864E+02 0.16661825632E+02
 0.18393935081E+02 0.18963444222E+02 0.18993493849E+02 0.18961913281E+02 0.18391957459E+02
 0.16660594620E+02 0.13989845973E+02 0.11113407597E+02 0.85703935322E+01 0.64754302195E+01
 0.49328849520E+01 0.38688152952E+01 0.34789102707E+01 0.32036638704E+01 0.32046033272E+01
 0.34803561779E+01 0.40560727242E+01 0.49923787461E+01 0.63884467352E+01 0.83430911019E+01
 0.10802098346E+02 0.13670886222E+02 0.16494918803E+02 0.18393935081E+02 0.18774635454E+02
 0.18317271869E+02 0.18315060689E+02 0.18770459556E+02 0.18391942307E+02 0.16495850398E+02
 0.13672057166E+02 0.10801772153E+02 0.83425975465E+01 0.63894695000E+01 0.49940568549E+01
 0.40562655485E+01 0.38637485624E+01 0.37200554935E+01 0.38639503722E+01 0.43062585635E+01
 0.50865592785E+01 0.62859922811E+01 0.80138223731E+01 0.10291272631E+02 0.13018593569E+02
 0.15914133708E+02 0.18203836716E+02 0.18963444222E+02 0.18317271869E+02 0.17785063976E+02
 0.18316012344E+02 0.18961836375E+02 0.18202641160E+02 0.15913529964E+02 0.13018676957E+02
 0.10292121016E+02 0.80149773583E+01 0.62866482719E+01 0.50864689692E+01 0.43058965696E+01
 0.43302603660E+01 0.43294766168E+01 0.46223071135E+01 0.52288803714E+01 0.62018173718E+01
 0.76350499537E+01 0.96173228797E+01 0.12062973859E+02 0.14825124914E+02 0.17410969603E+02
 0.18964291937E+02 0.18993493849E+02 0.18315060689E+02 0.18316012344E+02 0.18994816631E+02
 0.18963499397E+02 0.17408237151E+02 0.14823504797E+02 0.12064493877E+02 0.96201236595E+01
 0.76358426076E+01 0.62003666156E+01 0.52279208598E+01 0.46231453316E+01 0.48626756945E+01
 0.50037671064E+01 0.54308791948E+01 0.61674385467E+01 0.72764924101E+01 0.88512139937E+01
 0.10927927826E+02 0.13324026469E+02 0.15840568784E+02 0.17925479274E+02 0.18963785642E+02
 0.18961913281E+02 0.18770459556E+02 0.18961836375E+02 0.18963499397E+02 0.17924844112E+02
 0.15839916927E+02 0.13324197220E+02 0.10929196900E+02 0.88525293009E+01 0.72765839485E+01
 0.61664181042E+01 0.54298929435E+01 0.50033913544E+01 0.54259905143E+01 0.56857627618E+01
 0.62017671141E+01 0.69974776240E+01 0.81413326739E+01 0.97087948597E+01 0.11652189848E+02
 0.13783957358E+02 0.15839657429E+02 0.17407851859E+02 0.18202503355E+02 0.18391957459E+02
 0.18391942307E+02 0.18202641160E+02 0.17408237151E+02 0.15839916927E+02 0.13783889969E+02
 0.11652278863E+02 0.97094416362E+01 0.81419807187E+01 0.69971756167E+01 0.62004037975E+01
 0.56842417946E+01 0.54253460215E+01 0.59609799432E+01 0.62873981976E+01 0.68170385867E+01
 0.75751216983E+01 0.86273910490E+01 0.10018942482E+02 0.11652490267E+02 0.13325610036E+02
 0.14823662869E+02 0.15911397857E+02 0.16493449328E+02 0.16660594620E+02 0.16495850398E+02
 0.15913529964E+02 0.14823504797E+02 0.13324197220E+02 0.11652278863E+02 0.10020342615E+02
 0.86282841603E+01 0.75740060808E+01 0.68151386936E+01 0.62866799945E+01 0.59613380206E+01
 0.58490283937E+01 0.63883104829E+01 0.67059616744E+01 0.71607892830E+01 0.77829752449E+01
 0.86274300457E+01 0.97078132411E+01 0.10928577798E+02 0.12064775908E+02 0.13018618453E+02
 0.13671338517E+02 0.13989393592E+02 0.13989845973E+02 0.13672057166E+02 0.13018676957E+02
 0.12064493877E+02 0.10929196900E+02 0.97094416362E+01 0.86282841603E+01 0.77816023632E+01
 0.71584025266E+01 0.67051389204E+01 0.63894840832E+01 0.62198375046E+01 0.62189359358E+01
 0.66278240409E+01 0.68566607541E+01 0.71607152728E+01 0.75755946775E+01 0.81413723402E+01
 0.88501207051E+01 0.96178580098E+01 0.10291872705E+02 0.10803605650E+02 0.11115364044E+02
 0.11218404262E+02 0.11113407597E+02 0.10801772153E+02 0.10292121016E+02 0.96201236595E+01
 0.88525293009E+01 0.81419807187E+01 0.75740060808E+01 0.71584025266E+01 0.68556714834E+01
 0.66287756787E+01 0.64754525960E+01 0.64189373934E+01 0.64740427051E+01 0.66279421175E+01
 0.67060660846E+01 0.68168888905E+01 0.69982903375E+01 0.72764254398E+01 0.76348523570E+01
 0.80140301441E+01 0.83422416443E+01 0.85705245320E+01 0.86647237908E+01 0.86645911913E+01
 0.85703935322E+01 0.83425975465E+01 0.80149773583E+01 0.76358426076E+01 0.72765839485E+01
 0.69971756167E+01 0.68151386936E+01 0.67051389204E+01 0.66287756787E+01 0.65670258360E+01
 0.65278218898E+01 0.65268756815E+01 0.65651932083E+01 0.63884457078E+01 0.62869535223E+01
 0.62016694627E+01 0.61680554512E+01 0.62016811559E+01 0.62869459464E+01 0.63884239208E+01
 0.64735557157E+01 0.65263263410E+01 0.65442497536E+01 0.65277955398E+01 0.64754302195E+01
 0.63894695000E+01 0.62866482719E+01 0.62003666156E+01 0.61664181042E+01 0.62004037975E+01
 0.62866799945E+01 0.63894840832E+01 0.64754525960E+01 0.65278218898E+01 0.65442483092E+01
 0.65263042308E+01 0.64735543604E+01 0.59608161057E+01 0.56847430508E+01 0.54308783782E+01
 0.52285949735E+01 0.50864871961E+01 0.49937450825E+01 0.49327557073E+01 0.48922037714E+01
 0.48705600539E+01 0.48704376019E+01 0.48920487706E+01 0.49328849520E+01 0.49940568549E+01
 0.50864689692E+01 0.52279208598E+01 0.54298929435E+01 0.56842417946E+01 0.59613380206E+01
 0.62198375046E+01 0.64189373934E+01 0.65268756815E+01 0.65263042308E+01 0.64175649759E+01
 0.62184928933E+01 0.54256066051E+01 0.50032516764E+01 0.46223570429E+01 0.43050051206E+01
 0.40561064693E+01 0.38696740264E+01 0.37379754357E+01 0.36578066348E+01 0.36303023001E+01
 0.36568332837E+01 0.37366246742E+01 0.38688152952E+01 0.40562655485E+01 0.43058965696E+01
 0.46231453316E+01 0.50033913544E+01 0.54253460215E+01 0.58490283937E+01 0.62189359358E+01
 0.64740427051E+01 0.65651932083E+01 0.64735543604E+01 0.62184928933E+01 0.58490520462E+01
 0.55257720815E+01 0.47611139830E+01 0.41207677432E+01 0.36122235545E+01 0.32286685501E+01
 0.29599699024E+01 0.27996880909E+01 0.27462563737E+01 0.27997751845E+01 0.29600065579E+01
 0.32286419537E+01 0.36122629669E+01 0.41208858443E+01 0.47611697068E+01 0.55257187567E+01
 0.63794377165E+01 0.72472315048E+01 0.80140130458E+01 0.85472742618E+01 0.87389990953E+01
 0.85473118273E+01 0.80140211552E+01 0.72472280952E+01 0.63794898359E+01 0.47611139830E+01
 0.39717174520E+01 0.33299509024E+01 0.28346300069E+01 0.24776383460E+01 0.22484075955E+01
 0.21369858949E+01 0.21373552828E+01 0.22494206703E+01 0.24788178739E+01 0.28350645839E+01
 0.33290130209E+01 0.39699462735E+01 0.47599559285E+01 0.56811257166E+01 0.66762528090E+01
 0.76356920400E+01 0.84083085882E+01 0.88427149031E+01 0.88428838299E+01 0.84083049311E+01
 0.76348398190E+01 0.66749941003E+01 0.56807701384E+01 0.41207677432E+01 0.33299509024E+01
 0.27077494287E+01 0.22464696332E+01 0.19342063611E+01 0.17562214126E+01 0.16988042368E+01
 0.17562034951E+01 0.19341997526E+01 0.22464750998E+01 0.27077319177E+01 0.33298923579E+01
 0.41206846379E+01 0.50757737212E+01 0.61585055597E+01 0.72764651802E+01 0.82770272690E+01
 0.89787491494E+01 0.92319875930E+01 0.89786447073E+01 0.82769234420E+01 0.72764450116E+01
 0.61585607620E+01 0.50758580331E+01 0.36122235545E+01 0.28346300069E+01 0.22464696332E+01
 0.18318613985E+01 0.15723372361E+01 0.14490916237E+01 0.14490300238E+01 0.15719184747E+01
 0.18309283555E+01 0.22456614104E+01 0.28349291838E+01 0.36136928410E+01 0.45881337481E+01
 0.57394155762E+01 0.69973327399E+01 0.82214789410E+01 0.92140683537E+01 0.97743118065E+01
 0.97744042289E+01 0.92145935328E+01 0.82225846854E+01 0.69983054523E+01 0.57392063932E+01
 0.45866870723E+01 0.32286685501E+01 0.24776383460E+01 0.19342063611E+01 0.15723372361E+01
 0.13677451644E+01 0.13019507534E+01 0.13677848314E+01 0.15723678405E+01 0.19341928326E+01
 0.24775964836E+01 0.32286403042E+01 0.42090634137E+01 0.54204840573E+01 0.68169699155E+01
 0.82769581972E+01 0.95971633060E+01 0.10530774728E+02 0.10869385429E+02 0.10530771924E+02
 0.95971250764E+01 0.82768723676E+01 0.68168694975E+01 0.54204145116E+01 0.42090465322E+01
 0.29599699024E+01 0.22484075955E+01 0.17562214126E+01 0.14490916237E+01 0.13019507534E+01
 0.13017419665E+01 0.14489549120E+01 0.17568474205E+01 0.22494676025E+01 0.29602516543E+01
 0.39277762664E+01 0.51804047124E+01 0.67052283709E+01 0.84089591144E+01 0.10093172861E+02
 0.11473465333E+02 0.12257478445E+02 0.12257040598E+02 0.11472255450E+02 0.10091728930E+02
 0.84083045179E+01 0.67060466912E+01 0.51821154120E+01 0.39289102665E+01 0.27996880909E+01
 0.21369858949E+01 0.16988042368E+01 0.14490300238E+01 0.13677848314E+01 0.14489549120E+01
 0.16987578390E+01 0.21370405121E+01 0.27997918739E+01 0.37381824545E+01 0.50061340454E+01
 0.66278455123E+01 0.85472433180E+01 0.10583755661E+02 0.12409505765E+02 0.13719077716E+02
 0.14196409072E+02 0.13719182366E+02 0.12409641915E+02 0.10583870235E+02 0.85473475118E+01
 0.66279498211E+01 0.50061901185E+01 0.37381390010E+01 0.27462563737E+01 0.21373552828E+01
 0.17562034951E+01 0.15719184747E+01 0.15723678405E+01 0.17568474205E+01 0.21370405121E+01
 0.27450181896E+01 0.36385972408E+01 0.48929938673E+01 0.65670590818E+01 0.86403408260E+01
 0.10925037549E+02 0.13194647663E+02 0.15060748946E+02 0.16119989965E+02 0.16120656435E+02
 0.15062430065E+02 0.13196359762E+02 0.10925513496E+02 0.86391206080E+01 0.65651992486E+01
 0.48921777631E+01 0.36393711081E+01 0.27997751845E+01 0.22494206703E+01 0.19341997526E+01
 0.18309283555E+01 0.19341928326E+01 0.22494676025E+01 0.27997918739E+01 0.36385972408E+01
 0.48516699805E+01 0.65268926336E+01 0.86601055106E+01 0.11132674857E+02 0.13727077423E+02
 0.16028888646E+02 0.17591876774E+02 0.18138418836E+02 0.17591787689E+02 0.16028823565E+02
 0.13727004043E+02 0.11132471340E+02 0.86598703097E+01 0.65268719277E+01 0.48518620753E+01
 0.36387431628E+01 0.29600065579E+01 0.24788178739E+01 0.22464750998E+01 0.22456614104E+01
 0.24775964836E+01 0.29602516543E+01 0.37381824545E+01 0.48929938673E+01 0.65268926336E+01
 0.86627669229E+01 0.11217440513E+02 0.13989998283E+02 0.16494955843E+02 0.18203847599E+02
 0.18964258154E+02 0.18963650115E+02 0.18202313339E+02 0.16493320485E+02 0.13989346727E+02
 0.11218378658E+02 0.86645892243E+01 0.65278626387E+01 0.48921396118E+01 0.37366471343E+01
 0.32286419537E+01 0.28350645839E+01 0.27077319177E+01 0.28349291838E+01 0.32286403042E+01
 0.39277762664E+01 0.50061340454E+01 0.65670590818E+01 0.86601055106E+01 0.11217440513E+02
 0.14059858874E+02 0.16599674324E+02 0.18048546506E+02 0.18277967785E+02 0.18146198354E+02
 0.18277918374E+02 0.18048659757E+02 0.16599903839E+02 0.14059925687E+02 0.11217335654E+02
 0.86600828948E+01 0.65671348366E+01 0.50060850610E+01 0.39276261348E+01 0.36122629669E+01
 0.33290130209E+01 0.33298923579E+01 0.36136928410E+01 0.42090634137E+01 0.51804047124E+01
 0.66278455123E+01 0.86403408260E+01 0.11132674857E+02 0.13989998283E+02 0.16599674324E+02
 0.17843678021E+02 0.17146343083E+02 0.15892396035E+02 0.15892457021E+02 0.17147050249E+02
 0.17845336127E+02 0.16600941477E+02 0.13989281525E+02 0.11130580795E+02 0.86392548332E+01
 0.66288884997E+01 0.51820042532E+01 0.42091055139E+01 0.41208858443E+01 0.39699462735E+01
 0.41206846379E+01 0.45881337481E+01 0.54204840573E+01 0.67052283709E+01 0.85472433180E+01
 0.10925037549E+02 0.13727077423E+02 0.16494955843E+02 0.18048546506E+02 0.17146343083E+02
 0.14946864767E+02 0.14698206832E+02 0.14946561485E+02 0.17146177571E+02 0.18048645109E+02
 0.16495001773E+02 0.13726954347E+02 0.10924978751E+02 0.85473006929E+01 0.67051933967E+01
 0.54203806850E+01 0.45882113696E+01 0.47611697068E+01 0.47599559285E+01 0.50757737212E+01
 0.57394155762E+01 0.68169699155E+01 0.84089591144E+01 0.10583755661E+02 0.13194647663E+02
 0.16028888646E+02 0.18203847599E+02 0.18277967785E+02 0.15892396035E+02 0.14698206832E+02
 0.14698342354E+02 0.15892251664E+02 0.18276838446E+02 0.18202392414E+02 0.16028798842E+02
 0.13196332003E+02 0.10585242822E+02 0.84082945048E+01 0.68151470527E+01 0.57391939952E+01
 0.50776054153E+01 0.55257187567E+01 0.56811257166E+01 0.61585055597E+01 0.69973327399E+01
 0.82769581972E+01 0.10093172861E+02 0.12409505765E+02 0.15060748946E+02 0.17591876774E+02
 0.18964258154E+02 0.18146198354E+02 0.15892457021E+02 0.14946561485E+02 0.15892251664E+02
 0.18146227519E+02 0.18964528688E+02 0.17591945212E+02 0.15060589940E+02 0.12409548046E+02
 0.10093443511E+02 0.82770298340E+01 0.69971566112E+01 0.61584763235E+01 0.56812884163E+01
 0.63794377165E+01 0.66762528090E+01 0.72764651802E+01 0.82214789410E+01 0.95971633060E+01
 0.11473465333E+02 0.13719077716E+02 0.16119989965E+02 0.18138418836E+02 0.18963650115E+02
 0.18277918374E+02 0.17147050249E+02 0.17146177571E+02 0.18276838446E+02 0.18964528688E+02
 0.18140559991E+02 0.16120750109E+02 0.13717716735E+02 0.11472090085E+02 0.95975715572E+01
 0.82227313362E+01 0.72765079647E+01 0.66749269306E+01 0.63786037439E+01 0.72472315048E+01
 0.76356920400E+01 0.82770272690E+01 0.92140683537E+01 0.10530774728E+02 0.12257478445E+02
 0.14196409072E+02 0.16120656435E+02 0.17591787689E+02 0.18202313339E+02 0.18048659757E+02
 0.17845336127E+02 0.18048645109E+02 0.18202392414E+02 0.17591945212E+02 0.16120750109E+02
 0.14196397095E+02 0.12257432255E+02 0.10530689276E+02 0.92138959092E+01 0.82768703669E+01
 0.76357045252E+01 0.72473429119E+01 0.71148561519E+01 0.80140130458E+01 0.84083085882E+01
 0.89787491494E+01 0.97743118065E+01 0.10869385429E+02 0.12257040598E+02 0.13719182366E+02
 0.15062430065E+02 0.16028823565E+02 0.16493320485E+02 0.16599903839E+02 0.16600941477E+02
 0.16495001773E+02 0.16028798842E+02 0.15060589940E+02 0.13717716735E+02 0.12257432255E+02
 0.10870589755E+02 0.97745285497E+01 0.89780092811E+01 0.84081187644E+01 0.80148459925E+01
 0.78042633605E+01 0.78036784104E+01 0.85472742618E+01 0.88427149031E+01 0.92319875930E+01
 0.97744042289E+01 0.10530771924E+02 0.11472255450E+02 0.12409641915E+02 0.13196359762E+02
 0.13727004043E+02 0.13989346727E+02 0.14059925687E+02 0.13989281525E+02 0.13726954347E+02
 0.13196332003E+02 0.12409548046E+02 0.11472090085E+02 0.10530689276E+02 0.97745285497E+01
 0.92322166167E+01 0.88428156768E+01 0.85471621039E+01 0.83425309629E+01 0.82668380407E+01
 0.83426918343E+01 0.87389990953E+01 0.88428838299E+01 0.89786447073E+01 0.92145935328E+01
 0.95971250764E+01 0.10091728930E+02 0.10583870235E+02 0.10925513496E+02 0.11132471340E+02
 0.11218378658E+02 0.11217335654E+02 0.11130580795E+02 0.10924978751E+02 0.10585242822E+02
 0.10093443511E+02 0.95975715572E+01 0.92138959092E+01 0.89780092811E+01 0.88428156768E+01
 0.87389626670E+01 0.86390993172E+01 0.85703733298E+01 0.85706213823E+01 0.86394617573E+01
 0.85473118273E+01 0.84083049311E+01 0.82769234420E+01 0.82225846854E+01 0.82768723676E+01
 0.84083045179E+01 0.85473475118E+01 0.86391206080E+01 0.86598703097E+01 0.86645892243E+01
 0.86600828948E+01 0.86392548332E+01 0.85473006929E+01 0.84082945048E+01 0.82770298340E+01
 0.82227313362E+01 0.82768703669E+01 0.84081187644E+01 0.85471621039E+01 0.86390993172E+01
 0.86599490207E+01 0.86645894302E+01 0.86599697587E+01 0.86391640274E+01 0.80140211552E+01
 0.76348398190E+01 0.72764450116E+01 0.69983054523E+01 0.68168694975E+01 0.67060466912E+01
 0.66279498211E+01 0.65651992486E+01 0.65268719277E+01 0.65278626387E+01 0.65671348366E+01
 0.66288884997E+01 0.67051933967E+01 0.68151470527E+01 0.69971566112E+01 0.72765079647E+01
 0.76357045252E+01 0.80148459925E+01 0.83425309629E+01 0.85703733298E+01 0.86645894302E+01
 0.86647573036E+01 0.85705913480E+01 0.83422845311E+01 0.72472280952E+01 0.66749941003E+01
 0.61585607620E+01 0.57392063932E+01 0.54204145116E+01 0.51821154120E+01 0.50061901185E+01
 0.48921777631E+01 0.48518620753E+01 0.48921396118E+01 0.50060850610E+01 0.51820042532E+01
 0.54203806850E+01 0.57391939952E+01 0.61584763235E+01 0.66749269306E+01 0.72473429119E+01
 0.78042633605E+01 0.82668380407E+01 0.85706213823E+01 0.86599697587E+01 0.85705913480E+01
 0.82666714975E+01 0.78040172843E+01 0.63794898359E+01 0.56807701384E+01 0.50758580331E+01
 0.45866870723E+01 0.42090465322E+01 0.39289102665E+01 0.37381390010E+01 0.36393711081E+01
 0.36387431628E+01 0.37366471343E+01 0.39276261348E+01 0.42091055139E+01 0.45882113696E+01
 0.50776054153E+01 0.56812884163E+01 0.63786037439E+01 0.71148561519E+01 0.78036784104E+01
 0.83426918343E+01 0.86394617573E+01 0.86391640274E+01 0.83422845311E+01 0.78040172843E+01
 0.71160066919E+01 0.59857474170E+01 0.49993591624E+01 0.42118131194E+01 0.36120968407E+01
 0.31788534232E+01 0.28951752177E+01 0.27537904951E+01 0.27537662169E+01 0.28951091399E+01
 0.31788186731E+01 0.36122186221E+01 0.42120906764E+01 0.49996239702E+01 0.59858752860E+01
 0.71487770849E+01 0.84084179697E+01 0.96173772030E+01 0.10583240819E+02 0.11103745827E+02
 0.11104005115E+02 0.10583778446E+02 0.96177872837E+01 0.84085734475E+01 0.71487749347E+01
 0.49993591624E+01 0.40604259130E+01 0.33299442001E+01 0.27895424876E+01 0.24198934555E+01
 0.22052699516E+01 0.21352897635E+01 0.22061277731E+01 0.24210050215E+01 0.27899580942E+01
 0.33290599913E+01 0.40587117401E+01 0.49981894501E+01 0.61502687942E+01 0.74730980268E+01
 0.88512181823E+01 0.10091659328E+02 0.10964725668E+02 0.11280705926E+02 0.10965315439E+02
 0.10091731432E+02 0.88501070607E+01 0.74716194330E+01 0.61498840870E+01 0.42118131194E+01
 0.33299442001E+01 0.26639374271E+01 0.21919303297E+01 0.18933640203E+01 0.17499566356E+01
 0.17499501145E+01 0.18933755426E+01 0.21919879903E+01 0.26639964833E+01 0.33299468783E+01
 0.42117668025E+01 0.53262274708E+01 0.66616994600E+01 0.81413477398E+01 0.95971595380E+01
 0.10786211052E+02 0.11460028404E+02 0.11460017617E+02 0.10786212670E+02 0.95972139781E+01
 0.81414324961E+01 0.66617733461E+01 0.53262881921E+01 0.36120968407E+01 0.27895424876E+01
 0.21919303297E+01 0.17917885967E+01 0.15647479517E+01 0.14916498299E+01 0.15645870243E+01
 0.17911493413E+01 0.21911430221E+01 0.27897005275E+01 0.36136674441E+01 0.46883471241E+01
 0.60223680312E+01 0.75741097881E+01 0.92128970266E+01 0.10707052607E+02 0.11769018763E+02
 0.12154785542E+02 0.11768691229E+02 0.10707548329E+02 0.92145831913E+01 0.75756086420E+01
 0.60221093930E+01 0.46865574325E+01 0.31788534232E+01 0.24198934555E+01 0.18933640203E+01
 0.15647479517E+01 0.14078566790E+01 0.14078871320E+01 0.15647881599E+01 0.18933294295E+01
 0.24197810747E+01 0.31787551073E+01 0.42090314374E+01 0.55399182682E+01 0.71608165565E+01
 0.89786663196E+01 0.10786129837E+02 0.12276284045E+02 0.13126526506E+02 0.13126528542E+02
 0.12276275321E+02 0.10786077947E+02 0.89785522126E+01 0.71606663420E+01 0.55398051324E+01
 0.42090258199E+01 0.28951752177E+01 0.22052699516E+01 0.17499566356E+01 0.14916498299E+01
 0.14078871320E+01 0.14915193943E+01 0.17502350313E+01 0.22059634482E+01 0.28953547745E+01
 0.38689762347E+01 0.51804497021E+01 0.68557934427E+01 0.88436832124E+01 0.10967070077E+02
 0.12914080750E+02 0.14280731465E+02 0.14783671255E+02 0.14280035746E+02 0.12912582439E+02
 0.10965311067E+02 0.88428883129E+01 0.68566590570E+01 0.51821877389E+01 0.38700634299E+01
 0.27537904951E+01 0.21352897635E+01 0.17499501145E+01 0.15645870243E+01 0.15647881599E+01
 0.17502350313E+01 0.21351983112E+01 0.27534467747E+01 0.36617086351E+01 0.49329518796E+01
 0.66279039117E+01 0.87385168025E+01 0.11103606385E+02 0.13454644071E+02 0.15400449046E+02
 0.16513787654E+02 0.16513213078E+02 0.15399409240E+02 0.13454293524E+02 0.11104127459E+02
 0.87390724557E+01 0.66278848735E+01 0.49326869286E+01 0.36617804716E+01 0.27537662169E+01
 0.22061277731E+01 0.18933755426E+01 0.17911493413E+01 0.18933294295E+01 0.22059634482E+01
 0.27534467747E+01 0.35899103347E+01 0.48004980537E+01 0.64749198085E+01 0.86403468607E+01
 0.11150988751E+02 0.13821317784E+02 0.16248945068E+02 0.17951403928E+02 0.18562459038E+02
 0.17952384793E+02 0.16250334258E+02 0.13822224888E+02 0.11150841398E+02 0.86394263633E+01
 0.64740744914E+01 0.48002796152E+01 0.35901749278E+01 0.28951091399E+01 0.24210050215E+01
 0.21919879903E+01 0.21911430221E+01 0.24197810747E+01 0.28953547745E+01 0.36617086351E+01
 0.48004980537E+01 0.64174126332E+01 0.85694885911E+01 0.11132701582E+02 0.13973865147E+02
 0.16647907619E+02 0.18627768896E+02 0.19619215104E+02 0.19619843110E+02 0.18628577185E+02
 0.16647231015E+02 0.13971982868E+02 0.11131725444E+02 0.85705292202E+01 0.64189573312E+01
 0.48005117854E+01 0.36605444322E+01 0.31788186731E+01 0.27899580942E+01 0.26639964833E+01
 0.27897005275E+01 0.31787551073E+01 0.38689762347E+01 0.49329518796E+01 0.64749198085E+01
 0.85694885911E+01 0.11112797250E+02 0.13990096291E+02 0.16661853639E+02 0.18393828008E+02
 0.18963352781E+02 0.18993368609E+02 0.18961656403E+02 0.18391709963E+02 0.16660551442E+02
 0.13989936630E+02 0.11113458423E+02 0.85704410301E+01 0.64755752971E+01 0.49330142011E+01
 0.38687814802E+01 0.36122186221E+01 0.33290599913E+01 0.33299468783E+01 0.36136674441E+01
 0.42090314374E+01 0.51804497021E+01 0.66279039117E+01 0.86403468607E+01 0.11132701582E+02
 0.13990096291E+02 0.16599727615E+02 0.17843582185E+02 0.17146178463E+02 0.15892272492E+02
 0.15892342846E+02 0.17146908443E+02 0.17845267626E+02 0.16601025217E+02 0.13989418730E+02
 0.11130655792E+02 0.86393055835E+01 0.66289710556E+01 0.51820469788E+01 0.42090548002E+01
 0.42120906764E+01 0.40587117401E+01 0.42117668025E+01 0.46883471241E+01 0.55399182682E+01
 0.68557934427E+01 0.87385168025E+01 0.11150988751E+02 0.13973865147E+02 0.16661853639E+02
 0.17843582185E+02 0.16153107148E+02 0.14231059761E+02 0.16504108934E+02 0.14236734856E+02
 0.16159289678E+02 0.17845436416E+02 0.16659493237E+02 0.13971066826E+02 0.11150309051E+02
 0.87390878610E+01 0.68557673583E+01 0.55392543155E+01 0.46881433717E+01 0.49996239702E+01
 0.49981894501E+01 0.53262274708E+01 0.60223680312E+01 0.71608165565E+01 0.88436832124E+01
 0.11103606385E+02 0.13821317784E+02 0.16647907619E+02 0.18393828008E+02 0.17146178463E+02
 0.14231059761E+02 0.30731312615E+02 0.30734068713E+02 0.14236184961E+02 0.17148258436E+02
 0.18391849834E+02 0.16645768496E+02 0.13821919999E+02 0.11105071468E+02 0.88428353845E+01
 0.71583464360E+01 0.60217716102E+01 0.53282750724E+01 0.59858752860E+01 0.61502687942E+01
 0.66616994600E+01 0.75741097881E+01 0.89786663196E+01 0.10967070077E+02 0.13454644071E+02
 0.16248945068E+02 0.18627768896E+02 0.18963352781E+02 0.15892272492E+02 0.16504108934E+02
 0.30734068713E+02 0.16503561957E+02 0.15891905981E+02 0.18963599339E+02 0.18628295643E+02
 0.16249229800E+02 0.13454496802E+02 0.10966564027E+02 0.89780701994E+01 0.75739008700E+01
 0.66621187066E+01 0.61508396604E+01 0.71487770849E+01 0.74730980268E+01 0.81413477398E+01
 0.92128970266E+01 0.10786129837E+02 0.12914080750E+02 0.15400449046E+02 0.17951403928E+02
 0.19619215104E+02 0.18993368609E+02 0.15892342846E+02 0.14236734856E+02 0.14236184961E+02
 0.15891905981E+02 0.18994673201E+02 0.19621436208E+02 0.17952072654E+02 0.15398831625E+02
 0.12912168240E+02 0.10785919844E+02 0.92139535877E+01 0.81418562601E+01 0.74725193859E+01
 0.71483005721E+01 0.84084179697E+01 0.88512181823E+01 0.95971595380E+01 0.10707052607E+02
 0.12276284045E+02 0.14280731465E+02 0.16513787654E+02 0.18562459038E+02 0.19619843110E+02
 0.18961656403E+02 0.17146908443E+02 0.16159289678E+02 0.17148258436E+02 0.18963599339E+02
 0.19621436208E+02 0.18563110810E+02 0.16513376824E+02 0.14279520133E+02 0.12274878735E+02
 0.10706244310E+02 0.95974439923E+01 0.88523179157E+01 0.84093903491E+01 0.82596789662E+01
 0.96173772030E+01 0.10091659328E+02 0.10786211052E+02 0.11769018763E+02 0.13126526506E+02
 0.14783671255E+02 0.16513213078E+02 0.17952384793E+02 0.18628577185E+02 0.18391709963E+02
 0.17845267626E+02 0.17845436416E+02 0.18391849834E+02 0.18628295643E+02 0.17952072654E+02
 0.16513376824E+02 0.14783853867E+02 0.13125826475E+02 0.11767672052E+02 0.10785774366E+02
 0.10093187622E+02 0.96198753813E+01 0.93669808646E+01 0.93657603349E+01 0.10583240819E+02
 0.10964725668E+02 0.11460028404E+02 0.12154785542E+02 0.13126528542E+02 0.14280035746E+02
 0.15399409240E+02 0.16250334258E+02 0.16647231015E+02 0.16660551442E+02 0.16601025217E+02
 0.16659493237E+02 0.16645768496E+02 0.16249229800E+02 0.15398831625E+02 0.14279520133E+02
 0.13125826475E+02 0.12154472676E+02 0.11460852296E+02 0.10966547486E+02 0.10585096458E+02
 0.10292000623E+02 0.10187065883E+02 0.10290939429E+02 0.11103745827E+02 0.11280705926E+02
 0.11460017617E+02 0.11768691229E+02 0.12276275321E+02 0.12912582439E+02 0.13454293524E+02
 0.13822224888E+02 0.13971982868E+02 0.13989936630E+02 0.13989418730E+02 0.13971066826E+02
 0.13821919999E+02 0.13454496802E+02 0.12912168240E+02 0.12274878735E+02 0.11767672052E+02
 0.11460852296E+02 0.11282845384E+02 0.11105193237E+02 0.10924964527E+02 0.10801811827E+02
 0.10802136198E+02 0.10924999452E+02 0.11104005115E+02 0.10965315439E+02 0.10786212670E+02
 0.10707548329E+02 0.10786077947E+02 0.10965311067E+02 0.11104127459E+02 0.11150841398E+02
 0.11131725444E+02 0.11113458423E+02 0.11130655792E+02 0.11150309051E+02 0.11105071468E+02
 0.10966564027E+02 0.10785919844E+02 0.10706244310E+02 0.10785774366E+02 0.10966547486E+02
 0.11105193237E+02 0.11150308608E+02 0.11130535155E+02 0.11113481539E+02 0.11131884649E+02
 0.11150861507E+02 0.10583778446E+02 0.10091731432E+02 0.95972139781E+01 0.92145831913E+01
 0.89785522126E+01 0.88428883129E+01 0.87390724557E+01 0.86394263633E+01 0.85705292202E+01
 0.85704410301E+01 0.86393055835E+01 0.87390878610E+01 0.88428353845E+01 0.89780701994E+01
 0.92139535877E+01 0.95974439923E+01 0.10093187622E+02 0.10585096458E+02 0.10924964527E+02
 0.11130535155E+02 0.11217276568E+02 0.11218461809E+02 0.11132631070E+02 0.10925534850E+02
 0.96177872837E+01 0.88501070607E+01 0.81414324961E+01 0.75756086420E+01 0.71606663420E+01
 0.68566590570E+01 0.66278848735E+01 0.64740744914E+01 0.64189573312E+01 0.64755752971E+01
 0.66289710556E+01 0.68557673583E+01 0.71583464360E+01 0.75739008700E+01 0.81418562601E+01
 0.88523179157E+01 0.96198753813E+01 0.10292000623E+02 0.10801811827E+02 0.11113481539E+02
 0.11218461809E+02 0.11115465074E+02 0.10803720609E+02 0.10291885737E+02 0.84085734475E+01
 0.74716194330E+01 0.66617733461E+01 0.60221093930E+01 0.55398051324E+01 0.51821877389E+01
 0.49326869286E+01 0.48002796152E+01 0.48005117854E+01 0.49330142011E+01 0.51820469788E+01
 0.55392543155E+01 0.60217716102E+01 0.66621187066E+01 0.74725193859E+01 0.84093903491E+01
 0.93669808646E+01 0.10187065883E+02 0.10802136198E+02 0.11131884649E+02 0.11132631070E+02
 0.10803720609E+02 0.10188216123E+02 0.93670079768E+01 0.71487749347E+01 0.61498840870E+01
 0.53262881921E+01 0.46865574325E+01 0.42090258199E+01 0.38700634299E+01 0.36617804716E+01
 0.35901749278E+01 0.36605444322E+01 0.38687814802E+01 0.42090548002E+01 0.46881433717E+01
 0.53282750724E+01 0.61508396604E+01 0.71483005721E+01 0.82596789662E+01 0.93657603349E+01
 0.10290939429E+02 0.10924999452E+02 0.11150861507E+02 0.10925534850E+02 0.10291885737E+02
 0.93670079768E+01 0.82609192693E+01 0.61508555094E+01 0.49994763238E+01 0.41208054028E+01
 0.34788701843E+01 0.30387002015E+01 0.27793706429E+01 0.26933442298E+01 0.27793837710E+01
 0.30386511191E+01 0.34787851619E+01 0.41208161136E+01 0.49996170469E+01 0.61510043446E+01
 0.75818194970E+01 0.92285589516E+01 0.10928433912E+02 0.12409465483E+02 0.13454088401E+02
 0.13831207482E+02 0.13454135605E+02 0.12409515996E+02 0.10928470345E+02 0.92285749828E+01
 0.75817644171E+01 0.49994763238E+01 0.39717609268E+01 0.32046382057E+01 0.26619417590E+01
 0.23154529348E+01 0.21469527712E+01 0.21473803117E+01 0.23163040653E+01 0.26622520072E+01
 0.32037444337E+01 0.39700559864E+01 0.49982719728E+01 0.63187273779E+01 0.79212440003E+01
 0.97093622692E+01 0.11472565115E+02 0.12911917214E+02 0.13708084336E+02 0.13708546893E+02
 0.12912626269E+02 0.11472294423E+02 0.97078338476E+01 0.79195856261E+01 0.63183600757E+01
 0.41208054028E+01 0.32046382057E+01 0.25398833642E+01 0.20926753534E+01 0.18366935783E+01
 0.17536228504E+01 0.18366435424E+01 0.20926898283E+01 0.25399793544E+01 0.32046938250E+01
 0.41207598067E+01 0.53262602026E+01 0.68421188636E+01 0.86274999950E+01 0.10530779420E+02
 0.12276274386E+02 0.13520951336E+02 0.13974063823E+02 0.13521064265E+02 0.12276429739E+02
 0.10530877016E+02 0.86275112828E+01 0.68421244320E+01 0.53263208904E+01 0.34788701843E+01
 0.26619417590E+01 0.20926753534E+01 0.17358701956E+01 0.15651279687E+01 0.15650129163E+01
 0.17354623850E+01 0.20921739307E+01 0.26621190253E+01 0.34802556420E+01 0.45880457284E+01
 0.60223090417E+01 0.77814082770E+01 0.97722182880E+01 0.11767852467E+02 0.13422346294E+02
 0.14368804219E+02 0.14368235441E+02 0.13421656353E+02 0.11768643499E+02 0.97743431485E+01
 0.77829501021E+01 0.60218640404E+01 0.45862720404E+01 0.30387002015E+01 0.23154529348E+01
 0.18366935783E+01 0.15651279687E+01 0.14773227782E+01 0.15651214494E+01 0.18366814905E+01
 0.23154239808E+01 0.30386378384E+01 0.40559705743E+01 0.54204321182E+01 0.71607992486E+01
 0.92320446234E+01 0.11460040619E+02 0.13520990179E+02 0.15001319093E+02 0.15542455348E+02
 0.15001291314E+02 0.13520884616E+02 0.11459852487E+02 0.92318592718E+01 0.71607149872E+01
 0.54204632890E+01 0.40560506744E+01 0.27793706429E+01 0.21469527712E+01 0.17536228504E+01
 0.15650129163E+01 0.15651214494E+01 0.17539884548E+01 0.21473959145E+01 0.27792500776E+01
 0.37041856282E+01 0.49924735657E+01 0.67053437957E+01 0.88437563534E+01 0.11282586541E+02
 0.13709806771E+02 0.15726424175E+02 0.16883997173E+02 0.16884102540E+02 0.15726208538E+02
 0.13708552191E+02 0.11280740375E+02 0.88427489917E+01 0.67059965372E+01 0.49940677016E+01
 0.37053388889E+01 0.26933442298E+01 0.21473803117E+01 0.18366435424E+01 0.17354623850E+01
 0.18366814905E+01 0.21473959145E+01 0.26933217587E+01 0.35270570271E+01 0.47292643177E+01
 0.63885584428E+01 0.85473429484E+01 0.11103643852E+02 0.13831128896E+02 0.16350344234E+02
 0.18155666567E+02 0.18813732547E+02 0.18155633202E+02 0.16350449051E+02 0.13831413995E+02
 0.11103901807E+02 0.85473702814E+01 0.63884027315E+01 0.47291268651E+01 0.35270343597E+01
 0.27793837710E+01 0.23163040653E+01 0.20926898283E+01 0.20921739307E+01 0.23154239808E+01
 0.27792500776E+01 0.35270570271E+01 0.46387995749E+01 0.62196605645E+01 0.83430382375E+01
 0.10925000691E+02 0.13821263948E+02 0.16670124954E+02 0.18945988899E+02 0.20194364820E+02
 0.20195222462E+02 0.18947934010E+02 0.16671877373E+02 0.13822041453E+02 0.10924957140E+02
 0.83426230113E+01 0.62189461459E+01 0.46377761006E+01 0.35262583589E+01 0.30386511191E+01
 0.26622520072E+01 0.25399793544E+01 0.26621190253E+01 0.30386378384E+01 0.37041856282E+01
 0.47292643177E+01 0.62196605645E+01 0.82666282183E+01 0.10802071343E+02 0.13727071073E+02
 0.16647862076E+02 0.18951908852E+02 0.20232611554E+02 0.20599758362E+02 0.20232461951E+02
 0.18951777136E+02 0.16647770125E+02 0.13726923088E+02 0.10801954959E+02 0.82667125047E+01
 0.62198345068E+01 0.47292690707E+01 0.37040650672E+01 0.34787851619E+01 0.32037444337E+01
 0.32046938250E+01 0.34802556420E+01 0.40559705743E+01 0.49924735657E+01 0.63885584428E+01
 0.83430382375E+01 0.10802071343E+02 0.13671054098E+02 0.16495051436E+02 0.18393810925E+02
 0.18774446195E+02 0.18317237294E+02 0.18315028006E+02 0.18770272956E+02 0.18391818948E+02
 0.16495988545E+02 0.13672246541E+02 0.10801783685E+02 0.83425846751E+01 0.63896020448E+01
 0.49941450752E+01 0.40561387979E+01 0.41208161136E+01 0.39700559864E+01 0.41207598067E+01
 0.45880457284E+01 0.54204321182E+01 0.67053437957E+01 0.85473429484E+01 0.10925000691E+02
 0.13727071073E+02 0.16495051436E+02 0.18048513553E+02 0.17146069326E+02 0.14946594223E+02
 0.14698123503E+02 0.14946523730E+02 0.17146092426E+02 0.18048699885E+02 0.16495275864E+02
 0.13727194591E+02 0.10925011713E+02 0.85472925170E+01 0.67052713682E+01 0.54203883123E+01
 0.45880727216E+01 0.49996170469E+01 0.49982719728E+01 0.53262602026E+01 0.60223090417E+01
 0.71607992486E+01 0.88437563534E+01 0.11103643852E+02 0.13821263948E+02 0.16647862076E+02
 0.18393810925E+02 0.17146069326E+02 0.14230853540E+02 0.30731184058E+02 0.30734095986E+02
 0.14236253408E+02 0.17148311635E+02 0.18391978553E+02 0.16645970053E+02 0.13822030849E+02
 0.11105033416E+02 0.88427848179E+01 0.71583564701E+01 0.60217514296E+01 0.53282015274E+01
 0.61510043446E+01 0.63187273779E+01 0.68421188636E+01 0.77814082770E+01 0.92320446234E+01
 0.11282586541E+02 0.13831128896E+02 0.16670124954E+02 0.18951908852E+02 0.18774446195E+02
 0.14946594223E+02 0.30731184058E+02 0.33699786660E+03 0.30731225412E+02 0.14946641716E+02
 0.18774443366E+02 0.18951821173E+02 0.16669987881E+02 0.13831035500E+02 0.11282598522E+02
 0.92321172379E+01 0.77814328026E+01 0.68420500917E+01 0.63186412265E+01 0.75818194970E+01
 0.79212440003E+01 0.86274999950E+01 0.97722182880E+01 0.11460040619E+02 0.13709806771E+02
 0.16350344234E+02 0.18945988899E+02 0.20232611554E+02 0.18317237294E+02 0.14698123503E+02
 0.30734095986E+02 0.30731225412E+02 0.14692780291E+02 0.18314980393E+02 0.20234396261E+02
 0.18947883529E+02 0.16349596709E+02 0.13708346314E+02 0.11460860543E+02 0.97745852383E+01
 0.86281686072E+01 0.79195126206E+01 0.75805792603E+01 0.92285589516E+01 0.97093622692E+01
 0.10530779420E+02 0.11767852467E+02 0.13520990179E+02 0.15726424175E+02 0.18155666567E+02
 0.20194364820E+02 0.20599758362E+02 0.18315028006E+02 0.14946523730E+02 0.14236253408E+02
 0.14946641716E+02 0.18314980393E+02 0.20599491677E+02 0.20194174193E+02 0.18155735053E+02
 0.15726591575E+02 0.13521068933E+02 0.11767867486E+02 0.10530798898E+02 0.97093570399E+01
 0.92285239430E+01 0.90680672862E+01 0.10928433912E+02 0.11472565115E+02 0.12276274386E+02
 0.13422346294E+02 0.15001319093E+02 0.16883997173E+02 0.18813732547E+02 0.20195222462E+02
 0.20232461951E+02 0.18770272956E+02 0.17146092426E+02 0.17148311635E+02 0.18774443366E+02
 0.20234396261E+02 0.20194174193E+02 0.18812407672E+02 0.16884242663E+02 0.15002018132E+02
 0.13421830468E+02 0.12274942380E+02 0.11472026130E+02 0.10929034257E+02 0.10622558712E+02
 0.10622075511E+02 0.12409465483E+02 0.12911917214E+02 0.13520951336E+02 0.14368804219E+02
 0.15542455348E+02 0.16884102540E+02 0.18155633202E+02 0.18947934010E+02 0.18951777136E+02
 0.18391818948E+02 0.18048699885E+02 0.18391978553E+02 0.18951821173E+02 0.18947883529E+02
 0.18155735053E+02 0.16884242663E+02 0.15542320780E+02 0.14368552453E+02 0.13521000529E+02
 0.12912154437E+02 0.12409421402E+02 0.12064355720E+02 0.11936103058E+02 0.12064623464E+02
 0.13454088401E+02 0.13708084336E+02 0.13974063823E+02 0.14368235441E+02 0.15001291314E+02
 0.15726208538E+02 0.16350449051E+02 0.16671877373E+02 0.16647770125E+02 0.16495988545E+02
 0.16495275864E+02 0.16645970053E+02 0.16669987881E+02 0.16349596709E+02 0.15726591575E+02
 0.15002018132E+02 0.14368552453E+02 0.13974202742E+02 0.13708527994E+02 0.13454679334E+02
 0.13196382752E+02 0.13018734126E+02 0.13018672189E+02 0.13196058094E+02 0.13831207482E+02
 0.13708546893E+02 0.13521064265E+02 0.13421656353E+02 0.13520884616E+02 0.13708552191E+02
 0.13831413995E+02 0.13822041453E+02 0.13726923088E+02 0.13672246541E+02 0.13727194591E+02
 0.13822030849E+02 0.13831035500E+02 0.13708346314E+02 0.13521068933E+02 0.13421830468E+02
 0.13521000529E+02 0.13708527994E+02 0.13831409167E+02 0.13822182052E+02 0.13727084026E+02
 0.13672229124E+02 0.13727037982E+02 0.13821983082E+02 0.13454135605E+02 0.12912626269E+02
 0.12276429739E+02 0.11768643499E+02 0.11459852487E+02 0.11280740375E+02 0.11103901807E+02
 0.10924957140E+02 0.10801954959E+02 0.10801783685E+02 0.10925011713E+02 0.11105033416E+02
 0.11282598522E+02 0.11460860543E+02 0.11767867486E+02 0.12274942380E+02 0.12912154437E+02
 0.13454679334E+02 0.13822182052E+02 0.13971075175E+02 0.13989254979E+02 0.13989935604E+02
 0.13972096500E+02 0.13822162867E+02 0.12409515996E+02 0.11472294423E+02 0.10530877016E+02
 0.97743431485E+01 0.92318592718E+01 0.88427489917E+01 0.85473702814E+01 0.83426230113E+01
 0.82667125047E+01 0.83425846751E+01 0.85472925170E+01 0.88427848179E+01 0.92321172379E+01
 0.97745852383E+01 0.10530798898E+02 0.11472026130E+02 0.12409421402E+02 0.13196382752E+02
 0.13727084026E+02 0.13989254979E+02 0.14059836403E+02 0.13989417650E+02 0.13727128302E+02
 0.13196305890E+02 0.10928470345E+02 0.97078338476E+01 0.86275112828E+01 0.77829501021E+01
 0.71607149872E+01 0.67059965372E+01 0.63884027315E+01 0.62189461459E+01 0.62198345068E+01
 0.63896020448E+01 0.67052713682E+01 0.71583564701E+01 0.77814328026E+01 0.86281686072E+01
 0.97093570399E+01 0.10929034257E+02 0.12064355720E+02 0.13018734126E+02 0.13672229124E+02
 0.13989935604E+02 0.13989417650E+02 0.13671421147E+02 0.13018693564E+02 0.12064712231E+02
 0.92285749828E+01 0.79195856261E+01 0.68421244320E+01 0.60218640404E+01 0.54204632890E+01
 0.49940677016E+01 0.47291268651E+01 0.46377761006E+01 0.47292690707E+01 0.49941450752E+01
 0.54203883123E+01 0.60217514296E+01 0.68420500917E+01 0.79195126206E+01 0.92285239430E+01
 0.10622558712E+02 0.11936103058E+02 0.13018672189E+02 0.13727037982E+02 0.13972096500E+02
 0.13727128302E+02 0.13018693564E+02 0.11936022907E+02 0.10622514245E+02 0.75817644171E+01
 0.63183600757E+01 0.53263208904E+01 0.45862720404E+01 0.40560506744E+01 0.37053388889E+01
 0.35270343597E+01 0.35262583589E+01 0.37040650672E+01 0.40561387979E+01 0.45880727216E+01
 0.53282015274E+01 0.63186412265E+01 0.75805792603E+01 0.90680672862E+01 0.10622075511E+02
 0.12064623464E+02 0.13196058094E+02 0.13821983082E+02 0.13822162867E+02 0.13196305890E+02
 0.12064712231E+02 0.10622514245E+02 0.90692856711E+01 0.59856388848E+01 0.47612387898E+01
 0.38640590479E+01 0.32356009295E+01 0.28330650115E+01 0.26352726328E+01 0.26354580845E+01
 0.28333003189E+01 0.32354331736E+01 0.38636376272E+01 0.47611113984E+01 0.59858949717E+01
 0.75818547044E+01 0.95253929996E+01 0.11652156164E+02 0.13719639615E+02 0.15400396080E+02
 0.16350850035E+02 0.16350268311E+02 0.15399281428E+02 0.13719084094E+02 0.11652401350E+02
 0.95257351307E+01 0.75817493878E+01 0.47612387898E+01 0.37215960396E+01 0.29751394586E+01
 0.24732038237E+01 0.21836716882E+01 0.20892089838E+01 0.21841285205E+01 0.24734158216E+01
 0.29744468473E+01 0.37201803135E+01 0.47601158145E+01 0.61504186487E+01 0.79213168095E+01
 0.10020380910E+02 0.12257799024E+02 0.14280032612E+02 0.15725946175E+02 0.16252773219E+02
 0.15726270447E+02 0.14280149822E+02 0.12257141117E+02 0.10019012347E+02 0.79201073928E+01
 0.61503319322E+01 0.38640590479E+01 0.29751394586E+01 0.23560830528E+01 0.19665003073E+01
 0.17789848023E+01 0.17789574667E+01 0.19664895791E+01 0.23561583755E+01 0.29752126491E+01
 0.38640227565E+01 0.50758301787E+01 0.66617188017E+01 0.86274822713E+01 0.10869422752E+02
 0.13126511067E+02 0.15001290440E+02 0.16074815920E+02 0.16074889868E+02 0.15001471228E+02
 0.13126683003E+02 0.10869478263E+02 0.86274515085E+01 0.66617326489E+01 0.50759159710E+01
 0.32356009295E+01 0.24732038237E+01 0.19665003073E+01 0.16784116257E+01 0.15851330564E+01
 0.16781293747E+01 0.19661503623E+01 0.24733218518E+01 0.32366402259E+01 0.43061029809E+01
 0.57392653767E+01 0.75739828003E+01 0.97721377520E+01 0.12153460690E+02 0.14368639886E+02
 0.15965121218E+02 0.16549109832E+02 0.15964096447E+02 0.14368191511E+02 0.12154689962E+02
 0.97741878670E+01 0.75750286468E+01 0.57385604328E+01 0.43045681179E+01 0.28330650115E+01
 0.21836716882E+01 0.17789848023E+01 0.15851330564E+01 0.15851355059E+01 0.17789785638E+01
 0.21836442077E+01 0.28330314593E+01 0.37786848122E+01 0.50864659254E+01 0.68169283952E+01
 0.89786567216E+01 0.11460036286E+02 0.13974150714E+02 0.16074951663E+02 0.17283112353E+02
 0.17283025751E+02 0.16074734129E+02 0.13973910677E+02 0.11459883687E+02 0.89786224265E+01
 0.68169571585E+01 0.50864974742E+01 0.37787115571E+01 0.26352726328E+01 0.20892089838E+01
 0.17789574667E+01 0.16781293747E+01 0.17789785638E+01 0.20895571048E+01 0.26356180181E+01
 0.34661147800E+01 0.46549782613E+01 0.62861359322E+01 0.84091343167E+01 0.10967204305E+02
 0.13709856863E+02 0.16252397017E+02 0.18087284992E+02 0.18761105185E+02 0.18088512729E+02
 0.16252784474E+02 0.13708168963E+02 0.10964832860E+02 0.84083937905E+01 0.62874717416E+01
 0.46567256326E+01 0.34667444887E+01 0.26354580845E+01 0.21841285205E+01 0.19664895791E+01
 0.19661503623E+01 0.21836442077E+01 0.26356180181E+01 0.33627315603E+01 0.44381199705E+01
 0.59607341535E+01 0.80139112834E+01 0.10583837881E+02 0.13454656303E+02 0.16350301604E+02
 0.18749303667E+02 0.20116759315E+02 0.20117554888E+02 0.18750815297E+02 0.16351029788E+02
 0.13454305169E+02 0.10583400549E+02 0.80140917800E+01 0.59610468349E+01 0.44378324033E+01
 0.33620808487E+01 0.28333003189E+01 0.24734158216E+01 0.23561583755E+01 0.24733218518E+01
 0.28330314593E+01 0.34661147800E+01 0.44381199705E+01 0.58505435232E+01 0.78051821247E+01
 0.10291131915E+02 0.13194521852E+02 0.16248784037E+02 0.18945857697E+02 0.20757863113E+02
 0.21385269504E+02 0.20758694794E+02 0.18947719748E+02 0.16251165652E+02 0.13196055693E+02
 0.10290829915E+02 0.78035237040E+01 0.58489515632E+01 0.44375083701E+01 0.34662724796E+01
 0.32354331736E+01 0.29744468473E+01 0.29752126491E+01 0.32366402259E+01 0.37786848122E+01
 0.46549782613E+01 0.59607341535E+01 0.78051821247E+01 0.10188280826E+02 0.13018517205E+02
 0.16028838869E+02 0.18627663024E+02 0.20232528540E+02 0.20833838909E+02 0.20833472393E+02
 0.20232252089E+02 0.18628518212E+02 0.16030118427E+02 0.13018528703E+02 0.10186849374E+02
 0.78040858601E+01 0.59612839977E+01 0.46562088335E+01 0.37787565413E+01 0.38636376272E+01
 0.37201803135E+01 0.38640227565E+01 0.43061029809E+01 0.50864659254E+01 0.62861359322E+01
 0.80139112834E+01 0.10291131915E+02 0.13018517205E+02 0.15914299984E+02 0.18203953517E+02
 0.18963330966E+02 0.18317213429E+02 0.17785230580E+02 0.18316109438E+02 0.18961688564E+02
 0.18202544199E+02 0.15913665663E+02 0.13018757629E+02 0.10291970517E+02 0.80148842445E+01
 0.62867851829E+01 0.50865422761E+01 0.43057304749E+01 0.47611113984E+01 0.47601158145E+01
 0.50758301787E+01 0.57392653767E+01 0.68169283952E+01 0.84091343167E+01 0.10583837881E+02
 0.13194521852E+02 0.16028838869E+02 0.18203953517E+02 0.18277921635E+02 0.15892126854E+02
 0.14698067748E+02 0.14698469058E+02 0.15892346366E+02 0.18276787836E+02 0.18202475772E+02
 0.16029077723E+02 0.13196460209E+02 0.10585100025E+02 0.84081980710E+01 0.68152289120E+01
 0.57391803255E+01 0.50774155650E+01 0.59858949717E+01 0.61504186487E+01 0.66617188017E+01
 0.75739828003E+01 0.89786567216E+01 0.10967204305E+02 0.13454656303E+02 0.16248784037E+02
 0.18627663024E+02 0.18963330966E+02 0.15892126854E+02 0.16503880086E+02 0.30734057638E+02
 0.16503800892E+02 0.15892110716E+02 0.18963689929E+02 0.18628463512E+02 0.16249451377E+02
 0.13454502062E+02 0.10966349602E+02 0.89779392268E+01 0.75739329795E+01 0.66620927392E+01
 0.61507254721E+01 0.75818547044E+01 0.79213168095E+01 0.86274822713E+01 0.97721377520E+01
 0.11460036286E+02 0.13709856863E+02 0.16350301604E+02 0.18945857697E+02 0.20232528540E+02
 0.18317213429E+02 0.14698067748E+02 0.30734057638E+02 0.30731340038E+02 0.14693001544E+02
 0.18315128835E+02 0.20234444734E+02 0.18947936868E+02 0.16349632790E+02 0.13708252276E+02
 0.11460693147E+02 0.97745198327E+01 0.86282113690E+01 0.79195239065E+01 0.75805491364E+01
 0.95253929996E+01 0.10020380910E+02 0.10869422752E+02 0.12153460690E+02 0.13974150714E+02
 0.16252397017E+02 0.18749303667E+02 0.20757863113E+02 0.20833838909E+02 0.17785230580E+02
 0.14698469058E+02 0.16503800892E+02 0.14693001544E+02 0.17779209994E+02 0.20831769944E+02
 0.20759515729E+02 0.18751241828E+02 0.16252748450E+02 0.13974209040E+02 0.12154663664E+02
 0.10870835552E+02 0.10020414966E+02 0.95245499336E+01 0.93600334942E+01 0.11652156164E+02
 0.12257799024E+02 0.13126511067E+02 0.14368639886E+02 0.16074951663E+02 0.18087284992E+02
 0.20116759315E+02 0.21385269504E+02 0.20833472393E+02 0.18316109438E+02 0.15892346366E+02
 0.15892110716E+02 0.18315128835E+02 0.20831769944E+02 0.21383990611E+02 0.20117043272E+02
 0.18088718965E+02 0.16076078720E+02 0.14368753243E+02 0.13126155573E+02 0.12257686765E+02
 0.11652338544E+02 0.11337552130E+02 0.11337427905E+02 0.13719639615E+02 0.14280032612E+02
 0.15001290440E+02 0.15965121218E+02 0.17283112353E+02 0.18761105185E+02 0.20117554888E+02
 0.20758694794E+02 0.20232252089E+02 0.18961688564E+02 0.18276787836E+02 0.18963689929E+02
 0.20234444734E+02 0.20759515729E+02 0.20117043272E+02 0.18760305059E+02 0.17282941028E+02
 0.15965791899E+02 0.15002068756E+02 0.14279642131E+02 0.13717726839E+02 0.13324111940E+02
 0.13178624456E+02 0.13326035120E+02 0.15400396080E+02 0.15725946175E+02 0.16074815920E+02
 0.16549109832E+02 0.17283025751E+02 0.18088512729E+02 0.18750815297E+02 0.18947719748E+02
 0.18628518212E+02 0.18202544199E+02 0.18202475772E+02 0.18628463512E+02 0.18947936868E+02
 0.18751241828E+02 0.18088718965E+02 0.17282941028E+02 0.16549440615E+02 0.16075920152E+02
 0.15726567800E+02 0.15398875130E+02 0.15060538257E+02 0.14823445249E+02 0.14825031334E+02
 0.15063561289E+02 0.16350850035E+02 0.16252773219E+02 0.16074889868E+02 0.15964096447E+02
 0.16074734129E+02 0.16252784474E+02 0.16351029788E+02 0.16251165652E+02 0.16030118427E+02
 0.15913665663E+02 0.16029077723E+02 0.16249451377E+02 0.16349632790E+02 0.16252748450E+02
 0.16076078720E+02 0.15965791899E+02 0.16075920152E+02 0.16252749268E+02 0.16349788180E+02
 0.16249436509E+02 0.16028892464E+02 0.15913634855E+02 0.16030247683E+02 0.16251138918E+02
 0.16350268311E+02 0.15726270447E+02 0.15001471228E+02 0.14368191511E+02 0.13973910677E+02
 0.13708168963E+02 0.13454305169E+02 0.13196055693E+02 0.13018528703E+02 0.13018757629E+02
 0.13196460209E+02 0.13454502062E+02 0.13708252276E+02 0.13974209040E+02 0.14368753243E+02
 0.15002068756E+02 0.15726567800E+02 0.16349788180E+02 0.16670240498E+02 0.16645921829E+02
 0.16495043301E+02 0.16495945422E+02 0.16647852009E+02 0.16671773892E+02 0.15399281428E+02
 0.14280149822E+02 0.13126683003E+02 0.12154689962E+02 0.11459883687E+02 0.10964832860E+02
 0.10583400549E+02 0.10290829915E+02 0.10186849374E+02 0.10291970517E+02 0.10585100025E+02
 0.10966349602E+02 0.11460693147E+02 0.12154663664E+02 0.13126155573E+02 0.14279642131E+02
 0.15398875130E+02 0.16249436509E+02 0.16645921829E+02 0.16659310663E+02 0.16600745040E+02
 0.16660529028E+02 0.16647315685E+02 0.16250231368E+02 0.13719084094E+02 0.12257141117E+02
 0.10869478263E+02 0.97741878670E+01 0.89786224265E+01 0.84083937905E+01 0.80140917800E+01
 0.78035237040E+01 0.78040858601E+01 0.80148842445E+01 0.84081980710E+01 0.89779392268E+01
 0.97745198327E+01 0.10870835552E+02 0.12257686765E+02 0.13717726839E+02 0.15060538257E+02
 0.16028892464E+02 0.16495043301E+02 0.16600745040E+02 0.16599715894E+02 0.16493382795E+02
 0.16028927492E+02 0.15062339397E+02 0.11652401350E+02 0.10019012347E+02 0.86274515085E+01
 0.75750286468E+01 0.68169571585E+01 0.62874717416E+01 0.59610468349E+01 0.58489515632E+01
 0.59612839977E+01 0.62867851829E+01 0.68152289120E+01 0.75739329795E+01 0.86282113690E+01
 0.10020414966E+02 0.11652338544E+02 0.13324111940E+02 0.14823445249E+02 0.15913634855E+02
 0.16495945422E+02 0.16660529028E+02 0.16493382795E+02 0.15911470792E+02 0.14823713834E+02
 0.13325505117E+02 0.95257351307E+01 0.79201073928E+01 0.66617326489E+01 0.57385604328E+01
 0.50864974742E+01 0.46567256326E+01 0.44378324033E+01 0.44375083701E+01 0.46562088335E+01
 0.50865422761E+01 0.57391803255E+01 0.66620927392E+01 0.79195239065E+01 0.95245499336E+01
 0.11337552130E+02 0.13178624456E+02 0.14825031334E+02 0.16030247683E+02 0.16647852009E+02
 0.16647315685E+02 0.16028927492E+02 0.14823713834E+02 0.13178193933E+02 0.11338279186E+02
 0.75817493878E+01 0.61503319322E+01 0.50759159710E+01 0.43045681179E+01 0.37787115571E+01
 0.34667444887E+01 0.33620808487E+01 0.34662724796E+01 0.37787565413E+01 0.43057304749E+01
 0.50774155650E+01 0.61507254721E+01 0.75805491364E+01 0.93600334942E+01 0.11337427905E+02
 0.13326035120E+02 0.15063561289E+02 0.16251138918E+02 0.16671773892E+02 0.16250231368E+02
 0.15062339397E+02 0.13325505117E+02 0.11338279186E+02 0.93617881778E+01 0.55256818010E+01
 0.43301509778E+01 0.34854543509E+01 0.29213849632E+01 0.25948221828E+01 0.24873323338E+01
 0.25946853615E+01 0.29212681463E+01 0.34854492158E+01 0.43301927850E+01 0.55256889226E+01
 0.71488268738E+01 0.92286247640E+01 0.11652175370E+02 0.14196488197E+02 0.16513350046E+02
 0.18155682342E+02 0.18750694905E+02 0.18155504585E+02 0.16513142377E+02 0.14196366999E+02
 0.11652139970E+02 0.92286339576E+01 0.71488485011E+01 0.43301509778E+01 0.33529927512E+01
 0.26780401742E+01 0.22529609899E+01 0.20472095308E+01 0.20472579066E+01 0.22529307733E+01
 0.26776419989E+01 0.33522795811E+01 0.43296270402E+01 0.56813084375E+01 0.74732804179E+01
 0.97094675204E+01 0.12257817911E+02 0.14783838695E+02 0.16884267000E+02 0.18088605246E+02
 0.18088552616E+02 0.16884216425E+02 0.14783847568E+02 0.12257637847E+02 0.97089028036E+01
 0.74726488533E+01 0.56811850583E+01 0.34854543509E+01 0.26780401742E+01 0.21414543039E+01
 0.18353915763E+01 0.17360620690E+01 0.18354317099E+01 0.21415488101E+01 0.26781350716E+01
 0.34854743650E+01 0.46223477347E+01 0.61585259320E+01 0.81413337131E+01 0.10530717631E+02
 0.13126447774E+02 0.15542435142E+02 0.17283081418E+02 0.17903860723E+02 0.17283148194E+02
 0.15542606804E+02 0.13126662279E+02 0.10530841652E+02 0.81413471968E+01 0.61585295059E+01
 0.46223764414E+01 0.29213849632E+01 0.22529609899E+01 0.18353915763E+01 0.16353020229E+01
 0.16352473086E+01 0.18352506820E+01 0.22529102819E+01 0.29217576246E+01 0.38917747804E+01
 0.52287028066E+01 0.69971544357E+01 0.92127382162E+01 0.11767721106E+02 0.14368566158E+02
 0.16549776723E+02 0.17806745745E+02 0.17806288365E+02 0.16549063528E+02 0.14368721743E+02
 0.11768893464E+02 0.92139049482E+01 0.69973271024E+01 0.52279474251E+01 0.38909153160E+01
 0.25948221828E+01 0.20472095308E+01 0.17360620690E+01 0.16352473086E+01 0.17360879080E+01
 0.20471657394E+01 0.25946999051E+01 0.34241442276E+01 0.46011514198E+01 0.62017548342E+01
 0.82769532122E+01 0.10786162008E+02 0.13521013351E+02 0.16074959330E+02 0.17903971144E+02
 0.18577786618E+02 0.17903763332E+02 0.16074686677E+02 0.13520838496E+02 0.10786119561E+02
 0.82769449574E+01 0.62017120810E+01 0.46011366446E+01 0.34242297317E+01 0.24873323338E+01
 0.20472579066E+01 0.18354317099E+01 0.18352506820E+01 0.20471657394E+01 0.24877866534E+01
 0.31943363649E+01 0.42307437319E+01 0.56841273577E+01 0.76352034410E+01 0.10093374690E+02
 0.12914255203E+02 0.15726504607E+02 0.18087298482E+02 0.19448619806E+02 0.19449514654E+02
 0.18088585725E+02 0.15725980665E+02 0.12912045321E+02 0.10091827702E+02 0.76358315074E+01
 0.56858737696E+01 0.42316659991E+01 0.31940282708E+01 0.25946853615E+01 0.22529307733E+01
 0.21415488101E+01 0.22529102819E+01 0.25946999051E+01 0.31943363649E+01 0.41084071445E+01
 0.54260365181E+01 0.72471576659E+01 0.96173521361E+01 0.12409541413E+02 0.15400420438E+02
 0.18155565040E+02 0.20116680961E+02 0.20827910967E+02 0.20116841566E+02 0.18155724218E+02
 0.15400500774E+02 0.12409629814E+02 0.96175015682E+01 0.72472677630E+01 0.54260038709E+01
 0.41082798584E+01 0.31942405600E+01 0.29212681463E+01 0.26776419989E+01 0.26781350716E+01
 0.29217576246E+01 0.34241442276E+01 0.42307437319E+01 0.54260365181E+01 0.71170866952E+01
 0.93668423968E+01 0.12062786251E+02 0.15060585672E+02 0.17951202337E+02 0.20194167267E+02
 0.21385182737E+02 0.21384046757E+02 0.20192589293E+02 0.17952023861E+02 0.15063493062E+02
 0.12064548809E+02 0.93655919903E+01 0.71146342970E+01 0.54251977745E+01 0.42317054074E+01
 0.34248649358E+01 0.34854492158E+01 0.33522795811E+01 0.34854743650E+01 0.38917747804E+01
 0.46011514198E+01 0.56841273577E+01 0.72471576659E+01 0.93668423968E+01 0.11936111137E+02
 0.14825089648E+02 0.17591888185E+02 0.19619173093E+02 0.20599719549E+02 0.20833503799E+02
 0.20599727791E+02 0.19619110475E+02 0.17591728240E+02 0.14824906479E+02 0.11935987447E+02
 0.93668030629E+01 0.72471958301E+01 0.56842178822E+01 0.46012322077E+01 0.38917906117E+01
 0.43301927850E+01 0.43296270402E+01 0.46223477347E+01 0.52287028066E+01 0.62017548342E+01
 0.76352034410E+01 0.96173521361E+01 0.12062786251E+02 0.14825089648E+02 0.17411217104E+02
 0.18964475004E+02 0.18993466214E+02 0.18315113248E+02 0.18316216042E+02 0.18994819578E+02
 0.18963210044E+02 0.17408034081E+02 0.14823541777E+02 0.12064466899E+02 0.96199392765E+01
 0.76358291791E+01 0.62005987771E+01 0.52280212716E+01 0.46229876257E+01 0.55256889226E+01
 0.56813084375E+01 0.61585259320E+01 0.69971544357E+01 0.82769532122E+01 0.10093374690E+02
 0.12409541413E+02 0.15060585672E+02 0.17591888185E+02 0.18964475004E+02 0.18146241129E+02
 0.15892286107E+02 0.14946547661E+02 0.15892429622E+02 0.18146227650E+02 0.18964323074E+02
 0.17591912681E+02 0.15060765864E+02 0.12409556225E+02 0.10093246044E+02 0.82769976885E+01
 0.69973235098E+01 0.61584711267E+01 0.56810818093E+01 0.71488268738E+01 0.74732804179E+01
 0.81413337131E+01 0.92127382162E+01 0.10786162008E+02 0.12914255203E+02 0.15400420438E+02
 0.17951202337E+02 0.19619173093E+02 0.18993466214E+02 0.15892286107E+02 0.14236596968E+02
 0.14236300395E+02 0.15892205486E+02 0.18994784314E+02 0.19621363062E+02 0.17952120540E+02
 0.15398950841E+02 0.12912044816E+02 0.10785634847E+02 0.92138806301E+01 0.81419774202E+01
 0.74725007585E+01 0.71481626731E+01 0.92286247640E+01 0.97094675204E+01 0.10530717631E+02
 0.11767721106E+02 0.13521013351E+02 0.15726504607E+02 0.18155565040E+02 0.20194167267E+02
 0.20599719549E+02 0.18315113248E+02 0.14946547661E+02 0.14236300395E+02 0.14946892333E+02
 0.18315283449E+02 0.20599563052E+02 0.20194067266E+02 0.18155679055E+02 0.15726539245E+02
 0.13520854262E+02 0.11767634305E+02 0.10530805467E+02 0.97095098549E+01 0.92285552648E+01
 0.90680148561E+01 0.11652175370E+02 0.12257817911E+02 0.13126447774E+02 0.14368566158E+02
 0.16074959330E+02 0.18087298482E+02 0.20116680961E+02 0.21385182737E+02 0.20833503799E+02
 0.18316216042E+02 0.15892429622E+02 0.15892205486E+02 0.18315283449E+02 0.20831875411E+02
 0.21383932629E+02 0.20116900700E+02 0.18088622563E+02 0.16076005018E+02 0.14368644913E+02
 0.13126100236E+02 0.12257771748E+02 0.11652461103E+02 0.11337575359E+02 0.11337398233E+02
 0.14196488197E+02 0.14783838695E+02 0.15542435142E+02 0.16549776723E+02 0.17903971144E+02
 0.19448619806E+02 0.20827910967E+02 0.21384046757E+02 0.20599727791E+02 0.18994819578E+02
 0.18146227650E+02 0.18994784314E+02 0.20599563052E+02 0.21383932629E+02 0.20828097248E+02
 0.19448894769E+02 0.17903927476E+02 0.16549531573E+02 0.15542450318E+02 0.14784109478E+02
 0.14196592653E+02 0.13783909471E+02 0.13629921949E+02 0.13784024549E+02 0.16513350046E+02
 0.16884267000E+02 0.17283081418E+02 0.17806745745E+02 0.18577786618E+02 0.19449514654E+02
 0.20116841566E+02 0.20192589293E+02 0.19619110475E+02 0.18963210044E+02 0.18964323074E+02
 0.19621363062E+02 0.20194067266E+02 0.20116900700E+02 0.19448894769E+02 0.18577226162E+02
 0.17806350336E+02 0.17282791425E+02 0.16884135753E+02 0.16513338003E+02 0.16120614013E+02
 0.15839706052E+02 0.15839727610E+02 0.16120630805E+02 0.18155682342E+02 0.18088605246E+02
 0.17903860723E+02 0.17806288365E+02 0.17903763332E+02 0.18088585725E+02 0.18155724218E+02
 0.17952023861E+02 0.17591728240E+02 0.17408034081E+02 0.17591912681E+02 0.17952120540E+02
 0.18155679055E+02 0.18088622563E+02 0.17903927476E+02 0.17806350336E+02 0.17903728998E+02
 0.18088448856E+02 0.18155590137E+02 0.17951991576E+02 0.17591782054E+02 0.17408084238E+02
 0.17591915970E+02 0.17952110613E+02 0.18750694905E+02 0.18088552616E+02 0.17283148194E+02
 0.16549063528E+02 0.16074686677E+02 0.15725980665E+02 0.15400500774E+02 0.15063493062E+02
 0.14824906479E+02 0.14823541777E+02 0.15060765864E+02 0.15398950841E+02 0.15726539245E+02
 0.16076005018E+02 0.16549531573E+02 0.17282791425E+02 0.18088448856E+02 0.18751147526E+02
 0.18947968017E+02 0.18628389115E+02 0.18202382459E+02 0.18202656681E+02 0.18628707828E+02
 0.18947708616E+02 0.18155504585E+02 0.16884216425E+02 0.15542606804E+02 0.14368721743E+02
 0.13520838496E+02 0.12912045321E+02 0.12409629814E+02 0.12064548809E+02 0.11935987447E+02
 0.12064466899E+02 0.12409556225E+02 0.12912044816E+02 0.13520854262E+02 0.14368644913E+02
 0.15542450318E+02 0.16884135753E+02 0.18155590137E+02 0.18947968017E+02 0.18951931494E+02
 0.18391846693E+02 0.18048534563E+02 0.18391897387E+02 0.18951900239E+02 0.18947830974E+02
 0.16513142377E+02 0.14783847568E+02 0.13126662279E+02 0.11768893464E+02 0.10786119561E+02
 0.10091827702E+02 0.96175015682E+01 0.93655919903E+01 0.93668030629E+01 0.96199392765E+01
 0.10093246044E+02 0.10785634847E+02 0.11767634305E+02 0.13126100236E+02 0.14784109478E+02
 0.16513338003E+02 0.17951991576E+02 0.18628389115E+02 0.18391846693E+02 0.17845149788E+02
 0.17845036368E+02 0.18391797413E+02 0.18628696230E+02 0.17952280140E+02 0.14196366999E+02
 0.12257637847E+02 0.10530841652E+02 0.92139049482E+01 0.82769449574E+01 0.76358315074E+01
 0.72472677630E+01 0.71146342970E+01 0.72471958301E+01 0.76358291791E+01 0.82769976885E+01
 0.92138806301E+01 0.10530805467E+02 0.12257771748E+02 0.14196592653E+02 0.16120614013E+02
 0.17591782054E+02 0.18202382459E+02 0.18048534563E+02 0.17845036368E+02 0.18048521806E+02
 0.18202488356E+02 0.17591928557E+02 0.16120564752E+02 0.11652139970E+02 0.97089028036E+01
 0.81413471968E+01 0.69973271024E+01 0.62017120810E+01 0.56858737696E+01 0.54260038709E+01
 0.54251977745E+01 0.56842178822E+01 0.62005987771E+01 0.69973235098E+01 0.81419774202E+01
 0.97095098549E+01 0.11652461103E+02 0.13783909471E+02 0.15839706052E+02 0.17408084238E+02
 0.18202656681E+02 0.18391897387E+02 0.18391797413E+02 0.18202488356E+02 0.17408031499E+02
 0.15839735592E+02 0.13783839013E+02 0.92286339576E+01 0.74726488533E+01 0.61585295059E+01
 0.52279474251E+01 0.46011366446E+01 0.42316659991E+01 0.41082798584E+01 0.42317054074E+01
 0.46012322077E+01 0.52280212716E+01 0.61584711267E+01 0.74725007585E+01 0.92285552648E+01
 0.11337575359E+02 0.13629921949E+02 0.15839727610E+02 0.17591915970E+02 0.18628707828E+02
 0.18951900239E+02 0.18628696230E+02 0.17591928557E+02 0.15839735592E+02 0.13629876242E+02
 0.11337539027E+02 0.71488485011E+01 0.56811850583E+01 0.46223764414E+01 0.38909153160E+01
 0.34242297317E+01 0.31940282708E+01 0.31942405600E+01 0.34248649358E+01 0.38917906117E+01
 0.46229876257E+01 0.56810818093E+01 0.71481626731E+01 0.90680148561E+01 0.11337398233E+02
 0.13784024549E+02 0.16120630805E+02 0.17952110613E+02 0.18947708616E+02 0.18947830974E+02
 0.17952280140E+02 0.16120564752E+02 0.13783839013E+02 0.11337539027E+02 0.90686517376E+01
 0.48624800804E+01 0.37810997937E+01 0.30433077016E+01 0.25806714270E+01 0.23560376192E+01
 0.23556524846E+01 0.25800973903E+01 0.30433871577E+01 0.37816529656E+01 0.48626464797E+01
 0.63794367259E+01 0.84084988948E+01 0.10928534738E+02 0.13719676676E+02 0.16513344285E+02
 0.18812450362E+02 0.20116809905E+02 0.20117449466E+02 0.18813617418E+02 0.16513743171E+02
 0.13719076520E+02 0.10927910705E+02 0.84085948419E+01 0.63798035732E+01 0.37810997937E+01
 0.29231501094E+01 0.23559108449E+01 0.20319396029E+01 0.19265191359E+01 0.20319653603E+01
 0.23556524846E+01 0.29226661148E+01 0.37810357054E+01 0.50039096549E+01 0.66764282487E+01
 0.88514083762E+01 0.11472688409E+02 0.14280054540E+02 0.16884249335E+02 0.18761765025E+02
 0.19449526589E+02 0.18761138369E+02 0.16884108187E+02 0.14280926030E+02 0.11473660454E+02
 0.88513489662E+01 0.66754646790E+01 0.50031436792E+01 0.30433077016E+01 0.23559108449E+01
 0.19264610375E+01 0.17201973271E+01 0.17202051550E+01 0.19265191359E+01 0.23560376192E+01
 0.30434258739E+01 0.40437699336E+01 0.54308736422E+01 0.72764396320E+01 0.95971129037E+01
 0.12276184465E+02 0.15001180061E+02 0.17283014703E+02 0.18577773898E+02 0.18577822120E+02
 0.17283168471E+02 0.15001406659E+02 0.12276375196E+02 0.95971983298E+01 0.72764646703E+01
 0.54308870990E+01 0.40437324300E+01 0.25806714270E+01 0.20319396029E+01 0.17201973271E+01
 0.16192923989E+01 0.17201973271E+01 0.20319396029E+01 0.25806714270E+01 0.34096037292E+01
 0.45806516040E+01 0.61672624486E+01 0.82213005279E+01 0.10706903859E+02 0.13422224014E+02
 0.15965034977E+02 0.17806715282E+02 0.18482738732E+02 0.17806715282E+02 0.15965034977E+02
 0.13422224014E+02 0.10706903859E+02 0.82213005279E+01 0.61672624486E+01 0.45806516040E+01
 0.34096037292E+01 0.23560376192E+01 0.19265191359E+01 0.17202051550E+01 0.17201973271E+01
 0.19264610375E+01 0.23559108449E+01 0.30433077016E+01 0.40437324300E+01 0.54308870990E+01
 0.72764646703E+01 0.95971983298E+01 0.12276375196E+02 0.15001406659E+02 0.17283168471E+02
 0.18577822120E+02 0.18577773898E+02 0.17283014703E+02 0.15001180061E+02 0.12276184465E+02
 0.95971129037E+01 0.72764396320E+01 0.54308736422E+01 0.40437699336E+01 0.30434258739E+01
 0.23556524846E+01 0.20319653603E+01 0.19265191359E+01 0.20319396029E+01 0.23559108449E+01
 0.29231501094E+01 0.37810997937E+01 0.50031436792E+01 0.66754646790E+01 0.88513489662E+01
 0.11473660454E+02 0.14280926030E+02 0.16884108187E+02 0.18761138369E+02 0.19449526589E+02
 0.18761765025E+02 0.16884249335E+02 0.14280054540E+02 0.11472688409E+02 0.88514083762E+01
 0.66764282487E+01 0.50039096549E+01 0.37810357054E+01 0.29226661148E+01 0.25800973903E+01
 0.23556524846E+01 0.23560376192E+01 0.25806714270E+01 0.30433077016E+01 0.37810997937E+01
 0.48624800804E+01 0.63798035732E+01 0.84085948419E+01 0.10927910705E+02 0.13719076520E+02
 0.16513743171E+02 0.18813617418E+02 0.20117449466E+02 0.20116809905E+02 0.18812450362E+02
 0.16513344285E+02 0.13719676676E+02 0.10928534738E+02 0.84084988948E+01 0.63794367259E+01
 0.48626464797E+01 0.37816529656E+01 0.30433871577E+01 0.30433871577E+01 0.29226661148E+01
 0.30434258739E+01 0.34096037292E+01 0.40437324300E+01 0.50031436792E+01 0.63798035732E+01
 0.82607970301E+01 0.10621250008E+02 0.13323869139E+02 0.16119865495E+02 0.18562310699E+02
 0.20195072517E+02 0.20758642187E+02 0.20192624122E+02 0.18560365290E+02 0.16120557184E+02
 0.13325955781E+02 0.10621990033E+02 0.82595105180E+01 0.63783777668E+01 0.50032326689E+01
 0.40448046692E+01 0.34102361789E+01 0.37816529656E+01 0.37810357054E+01 0.40437699336E+01
 0.45806516040E+01 0.54308870990E+01 0.66754646790E+01 0.84085948419E+01 0.10621250008E+02
 0.13178244252E+02 0.15840625123E+02 0.18138539225E+02 0.19619929469E+02 0.20232551088E+02
 0.20232409274E+02 0.19619246824E+02 0.18137255347E+02 0.15839650959E+02 0.13178588660E+02
 0.10622536240E+02 0.84093144401E+01 0.66748750511E+01 0.54299610522E+01 0.45807415509E+01
 0.40448046692E+01 0.48626464797E+01 0.50039096549E+01 0.54308736422E+01 0.61672624486E+01
 0.72764646703E+01 0.88513489662E+01 0.10927910705E+02 0.13323869139E+02 0.15840625123E+02
 0.17925762844E+02 0.18963927049E+02 0.18961835790E+02 0.18770445397E+02 0.18961892968E+02
 0.18963327622E+02 0.17924480705E+02 0.15839748454E+02 0.13324285536E+02 0.10929231204E+02
 0.88524741866E+01 0.72767178255E+01 0.61667002295E+01 0.54299610522E+01 0.50032326689E+01
 0.63794367259E+01 0.66764282487E+01 0.72764396320E+01 0.82213005279E+01 0.95971983298E+01
 0.11473660454E+02 0.13719076520E+02 0.16119865495E+02 0.18138539225E+02 0.18963927049E+02
 0.18277936422E+02 0.17146835413E+02 0.17146099549E+02 0.18276868832E+02 0.18964343896E+02
 0.18140264762E+02 0.16120744458E+02 0.13717944813E+02 0.11472157141E+02 0.95974946625E+01
 0.82228388999E+01 0.72767178255E+01 0.66748750511E+01 0.63783777668E+01 0.84084988948E+01
 0.88514083762E+01 0.95971129037E+01 0.10706903859E+02 0.12276375196E+02 0.14280926030E+02
 0.16513743171E+02 0.18562310699E+02 0.19619929469E+02 0.18961835790E+02 0.17146835413E+02
 0.16159101856E+02 0.17148302570E+02 0.18963744622E+02 0.19621345694E+02 0.18562924020E+02
 0.16513434851E+02 0.14279681957E+02 0.12274798038E+02 0.10706056931E+02 0.95974946625E+01
 0.88524741866E+01 0.84093144401E+01 0.82595105180E+01 0.10928534738E+02 0.11472688409E+02
 0.12276184465E+02 0.13422224014E+02 0.15001406659E+02 0.16884108187E+02 0.18813617418E+02
 0.20195072517E+02 0.20232551088E+02 0.18770445397E+02 0.17146099549E+02 0.17148302570E+02
 0.18774622582E+02 0.20234549347E+02 0.20194039105E+02 0.18812173609E+02 0.16884188353E+02
 0.15002006522E+02 0.13421652509E+02 0.12274798038E+02 0.11472157141E+02 0.10929231204E+02
 0.10622536240E+02 0.10621990033E+02 0.13719676676E+02 0.14280054540E+02 0.15001180061E+02
 0.15965034977E+02 0.17283168471E+02 0.18761138369E+02 0.20117449466E+02 0.20758642187E+02
 0.20232409274E+02 0.18961892968E+02 0.18276868832E+02 0.18963744622E+02 0.20234549347E+02
 0.20759493486E+02 0.20116791379E+02 0.18760039282E+02 0.17282852804E+02 0.15965770475E+02
 0.15002006522E+02 0.14279681957E+02 0.13717944813E+02 0.13324285536E+02 0.13178588660E+02
 0.13325955781E+02 0.16513344285E+02 0.16884249335E+02 0.17283014703E+02 0.17806715282E+02
 0.18577822120E+02 0.19449526589E+02 0.20116809905E+02 0.20192624122E+02 0.19619246824E+02
 0.18963327622E+02 0.18964343896E+02 0.19621345694E+02 0.20194039105E+02 0.20116791379E+02
 0.19448712366E+02 0.18577109629E+02 0.17806365972E+02 0.17282852804E+02 0.16884188353E+02
 0.16513434851E+02 0.16120744458E+02 0.15839748454E+02 0.15839650959E+02 0.16120557184E+02
 0.18812450362E+02 0.18761765025E+02 0.18577773898E+02 0.18482738732E+02 0.18577773898E+02
 0.18761765025E+02 0.18812450362E+02 0.18560365290E+02 0.18137255347E+02 0.17924480705E+02
 0.18140264762E+02 0.18562924020E+02 0.18812173609E+02 0.18760039282E+02 0.18577109629E+02
 0.18483052206E+02 0.18577109629E+02 0.18760039282E+02 0.18812173609E+02 0.18562924020E+02
 0.18140264762E+02 0.17924480705E+02 0.18137255347E+02 0.18560365290E+02 0.20116809905E+02
 0.19449526589E+02 0.18577822120E+02 0.17806715282E+02 0.17283014703E+02 0.16884249335E+02
 0.16513344285E+02 0.16120557184E+02 0.15839650959E+02 0.15839748454E+02 0.16120744458E+02
 0.16513434851E+02 0.16884188353E+02 0.17282852804E+02 0.17806365972E+02 0.18577109629E+02
 0.19448712366E+02 0.20116791379E+02 0.20194039105E+02 0.19621345694E+02 0.18964343896E+02
 0.18963327622E+02 0.19619246824E+02 0.20192624122E+02 0.20117449466E+02 0.18761138369E+02
 0.17283168471E+02 0.15965034977E+02 0.15001180061E+02 0.14280054540E+02 0.13719676676E+02
 0.13325955781E+02 0.13178588660E+02 0.13324285536E+02 0.13717944813E+02 0.14279681957E+02
 0.15002006522E+02 0.15965770475E+02 0.17282852804E+02 0.18760039282E+02 0.20116791379E+02
 0.20759493486E+02 0.20234549347E+02 0.18963744622E+02 0.18276868832E+02 0.18961892968E+02
 0.20232409274E+02 0.20758642187E+02 0.18813617418E+02 0.16884108187E+02 0.15001406659E+02
 0.13422224014E+02 0.12276184465E+02 0.11472688409E+02 0.10928534738E+02 0.10621990033E+02
 0.10622536240E+02 0.10929231204E+02 0.11472157141E+02 0.12274798038E+02 0.13421652509E+02
 0.15002006522E+02 0.16884188353E+02 0.18812173609E+02 0.20194039105E+02 0.20234549347E+02
 0.18774622582E+02 0.17148302570E+02 0.17146099549E+02 0.18770445397E+02 0.20232551088E+02
 0.20195072517E+02 0.16513743171E+02 0.14280926030E+02 0.12276375196E+02 0.10706903859E+02
 0.95971129037E+01 0.88514083762E+01 0.84084988948E+01 0.82595105180E+01 0.84093144401E+01
 0.88524741866E+01 0.95974946625E+01 0.10706056931E+02 0.12274798038E+02 0.14279681957E+02
 0.16513434851E+02 0.18562924020E+02 0.19621345694E+02 0.18963744622E+02 0.17148302570E+02
 0.16159101856E+02 0.17146835413E+02 0.18961835790E+02 0.19619929469E+02 0.18562310699E+02
 0.13719076520E+02 0.11473660454E+02 0.95971983298E+01 0.82213005279E+01 0.72764396320E+01
 0.66764282487E+01 0.63794367259E+01 0.63783777668E+01 0.66748750511E+01 0.72767178255E+01
 0.82228388999E+01 0.95974946625E+01 0.11472157141E+02 0.13717944813E+02 0.16120744458E+02
 0.18140264762E+02 0.18964343896E+02 0.18276868832E+02 0.17146099549E+02 0.17146835413E+02
 0.18277936422E+02 0.18963927049E+02 0.18138539225E+02 0.16119865495E+02 0.10927910705E+02
 0.88513489662E+01 0.72764646703E+01 0.61672624486E+01 0.54308736422E+01 0.50039096549E+01
 0.48626464797E+01 0.50032326689E+01 0.54299610522E+01 0.61667002295E+01 0.72767178255E+01
 0.88524741866E+01 0.10929231204E+02 0.13324285536E+02 0.15839748454E+02 0.17924480705E+02
 0.18963327622E+02 0.18961892968E+02 0.18770445397E+02 0.18961835790E+02 0.18963927049E+02
 0.17925762844E+02 0.15840625123E+02 0.13323869139E+02 0.84085948419E+01 0.66754646790E+01
 0.54308870990E+01 0.45806516040E+01 0.40437699336E+01 0.37810357054E+01 0.37816529656E+01
 0.40448046692E+01 0.45807415509E+01 0.54299610522E+01 0.66748750511E+01 0.84093144401E+01
 0.10622536240E+02 0.13178588660E+02 0.15839650959E+02 0.18137255347E+02 0.19619246824E+02
 0.20232409274E+02 0.20232551088E+02 0.19619929469E+02 0.18138539225E+02 0.15840625123E+02
 0.13178244252E+02 0.10621250008E+02 0.63798035732E+01 0.50031436792E+01 0.40437324300E+01
 0.34096037292E+01 0.30434258739E+01 0.29226661148E+01 0.30433871577E+01 0.34102361789E+01
 0.40448046692E+01 0.50032326689E+01 0.63783777668E+01 0.82595105180E+01 0.10621990033E+02
 0.13325955781E+02 0.16120557184E+02 0.18560365290E+02 0.20192624122E+02 0.20758642187E+02
 0.20195072517E+02 0.18562310699E+02 0.16119865495E+02 0.13323869139E+02 0.10621250008E+02
 0.82607970301E+01 0.41084071445E+01 0.31943363649E+01 0.25946999051E+01 0.22529102819E+01
 0.21415488101E+01 0.22529307733E+01 0.25946853615E+01 0.31942405600E+01 0.41082798584E+01
 0.54260038709E+01 0.72472677630E+01 0.96175015682E+01 0.12409629814E+02 0.15400500774E+02
 0.18155724218E+02 0.20116841566E+02 0.20827910967E+02 0.20116680961E+02 0.18155565040E+02
 0.15400420438E+02 0.12409541413E+02 0.96173521361E+01 0.72471576659E+01 0.54260365181E+01
 0.31943363649E+01 0.24877866534E+01 0.20471657394E+01 0.18352506820E+01 0.18354317099E+01
 0.20472579066E+01 0.24873323338E+01 0.31940282708E+01 0.42316659991E+01 0.56858737696E+01
 0.76358315074E+01 0.10091827702E+02 0.12912045321E+02 0.15725980665E+02 0.18088585725E+02
 0.19449514654E+02 0.19448619806E+02 0.18087298482E+02 0.15726504607E+02 0.12914255203E+02
 0.10093374690E+02 0.76352034410E+01 0.56841273577E+01 0.42307437319E+01 0.25946999051E+01
 0.20471657394E+01 0.17360879080E+01 0.16352473086E+01 0.17360620690E+01 0.20472095308E+01
 0.25948221828E+01 0.34242297317E+01 0.46011366446E+01 0.62017120810E+01 0.82769449574E+01
 0.10786119561E+02 0.13520838496E+02 0.16074686677E+02 0.17903763332E+02 0.18577786618E+02
 0.17903971144E+02 0.16074959330E+02 0.13521013351E+02 0.10786162008E+02 0.82769532122E+01
 0.62017548342E+01 0.46011514198E+01 0.34241442276E+01 0.22529102819E+01 0.18352506820E+01
 0.16352473086E+01 0.16353020229E+01 0.18353915763E+01 0.22529609899E+01 0.29213849632E+01
 0.38909153160E+01 0.52279474251E+01 0.69973271024E+01 0.92139049482E+01 0.11768893464E+02
 0.14368721743E+02 0.16549063528E+02 0.17806288365E+02 0.17806745745E+02 0.16549776723E+02
 0.14368566158E+02 0.11767721106E+02 0.92127382162E+01 0.69971544357E+01 0.52287028066E+01
 0.38917747804E+01 0.29217576246E+01 0.21415488101E+01 0.18354317099E+01 0.17360620690E+01
 0.18353915763E+01 0.21414543039E+01 0.26780401742E+01 0.34854543509E+01 0.46223764414E+01
 0.61585295059E+01 0.81413471968E+01 0.10530841652E+02 0.13126662279E+02 0.15542606804E+02
 0.17283148194E+02 0.17903860723E+02 0.17283081418E+02 0.15542435142E+02 0.13126447774E+02
 0.10530717631E+02 0.81413337131E+01 0.61585259320E+01 0.46223477347E+01 0.34854743650E+01
 0.26781350716E+01 0.22529307733E+01 0.20472579066E+01 0.20472095308E+01 0.22529609899E+01
 0.26780401742E+01 0.33529927512E+01 0.43301509778E+01 0.56811850583E+01 0.74726488533E+01
 0.97089028036E+01 0.12257637847E+02 0.14783847568E+02 0.16884216425E+02 0.18088552616E+02
 0.18088605246E+02 0.16884267000E+02 0.14783838695E+02 0.12257817911E+02 0.97094675204E+01
 0.74732804179E+01 0.56813084375E+01 0.43296270402E+01 0.33522795811E+01 0.26776419989E+01
 0.25946853615E+01 0.24873323338E+01 0.25948221828E+01 0.29213849632E+01 0.34854543509E+01
 0.43301509778E+01 0.55256818010E+01 0.71488485011E+01 0.92286339576E+01 0.11652139970E+02
 0.14196366999E+02 0.16513142377E+02 0.18155504585E+02 0.18750694905E+02 0.18155682342E+02
 0.16513350046E+02 0.14196488197E+02 0.11652175370E+02 0.92286247640E+01 0.71488268738E+01
 0.55256889226E+01 0.43301927850E+01 0.34854492158E+01 0.29212681463E+01 0.31942405600E+01
 0.31940282708E+01 0.34242297317E+01 0.38909153160E+01 0.46223764414E+01 0.56811850583E+01
 0.71488485011E+01 0.90686517376E+01 0.11337539027E+02 0.13783839013E+02 0.16120564752E+02
 0.17952280140E+02 0.18947830974E+02 0.18947708616E+02 0.17952110613E+02 0.16120630805E+02
 0.13784024549E+02 0.11337398233E+02 0.90680148561E+01 0.71481626731E+01 0.56810818093E+01
 0.46229876257E+01 0.38917906117E+01 0.34248649358E+01 0.41082798584E+01 0.42316659991E+01
 0.46011366446E+01 0.52279474251E+01 0.61585295059E+01 0.74726488533E+01 0.92286339576E+01
 0.11337539027E+02 0.13629876242E+02 0.15839735592E+02 0.17591928557E+02 0.18628696230E+02
 0.18951900239E+02 0.18628707828E+02 0.17591915970E+02 0.15839727610E+02 0.13629921949E+02
 0.11337575359E+02 0.92285552648E+01 0.74725007585E+01 0.61584711267E+01 0.52280212716E+01
 0.46012322077E+01 0.42317054074E+01 0.54260038709E+01 0.56858737696E+01 0.62017120810E+01
 0.69973271024E+01 0.81413471968E+01 0.97089028036E+01 0.11652139970E+02 0.13783839013E+02
 0.15839735592E+02 0.17408031499E+02 0.18202488356E+02 0.18391797413E+02 0.18391897387E+02
 0.18202656681E+02 0.17408084238E+02 0.15839706052E+02 0.13783909471E+02 0.11652461103E+02
 0.97095098549E+01 0.81419774202E+01 0.69973235098E+01 0.62005987771E+01 0.56842178822E+01
 0.54251977745E+01 0.72472677630E+01 0.76358315074E+01 0.82769449574E+01 0.92139049482E+01
 0.10530841652E+02 0.12257637847E+02 0.14196366999E+02 0.16120564752E+02 0.17591928557E+02
 0.18202488356E+02 0.18048521806E+02 0.17845036368E+02 0.18048534563E+02 0.18202382459E+02
 0.17591782054E+02 0.16120614013E+02 0.14196592653E+02 0.12257771748E+02 0.10530805467E+02
 0.92138806301E+01 0.82769976885E+01 0.76358291791E+01 0.72471958301E+01 0.71146342970E+01
 0.96175015682E+01 0.10091827702E+02 0.10786119561E+02 0.11768893464E+02 0.13126662279E+02
 0.14783847568E+02 0.16513142377E+02 0.17952280140E+02 0.18628696230E+02 0.18391797413E+02
 0.17845036368E+02 0.17845149788E+02 0.18391846693E+02 0.18628389115E+02 0.17951991576E+02
 0.16513338003E+02 0.14784109478E+02 0.13126100236E+02 0.11767634305E+02 0.10785634847E+02
 0.10093246044E+02 0.96199392765E+01 0.93668030629E+01 0.93655919903E+01 0.12409629814E+02
 0.12912045321E+02 0.13520838496E+02 0.14368721743E+02 0.15542606804E+02 0.16884216425E+02
 0.18155504585E+02 0.18947830974E+02 0.18951900239E+02 0.18391897387E+02 0.18048534563E+02
 0.18391846693E+02 0.18951931494E+02 0.18947968017E+02 0.18155590137E+02 0.16884135753E+02
 0.15542450318E+02 0.14368644913E+02 0.13520854262E+02 0.12912044816E+02 0.12409556225E+02
 0.12064466899E+02 0.11935987447E+02 0.12064548809E+02 0.15400500774E+02 0.15725980665E+02
 0.16074686677E+02 0.16549063528E+02 0.17283148194E+02 0.18088552616E+02 0.18750694905E+02
 0.18947708616E+02 0.18628707828E+02 0.18202656681E+02 0.18202382459E+02 0.18628389115E+02
 0.18947968017E+02 0.18751147526E+02 0.18088448856E+02 0.17282791425E+02 0.16549531573E+02
 0.16076005018E+02 0.15726539245E+02 0.15398950841E+02 0.15060765864E+02 0.14823541777E+02
 0.14824906479E+02 0.15063493062E+02 0.18155724218E+02 0.18088585725E+02 0.17903763332E+02
 0.17806288365E+02 0.17903860723E+02 0.18088605246E+02 0.18155682342E+02 0.17952110613E+02
 0.17591915970E+02 0.17408084238E+02 0.17591782054E+02 0.17951991576E+02 0.18155590137E+02
 0.18088448856E+02 0.17903728998E+02 0.17806350336E+02 0.17903927476E+02 0.18088622563E+02
 0.18155679055E+02 0.17952120540E+02 0.17591912681E+02 0.17408034081E+02 0.17591728240E+02
 0.17952023861E+02 0.20116841566E+02 0.19449514654E+02 0.18577786618E+02 0.17806745745E+02
 0.17283081418E+02 0.16884267000E+02 0.16513350046E+02 0.16120630805E+02 0.15839727610E+02
 0.15839706052E+02 0.16120614013E+02 0.16513338003E+02 0.16884135753E+02 0.17282791425E+02
 0.17806350336E+02 0.18577226162E+02 0.19448894769E+02 0.20116900700E+02 0.20194067266E+02
 0.19621363062E+02 0.18964323074E+02 0.18963210044E+02 0.19619110475E+02 0.20192589293E+02
 0.20827910967E+02 0.19448619806E+02 0.17903971144E+02 0.16549776723E+02 0.15542435142E+02
 0.14783838695E+02 0.14196488197E+02 0.13784024549E+02 0.13629921949E+02 0.13783909471E+02
 0.14196592653E+02 0.14784109478E+02 0.15542450318E+02 0.16549531573E+02 0.17903927476E+02
 0.19448894769E+02 0.20828097248E+02 0.21383932629E+02 0.20599563052E+02 0.18994784314E+02
 0.18146227650E+02 0.18994819578E+02 0.20599727791E+02 0.21384046757E+02 0.20116680961E+02
 0.18087298482E+02 0.16074959330E+02 0.14368566158E+02 0.13126447774E+02 0.12257817911E+02
 0.11652175370E+02 0.11337398233E+02 0.11337575359E+02 0.11652461103E+02 0.12257771748E+02
 0.13126100236E+02 0.14368644913E+02 0.16076005018E+02 0.18088622563E+02 0.20116900700E+02
 0.21383932629E+02 0.20831875411E+02 0.18315283449E+02 0.15892205486E+02 0.15892429622E+02
 0.18316216042E+02 0.20833503799E+02 0.21385182737E+02 0.18155565040E+02 0.15726504607E+02
 0.13521013351E+02 0.11767721106E+02 0.10530717631E+02 0.97094675204E+01 0.92286247640E+01
 0.90680148561E+01 0.92285552648E+01 0.97095098549E+01 0.10530805467E+02 0.11767634305E+02
 0.13520854262E+02 0.15726539245E+02 0.18155679055E+02 0.20194067266E+02 0.20599563052E+02
 0.18315283449E+02 0.14946892333E+02 0.14236300395E+02 0.14946547661E+02 0.18315113248E+02
 0.20599719549E+02 0.20194167267E+02 0.15400420438E+02 0.12914255203E+02 0.10786162008E+02
 0.92127382162E+01 0.81413337131E+01 0.74732804179E+01 0.71488268738E+01 0.71481626731E+01
 0.74725007585E+01 0.81419774202E+01 0.92138806301E+01 0.10785634847E+02 0.12912044816E+02
 0.15398950841E+02 0.17952120540E+02 0.19621363062E+02 0.18994784314E+02 0.15892205486E+02
 0.14236300395E+02 0.14236596968E+02 0.15892286107E+02 0.18993466214E+02 0.19619173093E+02
 0.17951202337E+02 0.12409541413E+02 0.10093374690E+02 0.82769532122E+01 0.69971544357E+01
 0.61585259320E+01 0.56813084375E+01 0.55256889226E+01 0.56810818093E+01 0.61584711267E+01
 0.69973235098E+01 0.82769976885E+01 0.10093246044E+02 0.12409556225E+02 0.15060765864E+02
 0.17591912681E+02 0.18964323074E+02 0.18146227650E+02 0.15892429622E+02 0.14946547661E+02
 0.15892286107E+02 0.18146241129E+02 0.18964475004E+02 0.17591888185E+02 0.15060585672E+02
 0.96173521361E+01 0.76352034410E+01 0.62017548342E+01 0.52287028066E+01 0.46223477347E+01
 0.43296270402E+01 0.43301927850E+01 0.46229876257E+01 0.52280212716E+01 0.62005987771E+01
 0.76358291791E+01 0.96199392765E+01 0.12064466899E+02 0.14823541777E+02 0.17408034081E+02
 0.18963210044E+02 0.18994819578E+02 0.18316216042E+02 0.18315113248E+02 0.18993466214E+02
 0.18964475004E+02 0.17411217104E+02 0.14825089648E+02 0.12062786251E+02 0.72471576659E+01
 0.56841273577E+01 0.46011514198E+01 0.38917747804E+01 0.34854743650E+01 0.33522795811E+01
 0.34854492158E+01 0.38917906117E+01 0.46012322077E+01 0.56842178822E+01 0.72471958301E+01
 0.93668030629E+01 0.11935987447E+02 0.14824906479E+02 0.17591728240E+02 0.19619110475E+02
 0.20599727791E+02 0.20833503799E+02 0.20599719549E+02 0.19619173093E+02 0.17591888185E+02
 0.14825089648E+02 0.11936111137E+02 0.93668423968E+01 0.54260365181E+01 0.42307437319E+01
 0.34241442276E+01 0.29217576246E+01 0.26781350716E+01 0.26776419989E+01 0.29212681463E+01
 0.34248649358E+01 0.42317054074E+01 0.54251977745E+01 0.71146342970E+01 0.93655919903E+01
 0.12064548809E+02 0.15063493062E+02 0.17952023861E+02 0.20192589293E+02 0.21384046757E+02
 0.21385182737E+02 0.20194167267E+02 0.17951202337E+02 0.15060585672E+02 0.12062786251E+02
 0.93668423968E+01 0.71170866952E+01 0.33627315603E+01 0.26356180181E+01 0.21836442077E+01
 0.19661503623E+01 0.19664895791E+01 0.21841285205E+01 0.26354580845E+01 0.33620808487E+01
 0.44378324033E+01 0.59610468349E+01 0.80140917800E+01 0.10583400549E+02 0.13454305169E+02
 0.16351029788E+02 0.18750815297E+02 0.20117554888E+02 0.20116759315E+02 0.18749303667E+02
 0.16350301604E+02 0.13454656303E+02 0.10583837881E+02 0.80139112834E+01 0.59607341535E+01
 0.44381199705E+01 0.26356180181E+01 0.20895571048E+01 0.17789785638E+01 0.16781293747E+01
 0.17789574667E+01 0.20892089838E+01 0.26352726328E+01 0.34667444887E+01 0.46567256326E+01
 0.62874717416E+01 0.84083937905E+01 0.10964832860E+02 0.13708168963E+02 0.16252784474E+02
 0.18088512729E+02 0.18761105185E+02 0.18087284992E+02 0.16252397017E+02 0.13709856863E+02
 0.10967204305E+02 0.84091343167E+01 0.62861359322E+01 0.46549782613E+01 0.34661147800E+01
 0.21836442077E+01 0.17789785638E+01 0.15851355059E+01 0.15851330564E+01 0.17789848023E+01
 0.21836716882E+01 0.28330650115E+01 0.37787115571E+01 0.50864974742E+01 0.68169571585E+01
 0.89786224265E+01 0.11459883687E+02 0.13973910677E+02 0.16074734129E+02 0.17283025751E+02
 0.17283112353E+02 0.16074951663E+02 0.13974150714E+02 0.11460036286E+02 0.89786567216E+01
 0.68169283952E+01 0.50864659254E+01 0.37786848122E+01 0.28330314593E+01 0.19661503623E+01
 0.16781293747E+01 0.15851330564E+01 0.16784116257E+01 0.19665003073E+01 0.24732038237E+01
 0.32356009295E+01 0.43045681179E+01 0.57385604328E+01 0.75750286468E+01 0.97741878670E+01
 0.12154689962E+02 0.14368191511E+02 0.15964096447E+02 0.16549109832E+02 0.15965121218E+02
 0.14368639886E+02 0.12153460690E+02 0.97721377520E+01 0.75739828003E+01 0.57392653767E+01
 0.43061029809E+01 0.32366402259E+01 0.24733218518E+01 0.19664895791E+01 0.17789574667E+01
 0.17789848023E+01 0.19665003073E+01 0.23560830528E+01 0.29751394586E+01 0.38640590479E+01
 0.50759159710E+01 0.66617326489E+01 0.86274515085E+01 0.10869478263E+02 0.13126683003E+02
 0.15001471228E+02 0.16074889868E+02 0.16074815920E+02 0.15001290440E+02 0.13126511067E+02
 0.10869422752E+02 0.86274822713E+01 0.66617188017E+01 0.50758301787E+01 0.38640227565E+01
 0.29752126491E+01 0.23561583755E+01 0.21841285205E+01 0.20892089838E+01 0.21836716882E+01
 0.24732038237E+01 0.29751394586E+01 0.37215960396E+01 0.47612387898E+01 0.61503319322E+01
 0.79201073928E+01 0.10019012347E+02 0.12257141117E+02 0.14280149822E+02 0.15726270447E+02
 0.16252773219E+02 0.15725946175E+02 0.14280032612E+02 0.12257799024E+02 0.10020380910E+02
 0.79213168095E+01 0.61504186487E+01 0.47601158145E+01 0.37201803135E+01 0.29744468473E+01
 0.24734158216E+01 0.26354580845E+01 0.26352726328E+01 0.28330650115E+01 0.32356009295E+01
 0.38640590479E+01 0.47612387898E+01 0.59856388848E+01 0.75817493878E+01 0.95257351307E+01
 0.11652401350E+02 0.13719084094E+02 0.15399281428E+02 0.16350268311E+02 0.16350850035E+02
 0.15400396080E+02 0.13719639615E+02 0.11652156164E+02 0.95253929996E+01 0.75818547044E+01
 0.59858949717E+01 0.47611113984E+01 0.38636376272E+01 0.32354331736E+01 0.28333003189E+01
 0.33620808487E+01 0.34667444887E+01 0.37787115571E+01 0.43045681179E+01 0.50759159710E+01
 0.61503319322E+01 0.75817493878E+01 0.93617881778E+01 0.11338279186E+02 0.13325505117E+02
 0.15062339397E+02 0.16250231368E+02 0.16671773892E+02 0.16251138918E+02 0.15063561289E+02
 0.13326035120E+02 0.11337427905E+02 0.93600334942E+01 0.75805491364E+01 0.61507254721E+01
 0.50774155650E+01 0.43057304749E+01 0.37787565413E+01 0.34662724796E+01 0.44378324033E+01
 0.46567256326E+01 0.50864974742E+01 0.57385604328E+01 0.66617326489E+01 0.79201073928E+01
 0.95257351307E+01 0.11338279186E+02 0.13178193933E+02 0.14823713834E+02 0.16028927492E+02
 0.16647315685E+02 0.16647852009E+02 0.16030247683E+02 0.14825031334E+02 0.13178624456E+02
 0.11337552130E+02 0.95245499336E+01 0.79195239065E+01 0.66620927392E+01 0.57391803255E+01
 0.50865422761E+01 0.46562088335E+01 0.44375083701E+01 0.59610468349E+01 0.62874717416E+01
 0.68169571585E+01 0.75750286468E+01 0.86274515085E+01 0.10019012347E+02 0.11652401350E+02
 0.13325505117E+02 0.14823713834E+02 0.15911470792E+02 0.16493382795E+02 0.16660529028E+02
 0.16495945422E+02 0.15913634855E+02 0.14823445249E+02 0.13324111940E+02 0.11652338544E+02
 0.10020414966E+02 0.86282113690E+01 0.75739329795E+01 0.68152289120E+01 0.62867851829E+01
 0.59612839977E+01 0.58489515632E+01 0.80140917800E+01 0.84083937905E+01 0.89786224265E+01
 0.97741878670E+01 0.10869478263E+02 0.12257141117E+02 0.13719084094E+02 0.15062339397E+02
 0.16028927492E+02 0.16493382795E+02 0.16599715894E+02 0.16600745040E+02 0.16495043301E+02
 0.16028892464E+02 0.15060538257E+02 0.13717726839E+02 0.12257686765E+02 0.10870835552E+02
 0.97745198327E+01 0.89779392268E+01 0.84081980710E+01 0.80148842445E+01 0.78040858601E+01
 0.78035237040E+01 0.10583400549E+02 0.10964832860E+02 0.11459883687E+02 0.12154689962E+02
 0.13126683003E+02 0.14280149822E+02 0.15399281428E+02 0.16250231368E+02 0.16647315685E+02
 0.16660529028E+02 0.16600745040E+02 0.16659310663E+02 0.16645921829E+02 0.16249436509E+02
 0.15398875130E+02 0.14279642131E+02 0.13126155573E+02 0.12154663664E+02 0.11460693147E+02
 0.10966349602E+02 0.10585100025E+02 0.10291970517E+02 0.10186849374E+02 0.10290829915E+02
 0.13454305169E+02 0.13708168963E+02 0.13973910677E+02 0.14368191511E+02 0.15001471228E+02
 0.15726270447E+02 0.16350268311E+02 0.16671773892E+02 0.16647852009E+02 0.16495945422E+02
 0.16495043301E+02 0.16645921829E+02 0.16670240498E+02 0.16349788180E+02 0.15726567800E+02
 0.15002068756E+02 0.14368753243E+02 0.13974209040E+02 0.13708252276E+02 0.13454502062E+02
 0.13196460209E+02 0.13018757629E+02 0.13018528703E+02 0.13196055693E+02 0.16351029788E+02
 0.16252784474E+02 0.16074734129E+02 0.15964096447E+02 0.16074889868E+02 0.16252773219E+02
 0.16350850035E+02 0.16251138918E+02 0.16030247683E+02 0.15913634855E+02 0.16028892464E+02
 0.16249436509E+02 0.16349788180E+02 0.16252749268E+02 0.16075920152E+02 0.15965791899E+02
 0.16076078720E+02 0.16252748450E+02 0.16349632790E+02 0.16249451377E+02 0.16029077723E+02
 0.15913665663E+02 0.16030118427E+02 0.16251165652E+02 0.18750815297E+02 0.18088512729E+02
 0.17283025751E+02 0.16549109832E+02 0.16074815920E+02 0.15725946175E+02 0.15400396080E+02
 0.15063561289E+02 0.14825031334E+02 0.14823445249E+02 0.15060538257E+02 0.15398875130E+02
 0.15726567800E+02 0.16075920152E+02 0.16549440615E+02 0.17282941028E+02 0.18088718965E+02
 0.18751241828E+02 0.18947936868E+02 0.18628463512E+02 0.18202475772E+02 0.18202544199E+02
 0.18628518212E+02 0.18947719748E+02 0.20117554888E+02 0.18761105185E+02 0.17283112353E+02
 0.15965121218E+02 0.15001290440E+02 0.14280032612E+02 0.13719639615E+02 0.13326035120E+02
 0.13178624456E+02 0.13324111940E+02 0.13717726839E+02 0.14279642131E+02 0.15002068756E+02
 0.15965791899E+02 0.17282941028E+02 0.18760305059E+02 0.20117043272E+02 0.20759515729E+02
 0.20234444734E+02 0.18963689929E+02 0.18276787836E+02 0.18961688564E+02 0.20232252089E+02
 0.20758694794E+02 0.20116759315E+02 0.18087284992E+02 0.16074951663E+02 0.14368639886E+02
 0.13126511067E+02 0.12257799024E+02 0.11652156164E+02 0.11337427905E+02 0.11337552130E+02
 0.11652338544E+02 0.12257686765E+02 0.13126155573E+02 0.14368753243E+02 0.16076078720E+02
 0.18088718965E+02 0.20117043272E+02 0.21383990611E+02 0.20831769944E+02 0.18315128835E+02
 0.15892110716E+02 0.15892346366E+02 0.18316109438E+02 0.20833472393E+02 0.21385269504E+02
 0.18749303667E+02 0.16252397017E+02 0.13974150714E+02 0.12153460690E+02 0.10869422752E+02
 0.10020380910E+02 0.95253929996E+01 0.93600334942E+01 0.95245499336E+01 0.10020414966E+02
 0.10870835552E+02 0.12154663664E+02 0.13974209040E+02 0.16252748450E+02 0.18751241828E+02
 0.20759515729E+02 0.20831769944E+02 0.17779209994E+02 0.14693001544E+02 0.16503800892E+02
 0.14698469058E+02 0.17785230580E+02 0.20833838909E+02 0.20757863113E+02 0.16350301604E+02
 0.13709856863E+02 0.11460036286E+02 0.97721377520E+01 0.86274822713E+01 0.79213168095E+01
 0.75818547044E+01 0.75805491364E+01 0.79195239065E+01 0.86282113690E+01 0.97745198327E+01
 0.11460693147E+02 0.13708252276E+02 0.16349632790E+02 0.18947936868E+02 0.20234444734E+02
 0.18315128835E+02 0.14693001544E+02 0.30731340038E+02 0.30734057638E+02 0.14698067748E+02
 0.18317213429E+02 0.20232528540E+02 0.18945857697E+02 0.13454656303E+02 0.10967204305E+02
 0.89786567216E+01 0.75739828003E+01 0.66617188017E+01 0.61504186487E+01 0.59858949717E+01
 0.61507254721E+01 0.66620927392E+01 0.75739329795E+01 0.89779392268E+01 0.10966349602E+02
 0.13454502062E+02 0.16249451377E+02 0.18628463512E+02 0.18963689929E+02 0.15892110716E+02
 0.16503800892E+02 0.30734057638E+02 0.16503880086E+02 0.15892126854E+02 0.18963330966E+02
 0.18627663024E+02 0.16248784037E+02 0.10583837881E+02 0.84091343167E+01 0.68169283952E+01
 0.57392653767E+01 0.50758301787E+01 0.47601158145E+01 0.47611113984E+01 0.50774155650E+01
 0.57391803255E+01 0.68152289120E+01 0.84081980710E+01 0.10585100025E+02 0.13196460209E+02
 0.16029077723E+02 0.18202475772E+02 0.18276787836E+02 0.15892346366E+02 0.14698469058E+02
 0.14698067748E+02 0.15892126854E+02 0.18277921635E+02 0.18203953517E+02 0.16028838869E+02
 0.13194521852E+02 0.80139112834E+01 0.62861359322E+01 0.50864659254E+01 0.43061029809E+01
 0.38640227565E+01 0.37201803135E+01 0.38636376272E+01 0.43057304749E+01 0.50865422761E+01
 0.62867851829E+01 0.80148842445E+01 0.10291970517E+02 0.13018757629E+02 0.15913665663E+02
 0.18202544199E+02 0.18961688564E+02 0.18316109438E+02 0.17785230580E+02 0.18317213429E+02
 0.18963330966E+02 0.18203953517E+02 0.15914299984E+02 0.13018517205E+02 0.10291131915E+02
 0.59607341535E+01 0.46549782613E+01 0.37786848122E+01 0.32366402259E+01 0.29752126491E+01
 0.29744468473E+01 0.32354331736E+01 0.37787565413E+01 0.46562088335E+01 0.59612839977E+01
 0.78040858601E+01 0.10186849374E+02 0.13018528703E+02 0.16030118427E+02 0.18628518212E+02
 0.20232252089E+02 0.20833472393E+02 0.20833838909E+02 0.20232528540E+02 0.18627663024E+02
 0.16028838869E+02 0.13018517205E+02 0.10188280826E+02 0.78051821247E+01 0.44381199705E+01
 0.34661147800E+01 0.28330314593E+01 0.24733218518E+01 0.23561583755E+01 0.24734158216E+01
 0.28333003189E+01 0.34662724796E+01 0.44375083701E+01 0.58489515632E+01 0.78035237040E+01
 0.10290829915E+02 0.13196055693E+02 0.16251165652E+02 0.18947719748E+02 0.20758694794E+02
 0.21385269504E+02 0.20757863113E+02 0.18945857697E+02 0.16248784037E+02 0.13194521852E+02
 0.10291131915E+02 0.78051821247E+01 0.58505435232E+01 0.26933217587E+01 0.21473959145E+01
 0.18366814905E+01 0.17354623850E+01 0.18366435424E+01 0.21473803117E+01 0.26933442298E+01
 0.35270343597E+01 0.47291268651E+01 0.63884027315E+01 0.85473702814E+01 0.11103901807E+02
 0.13831413995E+02 0.16350449051E+02 0.18155633202E+02 0.18813732547E+02 0.18155666567E+02
 0.16350344234E+02 0.13831128896E+02 0.11103643852E+02 0.85473429484E+01 0.63885584428E+01
 0.47292643177E+01 0.35270570271E+01 0.21473959145E+01 0.17539884548E+01 0.15651214494E+01
 0.15650129163E+01 0.17536228504E+01 0.21469527712E+01 0.27793706429E+01 0.37053388889E+01
 0.49940677016E+01 0.67059965372E+01 0.88427489917E+01 0.11280740375E+02 0.13708552191E+02
 0.15726208538E+02 0.16884102540E+02 0.16883997173E+02 0.15726424175E+02 0.13709806771E+02
 0.11282586541E+02 0.88437563534E+01 0.67053437957E+01 0.49924735657E+01 0.37041856282E+01
 0.27792500776E+01 0.18366814905E+01 0.15651214494E+01 0.14773227782E+01 0.15651279687E+01
 0.18366935783E+01 0.23154529348E+01 0.30387002015E+01 0.40560506744E+01 0.54204632890E+01
 0.71607149872E+01 0.92318592718E+01 0.11459852487E+02 0.13520884616E+02 0.15001291314E+02
 0.15542455348E+02 0.15001319093E+02 0.13520990179E+02 0.11460040619E+02 0.92320446234E+01
 0.71607992486E+01 0.54204321182E+01 0.40559705743E+01 0.30386378384E+01 0.23154239808E+01
 0.17354623850E+01 0.15650129163E+01 0.15651279687E+01 0.17358701956E+01 0.20926753534E+01
 0.26619417590E+01 0.34788701843E+01 0.45862720404E+01 0.60218640404E+01 0.77829501021E+01
 0.97743431485E+01 0.11768643499E+02 0.13421656353E+02 0.14368235441E+02 0.14368804219E+02
 0.13422346294E+02 0.11767852467E+02 0.97722182880E+01 0.77814082770E+01 0.60223090417E+01
 0.45880457284E+01 0.34802556420E+01 0.26621190253E+01 0.20921739307E+01 0.18366435424E+01
 0.17536228504E+01 0.18366935783E+01 0.20926753534E+01 0.25398833642E+01 0.32046382057E+01
 0.41208054028E+01 0.53263208904E+01 0.68421244320E+01 0.86275112828E+01 0.10530877016E+02
 0.12276429739E+02 0.13521064265E+02 0.13974063823E+02 0.13520951336E+02 0.12276274386E+02
 0.10530779420E+02 0.86274999950E+01 0.68421188636E+01 0.53262602026E+01 0.41207598067E+01
 0.32046938250E+01 0.25399793544E+01 0.20926898283E+01 0.21473803117E+01 0.21469527712E+01
 0.23154529348E+01 0.26619417590E+01 0.32046382057E+01 0.39717609268E+01 0.49994763238E+01
 0.63183600757E+01 0.79195856261E+01 0.97078338476E+01 0.11472294423E+02 0.12912626269E+02
 0.13708546893E+02 0.13708084336E+02 0.12911917214E+02 0.11472565115E+02 0.97093622692E+01
 0.79212440003E+01 0.63187273779E+01 0.49982719728E+01 0.39700559864E+01 0.32037444337E+01
 0.26622520072E+01 0.23163040653E+01 0.26933442298E+01 0.27793706429E+01 0.30387002015E+01
 0.34788701843E+01 0.41208054028E+01 0.49994763238E+01 0.61508555094E+01 0.75817644171E+01
 0.92285749828E+01 0.10928470345E+02 0.12409515996E+02 0.13454135605E+02 0.13831207482E+02
 0.13454088401E+02 0.12409465483E+02 0.10928433912E+02 0.92285589516E+01 0.75818194970E+01
 0.61510043446E+01 0.49996170469E+01 0.41208161136E+01 0.34787851619E+01 0.30386511191E+01
 0.27793837710E+01 0.35270343597E+01 0.37053388889E+01 0.40560506744E+01 0.45862720404E+01
 0.53263208904E+01 0.63183600757E+01 0.75817644171E+01 0.90692856711E+01 0.10622514245E+02
 0.12064712231E+02 0.13196305890E+02 0.13822162867E+02 0.13821983082E+02 0.13196058094E+02
 0.12064623464E+02 0.10622075511E+02 0.90680672862E+01 0.75805792603E+01 0.63186412265E+01
 0.53282015274E+01 0.45880727216E+01 0.40561387979E+01 0.37040650672E+01 0.35262583589E+01
 0.47291268651E+01 0.49940677016E+01 0.54204632890E+01 0.60218640404E+01 0.68421244320E+01
 0.79195856261E+01 0.92285749828E+01 0.10622514245E+02 0.11936022907E+02 0.13018693564E+02
 0.13727128302E+02 0.13972096500E+02 0.13727037982E+02 0.13018672189E+02 0.11936103058E+02
 0.10622558712E+02 0.92285239430E+01 0.79195126206E+01 0.68420500917E+01 0.60217514296E+01
 0.54203883123E+01 0.49941450752E+01 0.47292690707E+01 0.46377761006E+01 0.63884027315E+01
 0.67059965372E+01 0.71607149872E+01 0.77829501021E+01 0.86275112828E+01 0.97078338476E+01
 0.10928470345E+02 0.12064712231E+02 0.13018693564E+02 0.13671421147E+02 0.13989417650E+02
 0.13989935604E+02 0.13672229124E+02 0.13018734126E+02 0.12064355720E+02 0.10929034257E+02
 0.97093570399E+01 0.86281686072E+01 0.77814328026E+01 0.71583564701E+01 0.67052713682E+01
 0.63896020448E+01 0.62198345068E+01 0.62189461459E+01 0.85473702814E+01 0.88427489917E+01
 0.92318592718E+01 0.97743431485E+01 0.10530877016E+02 0.11472294423E+02 0.12409515996E+02
 0.13196305890E+02 0.13727128302E+02 0.13989417650E+02 0.14059836403E+02 0.13989254979E+02
 0.13727084026E+02 0.13196382752E+02 0.12409421402E+02 0.11472026130E+02 0.10530798898E+02
 0.97745852383E+01 0.92321172379E+01 0.88427848179E+01 0.85472925170E+01 0.83425846751E+01
 0.82667125047E+01 0.83426230113E+01 0.11103901807E+02 0.11280740375E+02 0.11459852487E+02
 0.11768643499E+02 0.12276429739E+02 0.12912626269E+02 0.13454135605E+02 0.13822162867E+02
 0.13972096500E+02 0.13989935604E+02 0.13989254979E+02 0.13971075175E+02 0.13822182052E+02
 0.13454679334E+02 0.12912154437E+02 0.12274942380E+02 0.11767867486E+02 0.11460860543E+02
 0.11282598522E+02 0.11105033416E+02 0.10925011713E+02 0.10801783685E+02 0.10801954959E+02
 0.10924957140E+02 0.13831413995E+02 0.13708552191E+02 0.13520884616E+02 0.13421656353E+02
 0.13521064265E+02 0.13708546893E+02 0.13831207482E+02 0.13821983082E+02 0.13727037982E+02
 0.13672229124E+02 0.13727084026E+02 0.13822182052E+02 0.13831409167E+02 0.13708527994E+02
 0.13521000529E+02 0.13421830468E+02 0.13521068933E+02 0.13708346314E+02 0.13831035500E+02
 0.13822030849E+02 0.13727194591E+02 0.13672246541E+02 0.13726923088E+02 0.13822041453E+02
 0.16350449051E+02 0.15726208538E+02 0.15001291314E+02 0.14368235441E+02 0.13974063823E+02
 0.13708084336E+02 0.13454088401E+02 0.13196058094E+02 0.13018672189E+02 0.13018734126E+02
 0.13196382752E+02 0.13454679334E+02 0.13708527994E+02 0.13974202742E+02 0.14368552453E+02
 0.15002018132E+02 0.15726591575E+02 0.16349596709E+02 0.16669987881E+02 0.16645970053E+02
 0.16495275864E+02 0.16495988545E+02 0.16647770125E+02 0.16671877373E+02 0.18155633202E+02
 0.16884102540E+02 0.15542455348E+02 0.14368804219E+02 0.13520951336E+02 0.12911917214E+02
 0.12409465483E+02 0.12064623464E+02 0.11936103058E+02 0.12064355720E+02 0.12409421402E+02
 0.12912154437E+02 0.13521000529E+02 0.14368552453E+02 0.15542320780E+02 0.16884242663E+02
 0.18155735053E+02 0.18947883529E+02 0.18951821173E+02 0.18391978553E+02 0.18048699885E+02
 0.18391818948E+02 0.18951777136E+02 0.18947934010E+02 0.18813732547E+02 0.16883997173E+02
 0.15001319093E+02 0.13422346294E+02 0.12276274386E+02 0.11472565115E+02 0.10928433912E+02
 0.10622075511E+02 0.10622558712E+02 0.10929034257E+02 0.11472026130E+02 0.12274942380E+02
 0.13421830468E+02 0.15002018132E+02 0.16884242663E+02 0.18812407672E+02 0.20194174193E+02
 0.20234396261E+02 0.18774443366E+02 0.17148311635E+02 0.17146092426E+02 0.18770272956E+02
 0.20232461951E+02 0.20195222462E+02 0.18155666567E+02 0.15726424175E+02 0.13520990179E+02
 0.11767852467E+02 0.10530779420E+02 0.97093622692E+01 0.92285589516E+01 0.90680672862E+01
 0.92285239430E+01 0.97093570399E+01 0.10530798898E+02 0.11767867486E+02 0.13521068933E+02
 0.15726591575E+02 0.18155735053E+02 0.20194174193E+02 0.20599491677E+02 0.18314980393E+02
 0.14946641716E+02 0.14236253408E+02 0.14946523730E+02 0.18315028006E+02 0.20599758362E+02
 0.20194364820E+02 0.16350344234E+02 0.13709806771E+02 0.11460040619E+02 0.97722182880E+01
 0.86274999950E+01 0.79212440003E+01 0.75818194970E+01 0.75805792603E+01 0.79195126206E+01
 0.86281686072E+01 0.97745852383E+01 0.11460860543E+02 0.13708346314E+02 0.16349596709E+02
 0.18947883529E+02 0.20234396261E+02 0.18314980393E+02 0.14692780291E+02 0.30731225412E+02
 0.30734095986E+02 0.14698123503E+02 0.18317237294E+02 0.20232611554E+02 0.18945988899E+02
 0.13831128896E+02 0.11282586541E+02 0.92320446234E+01 0.77814082770E+01 0.68421188636E+01
 0.63187273779E+01 0.61510043446E+01 0.63186412265E+01 0.68420500917E+01 0.77814328026E+01
 0.92321172379E+01 0.11282598522E+02 0.13831035500E+02 0.16669987881E+02 0.18951821173E+02
 0.18774443366E+02 0.14946641716E+02 0.30731225412E+02 0.33699786660E+03 0.30731184058E+02
 0.14946594223E+02 0.18774446195E+02 0.18951908852E+02 0.16670124954E+02 0.11103643852E+02
 0.88437563534E+01 0.71607992486E+01 0.60223090417E+01 0.53262602026E+01 0.49982719728E+01
 0.49996170469E+01 0.53282015274E+01 0.60217514296E+01 0.71583564701E+01 0.88427848179E+01
 0.11105033416E+02 0.13822030849E+02 0.16645970053E+02 0.18391978553E+02 0.17148311635E+02
 0.14236253408E+02 0.30734095986E+02 0.30731184058E+02 0.14230853540E+02 0.17146069326E+02
 0.18393810925E+02 0.16647862076E+02 0.13821263948E+02 0.85473429484E+01 0.67053437957E+01
 0.54204321182E+01 0.45880457284E+01 0.41207598067E+01 0.39700559864E+01 0.41208161136E+01
 0.45880727216E+01 0.54203883123E+01 0.67052713682E+01 0.85472925170E+01 0.10925011713E+02
 0.13727194591E+02 0.16495275864E+02 0.18048699885E+02 0.17146092426E+02 0.14946523730E+02
 0.14698123503E+02 0.14946594223E+02 0.17146069326E+02 0.18048513553E+02 0.16495051436E+02
 0.13727071073E+02 0.10925000691E+02 0.63885584428E+01 0.49924735657E+01 0.40559705743E+01
 0.34802556420E+01 0.32046938250E+01 0.32037444337E+01 0.34787851619E+01 0.40561387979E+01
 0.49941450752E+01 0.63896020448E+01 0.83425846751E+01 0.10801783685E+02 0.13672246541E+02
 0.16495988545E+02 0.18391818948E+02 0.18770272956E+02 0.18315028006E+02 0.18317237294E+02
 0.18774446195E+02 0.18393810925E+02 0.16495051436E+02 0.13671054098E+02 0.10802071343E+02
 0.83430382375E+01 0.47292643177E+01 0.37041856282E+01 0.30386378384E+01 0.26621190253E+01
 0.25399793544E+01 0.26622520072E+01 0.30386511191E+01 0.37040650672E+01 0.47292690707E+01
 0.62198345068E+01 0.82667125047E+01 0.10801954959E+02 0.13726923088E+02 0.16647770125E+02
 0.18951777136E+02 0.20232461951E+02 0.20599758362E+02 0.20232611554E+02 0.18951908852E+02
 0.16647862076E+02 0.13727071073E+02 0.10802071343E+02 0.82666282183E+01 0.62196605645E+01
 0.35270570271E+01 0.27792500776E+01 0.23154239808E+01 0.20921739307E+01 0.20926898283E+01
 0.23163040653E+01 0.27793837710E+01 0.35262583589E+01 0.46377761006E+01 0.62189461459E+01
 0.83426230113E+01 0.10924957140E+02 0.13822041453E+02 0.16671877373E+02 0.18947934010E+02
 0.20195222462E+02 0.20194364820E+02 0.18945988899E+02 0.16670124954E+02 0.13821263948E+02
 0.10925000691E+02 0.83430382375E+01 0.62196605645E+01 0.46387995749E+01 0.21351983112E+01
 0.17502350313E+01 0.15647881599E+01 0.15645870243E+01 0.17499501145E+01 0.21352897635E+01
 0.27537904951E+01 0.36617804716E+01 0.49326869286E+01 0.66278848735E+01 0.87390724557E+01
 0.11104127459E+02 0.13454293524E+02 0.15399409240E+02 0.16513213078E+02 0.16513787654E+02
 0.15400449046E+02 0.13454644071E+02 0.11103606385E+02 0.87385168025E+01 0.66279039117E+01
 0.49329518796E+01 0.36617086351E+01 0.27534467747E+01 0.17502350313E+01 0.14915193943E+01
 0.14078871320E+01 0.14916498299E+01 0.17499566356E+01 0.22052699516E+01 0.28951752177E+01
 0.38700634299E+01 0.51821877389E+01 0.68566590570E+01 0.88428883129E+01 0.10965311067E+02
 0.12912582439E+02 0.14280035746E+02 0.14783671255E+02 0.14280731465E+02 0.12914080750E+02
 0.10967070077E+02 0.88436832124E+01 0.68557934427E+01 0.51804497021E+01 0.38689762347E+01
 0.28953547745E+01 0.22059634482E+01 0.15647881599E+01 0.14078871320E+01 0.14078566790E+01
 0.15647479517E+01 0.18933640203E+01 0.24198934555E+01 0.31788534232E+01 0.42090258199E+01
 0.55398051324E+01 0.71606663420E+01 0.89785522126E+01 0.10786077947E+02 0.12276275321E+02
 0.13126528542E+02 0.13126526506E+02 0.12276284045E+02 0.10786129837E+02 0.89786663196E+01
 0.71608165565E+01 0.55399182682E+01 0.42090314374E+01 0.31787551073E+01 0.24197810747E+01
 0.18933294295E+01 0.15645870243E+01 0.14916498299E+01 0.15647479517E+01 0.17917885967E+01
 0.21919303297E+01 0.27895424876E+01 0.36120968407E+01 0.46865574325E+01 0.60221093930E+01
 0.75756086420E+01 0.92145831913E+01 0.10707548329E+02 0.11768691229E+02 0.12154785542E+02
 0.11769018763E+02 0.10707052607E+02 0.92128970266E+01 0.75741097881E+01 0.60223680312E+01
 0.46883471241E+01 0.36136674441E+01 0.27897005275E+01 0.21911430221E+01 0.17911493413E+01
 0.17499501145E+01 0.17499566356E+01 0.18933640203E+01 0.21919303297E+01 0.26639374271E+01
 0.33299442001E+01 0.42118131194E+01 0.53262881921E+01 0.66617733461E+01 0.81414324961E+01
 0.95972139781E+01 0.10786212670E+02 0.11460017617E+02 0.11460028404E+02 0.10786211052E+02
 0.95971595380E+01 0.81413477398E+01 0.66616994600E+01 0.53262274708E+01 0.42117668025E+01
 0.33299468783E+01 0.26639964833E+01 0.21919879903E+01 0.18933755426E+01 0.21352897635E+01
 0.22052699516E+01 0.24198934555E+01 0.27895424876E+01 0.33299442001E+01 0.40604259130E+01
 0.49993591624E+01 0.61498840870E+01 0.74716194330E+01 0.88501070607E+01 0.10091731432E+02
 0.10965315439E+02 0.11280705926E+02 0.10964725668E+02 0.10091659328E+02 0.88512181823E+01
 0.74730980268E+01 0.61502687942E+01 0.49981894501E+01 0.40587117401E+01 0.33290599913E+01
 0.27899580942E+01 0.24210050215E+01 0.22061277731E+01 0.27537904951E+01 0.28951752177E+01
 0.31788534232E+01 0.36120968407E+01 0.42118131194E+01 0.49993591624E+01 0.59857474170E+01
 0.71487749347E+01 0.84085734475E+01 0.96177872837E+01 0.10583778446E+02 0.11104005115E+02
 0.11103745827E+02 0.10583240819E+02 0.96173772030E+01 0.84084179697E+01 0.71487770849E+01
 0.59858752860E+01 0.49996239702E+01 0.42120906764E+01 0.36122186221E+01 0.31788186731E+01
 0.28951091399E+01 0.27537662169E+01 0.36617804716E+01 0.38700634299E+01 0.42090258199E+01
 0.46865574325E+01 0.53262881921E+01 0.61498840870E+01 0.71487749347E+01 0.82609192693E+01
 0.93670079768E+01 0.10291885737E+02 0.10925534850E+02 0.11150861507E+02 0.10924999452E+02
 0.10290939429E+02 0.93657603349E+01 0.82596789662E+01 0.71483005721E+01 0.61508396604E+01
 0.53282750724E+01 0.46881433717E+01 0.42090548002E+01 0.38687814802E+01 0.36605444322E+01
 0.35901749278E+01 0.49326869286E+01 0.51821877389E+01 0.55398051324E+01 0.60221093930E+01
 0.66617733461E+01 0.74716194330E+01 0.84085734475E+01 0.93670079768E+01 0.10188216123E+02
 0.10803720609E+02 0.11132631070E+02 0.11131884649E+02 0.10802136198E+02 0.10187065883E+02
 0.93669808646E+01 0.84093903491E+01 0.74725193859E+01 0.66621187066E+01 0.60217716102E+01
 0.55392543155E+01 0.51820469788E+01 0.49330142011E+01 0.48005117854E+01 0.48002796152E+01
 0.66278848735E+01 0.68566590570E+01 0.71606663420E+01 0.75756086420E+01 0.81414324961E+01
 0.88501070607E+01 0.96177872837E+01 0.10291885737E+02 0.10803720609E+02 0.11115465074E+02
 0.11218461809E+02 0.11113481539E+02 0.10801811827E+02 0.10292000623E+02 0.96198753813E+01
 0.88523179157E+01 0.81418562601E+01 0.75739008700E+01 0.71583464360E+01 0.68557673583E+01
 0.66289710556E+01 0.64755752971E+01 0.64189573312E+01 0.64740744914E+01 0.87390724557E+01
 0.88428883129E+01 0.89785522126E+01 0.92145831913E+01 0.95972139781E+01 0.10091731432E+02
 0.10583778446E+02 0.10925534850E+02 0.11132631070E+02 0.11218461809E+02 0.11217276568E+02
 0.11130535155E+02 0.10924964527E+02 0.10585096458E+02 0.10093187622E+02 0.95974439923E+01
 0.92139535877E+01 0.89780701994E+01 0.88428353845E+01 0.87390878610E+01 0.86393055835E+01
 0.85704410301E+01 0.85705292202E+01 0.86394263633E+01 0.11104127459E+02 0.10965311067E+02
 0.10786077947E+02 0.10707548329E+02 0.10786212670E+02 0.10965315439E+02 0.11104005115E+02
 0.11150861507E+02 0.11131884649E+02 0.11113481539E+02 0.11130535155E+02 0.11150308608E+02
 0.11105193237E+02 0.10966547486E+02 0.10785774366E+02 0.10706244310E+02 0.10785919844E+02
 0.10966564027E+02 0.11105071468E+02 0.11150309051E+02 0.11130655792E+02 0.11113458423E+02
 0.11131725444E+02 0.11150841398E+02 0.13454293524E+02 0.12912582439E+02 0.12276275321E+02
 0.11768691229E+02 0.11460017617E+02 0.11280705926E+02 0.11103745827E+02 0.10924999452E+02
 0.10802136198E+02 0.10801811827E+02 0.10924964527E+02 0.11105193237E+02 0.11282845384E+02
 0.11460852296E+02 0.11767672052E+02 0.12274878735E+02 0.12912168240E+02 0.13454496802E+02
 0.13821919999E+02 0.13971066826E+02 0.13989418730E+02 0.13989936630E+02 0.13971982868E+02
 0.13822224888E+02 0.15399409240E+02 0.14280035746E+02 0.13126528542E+02 0.12154785542E+02
 0.11460028404E+02 0.10964725668E+02 0.10583240819E+02 0.10290939429E+02 0.10187065883E+02
 0.10292000623E+02 0.10585096458E+02 0.10966547486E+02 0.11460852296E+02 0.12154472676E+02
 0.13125826475E+02 0.14279520133E+02 0.15398831625E+02 0.16249229800E+02 0.16645768496E+02
 0.16659493237E+02 0.16601025217E+02 0.16660551442E+02 0.16647231015E+02 0.16250334258E+02
 0.16513213078E+02 0.14783671255E+02 0.13126526506E+02 0.11769018763E+02 0.10786211052E+02
 0.10091659328E+02 0.96173772030E+01 0.93657603349E+01 0.93669808646E+01 0.96198753813E+01
 0.10093187622E+02 0.10785774366E+02 0.11767672052E+02 0.13125826475E+02 0.14783853867E+02
 0.16513376824E+02 0.17952072654E+02 0.18628295643E+02 0.18391849834E+02 0.17845436416E+02
 0.17845267626E+02 0.18391709963E+02 0.18628577185E+02 0.17952384793E+02 0.16513787654E+02
 0.14280731465E+02 0.12276284045E+02 0.10707052607E+02 0.95971595380E+01 0.88512181823E+01
 0.84084179697E+01 0.82596789662E+01 0.84093903491E+01 0.88523179157E+01 0.95974439923E+01
 0.10706244310E+02 0.12274878735E+02 0.14279520133E+02 0.16513376824E+02 0.18563110810E+02
 0.19621436208E+02 0.18963599339E+02 0.17148258436E+02 0.16159289678E+02 0.17146908443E+02
 0.18961656403E+02 0.19619843110E+02 0.18562459038E+02 0.15400449046E+02 0.12914080750E+02
 0.10786129837E+02 0.92128970266E+01 0.81413477398E+01 0.74730980268E+01 0.71487770849E+01
 0.71483005721E+01 0.74725193859E+01 0.81418562601E+01 0.92139535877E+01 0.10785919844E+02
 0.12912168240E+02 0.15398831625E+02 0.17952072654E+02 0.19621436208E+02 0.18994673201E+02
 0.15891905981E+02 0.14236184961E+02 0.14236734856E+02 0.15892342846E+02 0.18993368609E+02
 0.19619215104E+02 0.17951403928E+02 0.13454644071E+02 0.10967070077E+02 0.89786663196E+01
 0.75741097881E+01 0.66616994600E+01 0.61502687942E+01 0.59858752860E+01 0.61508396604E+01
 0.66621187066E+01 0.75739008700E+01 0.89780701994E+01 0.10966564027E+02 0.13454496802E+02
 0.16249229800E+02 0.18628295643E+02 0.18963599339E+02 0.15891905981E+02 0.16503561957E+02
 0.30734068713E+02 0.16504108934E+02 0.15892272492E+02 0.18963352781E+02 0.18627768896E+02
 0.16248945068E+02 0.11103606385E+02 0.88436832124E+01 0.71608165565E+01 0.60223680312E+01
 0.53262274708E+01 0.49981894501E+01 0.49996239702E+01 0.53282750724E+01 0.60217716102E+01
 0.71583464360E+01 0.88428353845E+01 0.11105071468E+02 0.13821919999E+02 0.16645768496E+02
 0.18391849834E+02 0.17148258436E+02 0.14236184961E+02 0.30734068713E+02 0.30731312615E+02
 0.14231059761E+02 0.17146178463E+02 0.18393828008E+02 0.16647907619E+02 0.13821317784E+02
 0.87385168025E+01 0.68557934427E+01 0.55399182682E+01 0.46883471241E+01 0.42117668025E+01
 0.40587117401E+01 0.42120906764E+01 0.46881433717E+01 0.55392543155E+01 0.68557673583E+01
 0.87390878610E+01 0.11150309051E+02 0.13971066826E+02 0.16659493237E+02 0.17845436416E+02
 0.16159289678E+02 0.14236734856E+02 0.16504108934E+02 0.14231059761E+02 0.16153107148E+02
 0.17843582185E+02 0.16661853639E+02 0.13973865147E+02 0.11150988751E+02 0.66279039117E+01
 0.51804497021E+01 0.42090314374E+01 0.36136674441E+01 0.33299468783E+01 0.33290599913E+01
 0.36122186221E+01 0.42090548002E+01 0.51820469788E+01 0.66289710556E+01 0.86393055835E+01
 0.11130655792E+02 0.13989418730E+02 0.16601025217E+02 0.17845267626E+02 0.17146908443E+02
 0.15892342846E+02 0.15892272492E+02 0.17146178463E+02 0.17843582185E+02 0.16599727615E+02
 0.13990096291E+02 0.11132701582E+02 0.86403468607E+01 0.49329518796E+01 0.38689762347E+01
 0.31787551073E+01 0.27897005275E+01 0.26639964833E+01 0.27899580942E+01 0.31788186731E+01
 0.38687814802E+01 0.49330142011E+01 0.64755752971E+01 0.85704410301E+01 0.11113458423E+02
 0.13989936630E+02 0.16660551442E+02 0.18391709963E+02 0.18961656403E+02 0.18993368609E+02
 0.18963352781E+02 0.18393828008E+02 0.16661853639E+02 0.13990096291E+02 0.11112797250E+02
 0.85694885911E+01 0.64749198085E+01 0.36617086351E+01 0.28953547745E+01 0.24197810747E+01
 0.21911430221E+01 0.21919879903E+01 0.24210050215E+01 0.28951091399E+01 0.36605444322E+01
 0.48005117854E+01 0.64189573312E+01 0.85705292202E+01 0.11131725444E+02 0.13971982868E+02
 0.16647231015E+02 0.18628577185E+02 0.19619843110E+02 0.19619215104E+02 0.18627768896E+02
 0.16647907619E+02 0.13973865147E+02 0.11132701582E+02 0.85694885911E+01 0.64174126332E+01
 0.48004980537E+01 0.27534467747E+01 0.22059634482E+01 0.18933294295E+01 0.17911493413E+01
 0.18933755426E+01 0.22061277731E+01 0.27537662169E+01 0.35901749278E+01 0.48002796152E+01
 0.64740744914E+01 0.86394263633E+01 0.11150841398E+02 0.13822224888E+02 0.16250334258E+02
 0.17952384793E+02 0.18562459038E+02 0.17951403928E+02 0.16248945068E+02 0.13821317784E+02
 0.11150988751E+02 0.86403468607E+01 0.64749198085E+01 0.48004980537E+01 0.35899103347E+01
 0.16987578390E+01 0.14489549120E+01 0.13677848314E+01 0.14490300238E+01 0.16988042368E+01
 0.21369858949E+01 0.27996880909E+01 0.37381390010E+01 0.50061901185E+01 0.66279498211E+01
 0.85473475118E+01 0.10583870235E+02 0.12409641915E+02 0.13719182366E+02 0.14196409072E+02
 0.13719077716E+02 0.12409505765E+02 0.10583755661E+02 0.85472433180E+01 0.66278455123E+01
 0.50061340454E+01 0.37381824545E+01 0.27997918739E+01 0.21370405121E+01 0.14489549120E+01
 0.13017419665E+01 0.13019507534E+01 0.14490916237E+01 0.17562214126E+01 0.22484075955E+01
 0.29599699024E+01 0.39289102665E+01 0.51821154120E+01 0.67060466912E+01 0.84083045179E+01
 0.10091728930E+02 0.11472255450E+02 0.12257040598E+02 0.12257478445E+02 0.11473465333E+02
 0.10093172861E+02 0.84089591144E+01 0.67052283709E+01 0.51804047124E+01 0.39277762664E+01
 0.29602516543E+01 0.22494676025E+01 0.17568474205E+01 0.13677848314E+01 0.13019507534E+01
 0.13677451644E+01 0.15723372361E+01 0.19342063611E+01 0.24776383460E+01 0.32286685501E+01
 0.42090465322E+01 0.54204145116E+01 0.68168694975E+01 0.82768723676E+01 0.95971250764E+01
 0.10530771924E+02 0.10869385429E+02 0.10530774728E+02 0.95971633060E+01 0.82769581972E+01
 0.68169699155E+01 0.54204840573E+01 0.42090634137E+01 0.32286403042E+01 0.24775964836E+01
 0.19341928326E+01 0.15723678405E+01 0.14490300238E+01 0.14490916237E+01 0.15723372361E+01
 0.18318613985E+01 0.22464696332E+01 0.28346300069E+01 0.36122235545E+01 0.45866870723E+01
 0.57392063932E+01 0.69983054523E+01 0.82225846854E+01 0.92145935328E+01 0.97744042289E+01
 0.97743118065E+01 0.92140683537E+01 0.82214789410E+01 0.69973327399E+01 0.57394155762E+01
 0.45881337481E+01 0.36136928410E+01 0.28349291838E+01 0.22456614104E+01 0.18309283555E+01
 0.15719184747E+01 0.16988042368E+01 0.17562214126E+01 0.19342063611E+01 0.22464696332E+01
 0.27077494287E+01 0.33299509024E+01 0.41207677432E+01 0.50758580331E+01 0.61585607620E+01
 0.72764450116E+01 0.82769234420E+01 0.89786447073E+01 0.92319875930E+01 0.89787491494E+01
 0.82770272690E+01 0.72764651802E+01 0.61585055597E+01 0.50757737212E+01 0.41206846379E+01
 0.33298923579E+01 0.27077319177E+01 0.22464750998E+01 0.19341997526E+01 0.17562034951E+01
 0.21369858949E+01 0.22484075955E+01 0.24776383460E+01 0.28346300069E+01 0.33299509024E+01
 0.39717174520E+01 0.47611139830E+01 0.56807701384E+01 0.66749941003E+01 0.76348398190E+01
 0.84083049311E+01 0.88428838299E+01 0.88427149031E+01 0.84083085882E+01 0.76356920400E+01
 0.66762528090E+01 0.56811257166E+01 0.47599559285E+01 0.39699462735E+01 0.33290130209E+01
 0.28350645839E+01 0.24788178739E+01 0.22494206703E+01 0.21373552828E+01 0.27996880909E+01
 0.29599699024E+01 0.32286685501E+01 0.36122235545E+01 0.41207677432E+01 0.47611139830E+01
 0.55257720815E+01 0.63794898359E+01 0.72472280952E+01 0.80140211552E+01 0.85473118273E+01
 0.87389990953E+01 0.85472742618E+01 0.80140130458E+01 0.72472315048E+01 0.63794377165E+01
 0.55257187567E+01 0.47611697068E+01 0.41208858443E+01 0.36122629669E+01 0.32286419537E+01
 0.29600065579E+01 0.27997751845E+01 0.27462563737E+01 0.37381390010E+01 0.39289102665E+01
 0.42090465322E+01 0.45866870723E+01 0.50758580331E+01 0.56807701384E+01 0.63794898359E+01
 0.71160066919E+01 0.78040172843E+01 0.83422845311E+01 0.86391640274E+01 0.86394617573E+01
 0.83426918343E+01 0.78036784104E+01 0.71148561519E+01 0.63786037439E+01 0.56812884163E+01
 0.50776054153E+01 0.45882113696E+01 0.42091055139E+01 0.39276261348E+01 0.37366471343E+01
 0.36387431628E+01 0.36393711081E+01 0.50061901185E+01 0.51821154120E+01 0.54204145116E+01
 0.57392063932E+01 0.61585607620E+01 0.66749941003E+01 0.72472280952E+01 0.78040172843E+01
 0.82666714975E+01 0.85705913480E+01 0.86599697587E+01 0.85706213823E+01 0.82668380407E+01
 0.78042633605E+01 0.72473429119E+01 0.66749269306E+01 0.61584763235E+01 0.57391939952E+01
 0.54203806850E+01 0.51820042532E+01 0.50060850610E+01 0.48921396118E+01 0.48518620753E+01
 0.48921777631E+01 0.66279498211E+01 0.67060466912E+01 0.68168694975E+01 0.69983054523E+01
 0.72764450116E+01 0.76348398190E+01 0.80140211552E+01 0.83422845311E+01 0.85705913480E+01
 0.86647573036E+01 0.86645894302E+01 0.85703733298E+01 0.83425309629E+01 0.80148459925E+01
 0.76357045252E+01 0.72765079647E+01 0.69971566112E+01 0.68151470527E+01 0.67051933967E+01
 0.66288884997E+01 0.65671348366E+01 0.65278626387E+01 0.65268719277E+01 0.65651992486E+01
 0.85473475118E+01 0.84083045179E+01 0.82768723676E+01 0.82225846854E+01 0.82769234420E+01
 0.84083049311E+01 0.85473118273E+01 0.86391640274E+01 0.86599697587E+01 0.86645894302E+01
 0.86599490207E+01 0.86390993172E+01 0.85471621039E+01 0.84081187644E+01 0.82768703669E+01
 0.82227313362E+01 0.82770298340E+01 0.84082945048E+01 0.85473006929E+01 0.86392548332E+01
 0.86600828948E+01 0.86645892243E+01 0.86598703097E+01 0.86391206080E+01 0.10583870235E+02
 0.10091728930E+02 0.95971250764E+01 0.92145935328E+01 0.89786447073E+01 0.88428838299E+01
 0.87389990953E+01 0.86394617573E+01 0.85706213823E+01 0.85703733298E+01 0.86390993172E+01
 0.87389626670E+01 0.88428156768E+01 0.89780092811E+01 0.92138959092E+01 0.95975715572E+01
 0.10093443511E+02 0.10585242822E+02 0.10924978751E+02 0.11130580795E+02 0.11217335654E+02
 0.11218378658E+02 0.11132471340E+02 0.10925513496E+02 0.12409641915E+02 0.11472255450E+02
 0.10530771924E+02 0.97744042289E+01 0.92319875930E+01 0.88427149031E+01 0.85472742618E+01
 0.83426918343E+01 0.82668380407E+01 0.83425309629E+01 0.85471621039E+01 0.88428156768E+01
 0.92322166167E+01 0.97745285497E+01 0.10530689276E+02 0.11472090085E+02 0.12409548046E+02
 0.13196332003E+02 0.13726954347E+02 0.13989281525E+02 0.14059925687E+02 0.13989346727E+02
 0.13727004043E+02 0.13196359762E+02 0.13719182366E+02 0.12257040598E+02 0.10869385429E+02
 0.97743118065E+01 0.89787491494E+01 0.84083085882E+01 0.80140130458E+01 0.78036784104E+01
 0.78042633605E+01 0.80148459925E+01 0.84081187644E+01 0.89780092811E+01 0.97745285497E+01
 0.10870589755E+02 0.12257432255E+02 0.13717716735E+02 0.15060589940E+02 0.16028798842E+02
 0.16495001773E+02 0.16600941477E+02 0.16599903839E+02 0.16493320485E+02 0.16028823565E+02
 0.15062430065E+02 0.14196409072E+02 0.12257478445E+02 0.10530774728E+02 0.92140683537E+01
 0.82770272690E+01 0.76356920400E+01 0.72472315048E+01 0.71148561519E+01 0.72473429119E+01
 0.76357045252E+01 0.82768703669E+01 0.92138959092E+01 0.10530689276E+02 0.12257432255E+02
 0.14196397095E+02 0.16120750109E+02 0.17591945212E+02 0.18202392414E+02 0.18048645109E+02
 0.17845336127E+02 0.18048659757E+02 0.18202313339E+02 0.17591787689E+02 0.16120656435E+02
 0.13719077716E+02 0.11473465333E+02 0.95971633060E+01 0.82214789410E+01 0.72764651802E+01
 0.66762528090E+01 0.63794377165E+01 0.63786037439E+01 0.66749269306E+01 0.72765079647E+01
 0.82227313362E+01 0.95975715572E+01 0.11472090085E+02 0.13717716735E+02 0.16120750109E+02
 0.18140559991E+02 0.18964528688E+02 0.18276838446E+02 0.17146177571E+02 0.17147050249E+02
 0.18277918374E+02 0.18963650115E+02 0.18138418836E+02 0.16119989965E+02 0.12409505765E+02
 0.10093172861E+02 0.82769581972E+01 0.69973327399E+01 0.61585055597E+01 0.56811257166E+01
 0.55257187567E+01 0.56812884163E+01 0.61584763235E+01 0.69971566112E+01 0.82770298340E+01
 0.10093443511E+02 0.12409548046E+02 0.15060589940E+02 0.17591945212E+02 0.18964528688E+02
 0.18146227519E+02 0.15892251664E+02 0.14946561485E+02 0.15892457021E+02 0.18146198354E+02
 0.18964258154E+02 0.17591876774E+02 0.15060748946E+02 0.10583755661E+02 0.84089591144E+01
 0.68169699155E+01 0.57394155762E+01 0.50757737212E+01 0.47599559285E+01 0.47611697068E+01
 0.50776054153E+01 0.57391939952E+01 0.68151470527E+01 0.84082945048E+01 0.10585242822E+02
 0.13196332003E+02 0.16028798842E+02 0.18202392414E+02 0.18276838446E+02 0.15892251664E+02
 0.14698342354E+02 0.14698206832E+02 0.15892396035E+02 0.18277967785E+02 0.18203847599E+02
 0.16028888646E+02 0.13194647663E+02 0.85472433180E+01 0.67052283709E+01 0.54204840573E+01
 0.45881337481E+01 0.41206846379E+01 0.39699462735E+01 0.41208858443E+01 0.45882113696E+01
 0.54203806850E+01 0.67051933967E+01 0.85473006929E+01 0.10924978751E+02 0.13726954347E+02
 0.16495001773E+02 0.18048645109E+02 0.17146177571E+02 0.14946561485E+02 0.14698206832E+02
 0.14946864767E+02 0.17146343083E+02 0.18048546506E+02 0.16494955843E+02 0.13727077423E+02
 0.10925037549E+02 0.66278455123E+01 0.51804047124E+01 0.42090634137E+01 0.36136928410E+01
 0.33298923579E+01 0.33290130209E+01 0.36122629669E+01 0.42091055139E+01 0.51820042532E+01
 0.66288884997E+01 0.86392548332E+01 0.11130580795E+02 0.13989281525E+02 0.16600941477E+02
 0.17845336127E+02 0.17147050249E+02 0.15892457021E+02 0.15892396035E+02 0.17146343083E+02
 0.17843678021E+02 0.16599674324E+02 0.13989998283E+02 0.11132674857E+02 0.86403408260E+01
 0.50061340454E+01 0.39277762664E+01 0.32286403042E+01 0.28349291838E+01 0.27077319177E+01
 0.28350645839E+01 0.32286419537E+01 0.39276261348E+01 0.50060850610E+01 0.65671348366E+01
 0.86600828948E+01 0.11217335654E+02 0.14059925687E+02 0.16599903839E+02 0.18048659757E+02
 0.18277918374E+02 0.18146198354E+02 0.18277967785E+02 0.18048546506E+02 0.16599674324E+02
 0.14059858874E+02 0.11217440513E+02 0.86601055106E+01 0.65670590818E+01 0.37381824545E+01
 0.29602516543E+01 0.24775964836E+01 0.22456614104E+01 0.22464750998E+01 0.24788178739E+01
 0.29600065579E+01 0.37366471343E+01 0.48921396118E+01 0.65278626387E+01 0.86645892243E+01
 0.11218378658E+02 0.13989346727E+02 0.16493320485E+02 0.18202313339E+02 0.18963650115E+02
 0.18964258154E+02 0.18203847599E+02 0.16494955843E+02 0.13989998283E+02 0.11217440513E+02
 0.86627669229E+01 0.65268926336E+01 0.48929938673E+01 0.27997918739E+01 0.22494676025E+01
 0.19341928326E+01 0.18309283555E+01 0.19341997526E+01 0.22494206703E+01 0.27997751845E+01
 0.36387431628E+01 0.48518620753E+01 0.65268719277E+01 0.86598703097E+01 0.11132471340E+02
 0.13727004043E+02 0.16028823565E+02 0.17591787689E+02 0.18138418836E+02 0.17591876774E+02
 0.16028888646E+02 0.13727077423E+02 0.11132674857E+02 0.86601055106E+01 0.65268926336E+01
 0.48516699805E+01 0.36385972408E+01 0.21370405121E+01 0.17568474205E+01 0.15723678405E+01
 0.15719184747E+01 0.17562034951E+01 0.21373552828E+01 0.27462563737E+01 0.36393711081E+01
 0.48921777631E+01 0.65651992486E+01 0.86391206080E+01 0.10925513496E+02 0.13196359762E+02
 0.15062430065E+02 0.16120656435E+02 0.16119989965E+02 0.15060748946E+02 0.13194647663E+02
 0.10925037549E+02 0.86403408260E+01 0.65670590818E+01 0.48929938673E+01 0.36385972408E+01
 0.27450181896E+01 0.13798175751E+01 0.12385104505E+01 0.12385560771E+01 0.13799040525E+01
 0.16734651203E+01 0.21414639922E+01 0.28168426058E+01 0.37379754357E+01 0.49327557073E+01
 0.63884239208E+01 0.80140301441E+01 0.96178580098E+01 0.10928577798E+02 0.11652490267E+02
 0.11652189848E+02 0.10927927826E+02 0.96173228797E+01 0.80138223731E+01 0.63884467352E+01
 0.49328764340E+01 0.37381570748E+01 0.28170411552E+01 0.21415799754E+01 0.16734476239E+01
 0.12385104505E+01 0.11774256647E+01 0.12385644169E+01 0.14279731135E+01 0.17622261878E+01
 0.22643827552E+01 0.29599432762E+01 0.38696740264E+01 0.49937450825E+01 0.62869459464E+01
 0.76348523570E+01 0.88501207051E+01 0.97078132411E+01 0.10018942482E+02 0.97087948597E+01
 0.88512139937E+01 0.76350499537E+01 0.62859922811E+01 0.49923787461E+01 0.38689400156E+01
 0.29602475033E+01 0.22652520070E+01 0.17629200869E+01 0.14281831707E+01 0.12385560771E+01
 0.12385644169E+01 0.13479275096E+01 0.15786386086E+01 0.19490145550E+01 0.24776011071E+01
 0.31788760824E+01 0.40561064693E+01 0.50864871961E+01 0.62016811559E+01 0.72764254398E+01
 0.81413723402E+01 0.86274300457E+01 0.86273910490E+01 0.81413326739E+01 0.72764924101E+01
 0.62018173718E+01 0.50865592785E+01 0.40560727242E+01 0.31788287449E+01 0.24776251574E+01
 0.19490864686E+01 0.15786855259E+01 0.13479283097E+01 0.13799040525E+01 0.14279731135E+01
 0.15786386086E+01 0.18464501081E+01 0.22464723825E+01 0.27894374794E+01 0.34790486864E+01
 0.43050051206E+01 0.52285949735E+01 0.61680554512E+01 0.69982903375E+01 0.75755946775E+01
 0.77829752449E+01 0.75751216983E+01 0.69974776240E+01 0.61674385467E+01 0.52288803714E+01
 0.43062585635E+01 0.34803561779E+01 0.27897320552E+01 0.22456544038E+01 0.18454073001E+01
 0.15781604890E+01 0.14279792378E+01 0.16734651203E+01 0.17622261878E+01 0.19490145550E+01
 0.22464723825E+01 0.26639475347E+01 0.32046437378E+01 0.38640014810E+01 0.46223570429E+01
 0.54308783782E+01 0.62016694627E+01 0.68168888905E+01 0.71607152728E+01 0.71607892830E+01
 0.68170385867E+01 0.62017671141E+01 0.54308791948E+01 0.46223071135E+01 0.38639503722E+01
 0.32046033272E+01 0.26639116207E+01 0.22464276537E+01 0.19489466971E+01 0.17621499717E+01
 0.16734298648E+01 0.21414639922E+01 0.22643827552E+01 0.24776011071E+01 0.27894374794E+01
 0.32046437378E+01 0.37217623851E+01 0.43303695237E+01 0.50032516764E+01 0.56847430508E+01
 0.62869535223E+01 0.67060660846E+01 0.68566607541E+01 0.67059616744E+01 0.62873981976E+01
 0.56857627618E+01 0.50037671064E+01 0.43294766168E+01 0.37200554935E+01 0.32036638704E+01
 0.27899186706E+01 0.24788068675E+01 0.22652259275E+01 0.21417053575E+01 0.21014506763E+01
 0.28168426058E+01 0.29599432762E+01 0.31788760824E+01 0.34790486864E+01 0.38640014810E+01
 0.43303695237E+01 0.48624493975E+01 0.54256066051E+01 0.59608161057E+01 0.63884457078E+01
 0.66279421175E+01 0.66278240409E+01 0.63883104829E+01 0.59609799432E+01 0.54259905143E+01
 0.48626756945E+01 0.43302603660E+01 0.38637485624E+01 0.34789102707E+01 0.31789040122E+01
 0.29600350259E+01 0.28169104510E+01 0.27459554952E+01 0.27459334413E+01 0.37379754357E+01
 0.38696740264E+01 0.40561064693E+01 0.43050051206E+01 0.46223570429E+01 0.50032516764E+01
 0.54256066051E+01 0.58490520462E+01 0.62184928933E+01 0.64735543604E+01 0.65651932083E+01
 0.64740427051E+01 0.62189359358E+01 0.58490283937E+01 0.54253460215E+01 0.50033913544E+01
 0.46231453316E+01 0.43058965696E+01 0.40562655485E+01 0.38688152952E+01 0.37366246742E+01
 0.36568332837E+01 0.36303023001E+01 0.36578066348E+01 0.49327557073E+01 0.49937450825E+01
 0.50864871961E+01 0.52285949735E+01 0.54308783782E+01 0.56847430508E+01 0.59608161057E+01
 0.62184928933E+01 0.64175649759E+01 0.65263042308E+01 0.65268756815E+01 0.64189373934E+01
 0.62198375046E+01 0.59613380206E+01 0.56842417946E+01 0.54298929435E+01 0.52279208598E+01
 0.50864689692E+01 0.49940568549E+01 0.49328849520E+01 0.48920487706E+01 0.48704376019E+01
 0.48705600539E+01 0.48922037714E+01 0.63884239208E+01 0.62869459464E+01 0.62016811559E+01
 0.61680554512E+01 0.62016694627E+01 0.62869535223E+01 0.63884457078E+01 0.64735543604E+01
 0.65263042308E+01 0.65442483092E+01 0.65278218898E+01 0.64754525960E+01 0.63894840832E+01
 0.62866799945E+01 0.62004037975E+01 0.61664181042E+01 0.62003666156E+01 0.62866482719E+01
 0.63894695000E+01 0.64754302195E+01 0.65277955398E+01 0.65442497536E+01 0.65263263410E+01
 0.64735557157E+01 0.80140301441E+01 0.76348523570E+01 0.72764254398E+01 0.69982903375E+01
 0.68168888905E+01 0.67060660846E+01 0.66279421175E+01 0.65651932083E+01 0.65268756815E+01
 0.65278218898E+01 0.65670258360E+01 0.66287756787E+01 0.67051389204E+01 0.68151386936E+01
 0.69971756167E+01 0.72765839485E+01 0.76358426076E+01 0.80149773583E+01 0.83425975465E+01
 0.85703935322E+01 0.86645911913E+01 0.86647237908E+01 0.85705245320E+01 0.83422416443E+01
 0.96178580098E+01 0.88501207051E+01 0.81413723402E+01 0.75755946775E+01 0.71607152728E+01
 0.68566607541E+01 0.66278240409E+01 0.64740427051E+01 0.64189373934E+01 0.64754525960E+01
 0.66287756787E+01 0.68556714834E+01 0.71584025266E+01 0.75740060808E+01 0.81419807187E+01
 0.88525293009E+01 0.96201236595E+01 0.10292121016E+02 0.10801772153E+02 0.11113407597E+02
 0.11218404262E+02 0.11115364044E+02 0.10803605650E+02 0.10291872705E+02 0.10928577798E+02
 0.97078132411E+01 0.86274300457E+01 0.77829752449E+01 0.71607892830E+01 0.67059616744E+01
 0.63883104829E+01 0.62189359358E+01 0.62198375046E+01 0.63894840832E+01 0.67051389204E+01
 0.71584025266E+01 0.77816023632E+01 0.86282841603E+01 0.97094416362E+01 0.10929196900E+02
 0.12064493877E+02 0.13018676957E+02 0.13672057166E+02 0.13989845973E+02 0.13989393592E+02
 0.13671338517E+02 0.13018618453E+02 0.12064775908E+02 0.11652490267E+02 0.10018942482E+02
 0.86273910490E+01 0.75751216983E+01 0.68170385867E+01 0.62873981976E+01 0.59609799432E+01
 0.58490283937E+01 0.59613380206E+01 0.62866799945E+01 0.68151386936E+01 0.75740060808E+01
 0.86282841603E+01 0.10020342615E+02 0.11652278863E+02 0.13324197220E+02 0.14823504797E+02
 0.15913529964E+02 0.16495850398E+02 0.16660594620E+02 0.16493449328E+02 0.15911397857E+02
 0.14823662869E+02 0.13325610036E+02 0.11652189848E+02 0.97087948597E+01 0.81413326739E+01
 0.69974776240E+01 0.62017671141E+01 0.56857627618E+01 0.54259905143E+01 0.54253460215E+01
 0.56842417946E+01 0.62004037975E+01 0.69971756167E+01 0.81419807187E+01 0.97094416362E+01
 0.11652278863E+02 0.13783889969E+02 0.15839916927E+02 0.17408237151E+02 0.18202641160E+02
 0.18391942307E+02 0.18391957459E+02 0.18202503355E+02 0.17407851859E+02 0.15839657429E+02
 0.13783957358E+02 0.10927927826E+02 0.88512139937E+01 0.72764924101E+01 0.61674385467E+01
 0.54308791948E+01 0.50037671064E+01 0.48626756945E+01 0.50033913544E+01 0.54298929435E+01
 0.61664181042E+01 0.72765839485E+01 0.88525293009E+01 0.10929196900E+02 0.13324197220E+02
 0.15839916927E+02 0.17924844112E+02 0.18963499397E+02 0.18961836375E+02 0.18770459556E+02
 0.18961913281E+02 0.18963785642E+02 0.17925479274E+02 0.15840568784E+02 0.13324026469E+02
 0.96173228797E+01 0.76350499537E+01 0.62018173718E+01 0.52288803714E+01 0.46223071135E+01
 0.43294766168E+01 0.43302603660E+01 0.46231453316E+01 0.52279208598E+01 0.62003666156E+01
 0.76358426076E+01 0.96201236595E+01 0.12064493877E+02 0.14823504797E+02 0.17408237151E+02
 0.18963499397E+02 0.18994816631E+02 0.18316012344E+02 0.18315060689E+02 0.18993493849E+02
 0.18964291937E+02 0.17410969603E+02 0.14825124914E+02 0.12062973859E+02 0.80138223731E+01
 0.62859922811E+01 0.50865592785E+01 0.43062585635E+01 0.38639503722E+01 0.37200554935E+01
 0.38637485624E+01 0.43058965696E+01 0.50864689692E+01 0.62866482719E+01 0.80149773583E+01
 0.10292121016E+02 0.13018676957E+02 0.15913529964E+02 0.18202641160E+02 0.18961836375E+02
 0.18316012344E+02 0.17785063976E+02 0.18317271869E+02 0.18963444222E+02 0.18203836716E+02
 0.15914133708E+02 0.13018593569E+02 0.10291272631E+02 0.63884467352E+01 0.49923787461E+01
 0.40560727242E+01 0.34803561779E+01 0.32046033272E+01 0.32036638704E+01 0.34789102707E+01
 0.40562655485E+01 0.49940568549E+01 0.63894695000E+01 0.83425975465E+01 0.10801772153E+02
 0.13672057166E+02 0.16495850398E+02 0.18391942307E+02 0.18770459556E+02 0.18315060689E+02
 0.18317271869E+02 0.18774635454E+02 0.18393935081E+02 0.16494918803E+02 0.13670886222E+02
 0.10802098346E+02 0.83430911019E+01 0.49328764340E+01 0.38689400156E+01 0.31788287449E+01
 0.27897320552E+01 0.26639116207E+01 0.27899186706E+01 0.31789040122E+01 0.38688152952E+01
 0.49328849520E+01 0.64754302195E+01 0.85703935322E+01 0.11113407597E+02 0.13989845973E+02
 0.16660594620E+02 0.18391957459E+02 0.18961913281E+02 0.18993493849E+02 0.18963444222E+02
 0.18393935081E+02 0.16661825632E+02 0.13989890864E+02 0.11112627612E+02 0.85694829429E+01
 0.64749321590E+01 0.37381570748E+01 0.29602475033E+01 0.24776251574E+01 0.22456544038E+01
 0.22464276537E+01 0.24788068675E+01 0.29600350259E+01 0.37366246742E+01 0.48920487706E+01
 0.65277955398E+01 0.86645911913E+01 0.11218404262E+02 0.13989393592E+02 0.16493449328E+02
 0.18202503355E+02 0.18963785642E+02 0.18964291937E+02 0.18203836716E+02 0.16494918803E+02
 0.13989890864E+02 0.11217294563E+02 0.86626925879E+01 0.65269095174E+01 0.48930082537E+01
 0.28170411552E+01 0.22652520070E+01 0.19490864686E+01 0.18454073001E+01 0.19489466971E+01
 0.22652259275E+01 0.28169104510E+01 0.36568332837E+01 0.48704376019E+01 0.65442497536E+01
 0.86647237908E+01 0.11115364044E+02 0.13671338517E+02 0.15911397857E+02 0.17407851859E+02
 0.17925479274E+02 0.17410969603E+02 0.15914133708E+02 0.13670886222E+02 0.11112627612E+02
 0.86626925879E+01 0.65443977173E+01 0.48717080204E+01 0.36576666732E+01 0.21415799754E+01
 0.17629200869E+01 0.15786855259E+01 0.15781604890E+01 0.17621499717E+01 0.21417053575E+01
 0.27459554952E+01 0.36303023001E+01 0.48705600539E+01 0.65263263410E+01 0.85705245320E+01
 0.10803605650E+02 0.13018618453E+02 0.14823662869E+02 0.15839657429E+02 0.15840568784E+02
 0.14825124914E+02 0.13018593569E+02 0.10802098346E+02 0.85694829429E+01 0.65269095174E+01
 0.48717080204E+01 0.36304709979E+01 0.27452988017E+01 0.16734476239E+01 0.14281831707E+01
 0.13479283097E+01 0.14279792378E+01 0.16734298648E+01 0.21014506763E+01 0.27459334413E+01
 0.36578066348E+01 0.48922037714E+01 0.64735557157E+01 0.83422416443E+01 0.10291872705E+02
 0.12064775908E+02 0.13325610036E+02 0.13783957358E+02 0.13324026469E+02 0.12062973859E+02
 0.10291272631E+02 0.83430911019E+01 0.64749321590E+01 0.48930082537E+01 0.36576666732E+01
 0.27452988017E+01 0.21010057892E+01 0.11670914797E+01 0.11083930210E+01 0.11669912787E+01
 0.13481229269E+01 0.16660131827E+01 0.21416158125E+01 0.27996799488E+01 0.36615582286E+01
 0.47292129920E+01 0.59607829751E+01 0.72472196219E+01 0.84086224301E+01 0.92286519782E+01
 0.95257875686E+01 0.92286561624E+01 0.84086023930E+01 0.72471301998E+01 0.59606494685E+01
 0.47291586384E+01 0.36616385712E+01 0.27997619422E+01 0.21415637218E+01 0.16659136681E+01
 0.13481439755E+01 0.11083930210E+01 0.11085016495E+01 0.12093703889E+01 0.14216744418E+01
 0.17621960869E+01 0.22486043077E+01 0.28951124532E+01 0.37049295592E+01 0.46561731520E+01
 0.56847602250E+01 0.66750280934E+01 0.74716522012E+01 0.79195759301E+01 0.79200436352E+01
 0.74725576953E+01 0.66753640327E+01 0.56840158537E+01 0.46548750971E+01 0.37041302281E+01
 0.28953537691E+01 0.22494844791E+01 0.17629271376E+01 0.14218688225E+01 0.12092201482E+01
 0.11669912787E+01 0.12093703889E+01 0.13420748491E+01 0.15786697319E+01 0.19341871508E+01
 0.24198303221E+01 0.30387344804E+01 0.37787677707E+01 0.46011892260E+01 0.54309123911E+01
 0.61585640399E+01 0.66617322836E+01 0.68420471939E+01 0.66616639661E+01 0.61585115674E+01
 0.54309241824E+01 0.46012301347E+01 0.37787993901E+01 0.30387706237E+01 0.24198883687E+01
 0.19342433496E+01 0.15786942667E+01 0.13420723292E+01 0.12093631610E+01 0.13481229269E+01
 0.14216744418E+01 0.15786697319E+01 0.18320753157E+01 0.21919334939E+01 0.26617688633E+01
 0.32354842714E+01 0.38908713661E+01 0.45806452403E+01 0.52285757692E+01 0.57391766195E+01
 0.60220750943E+01 0.60218478237E+01 0.57385944608E+01 0.52280383856E+01 0.45807752670E+01
 0.38919060029E+01 0.32367620841E+01 0.26622056367E+01 0.21911699292E+01 0.18309076727E+01
 0.15781359719E+01 0.14218966683E+01 0.13483559103E+01 0.16660131827E+01 0.17621960869E+01
 0.19341871508E+01 0.21919334939E+01 0.25399062581E+01 0.29751324734E+01 0.34854171459E+01
 0.40437575100E+01 0.46011321759E+01 0.50864564510E+01 0.54204230206E+01 0.55398391552E+01
 0.54205055106E+01 0.50865357153E+01 0.46011509825E+01 0.40437388791E+01 0.34853992507E+01
 0.29751164550E+01 0.25398815855E+01 0.21918997938E+01 0.19341374489E+01 0.17621259052E+01
 0.16659545184E+01 0.16353763119E+01 0.21416158125E+01 0.22486043077E+01 0.24198303221E+01
 0.26617688633E+01 0.29751324734E+01 0.33534324557E+01 0.37816027792E+01 0.42313821809E+01
 0.46561632825E+01 0.49937668414E+01 0.51821588614E+01 0.51822110478E+01 0.49940428375E+01
 0.46566579988E+01 0.42315651894E+01 0.37809039375E+01 0.33521386863E+01 0.29743398069E+01
 0.26622011780E+01 0.24209945566E+01 0.22494272641E+01 0.21417169929E+01 0.20905501771E+01
 0.20906498740E+01 0.27996799488E+01 0.28951124532E+01 0.30387344804E+01 0.32354842714E+01
 0.34854171459E+01 0.37816027792E+01 0.41082900682E+01 0.44379120120E+01 0.47292387352E+01
 0.49327783889E+01 0.50061923312E+01 0.49326312520E+01 0.47290262306E+01 0.44377486930E+01
 0.41082455784E+01 0.37816549619E+01 0.34854887570E+01 0.32355300363E+01 0.30387804374E+01
 0.28952049926E+01 0.27998113769E+01 0.27459631031E+01 0.27285810254E+01 0.27458631718E+01
 0.36615582286E+01 0.37049295592E+01 0.37787677707E+01 0.38908713661E+01 0.40437575100E+01
 0.42313821809E+01 0.44379120120E+01 0.46382612677E+01 0.48004483536E+01 0.48921650532E+01
 0.48921421307E+01 0.48002120058E+01 0.46377145807E+01 0.44375198893E+01 0.42317754793E+01
 0.40448725101E+01 0.38918559708E+01 0.37788470069E+01 0.37041386110E+01 0.36605377643E+01
 0.36386849194E+01 0.36302705877E+01 0.36304988574E+01 0.36393852329E+01 0.47292129920E+01
 0.46561731520E+01 0.46011892260E+01 0.45806452403E+01 0.46011321759E+01 0.46561632825E+01
 0.47292387352E+01 0.48004483536E+01 0.48518018837E+01 0.48705336871E+01 0.48518703434E+01
 0.48004945184E+01 0.47292659436E+01 0.46562479194E+01 0.46012299093E+01 0.45806325427E+01
 0.46010833904E+01 0.46560941345E+01 0.47291518942E+01 0.48003601717E+01 0.48517516377E+01
 0.48705442147E+01 0.48519097433E+01 0.48005006578E+01 0.59607829751E+01 0.56847602250E+01
 0.54309123911E+01 0.52285757692E+01 0.50864564510E+01 0.49937668414E+01 0.49327783889E+01
 0.48921650532E+01 0.48705336871E+01 0.48705214283E+01 0.48921959608E+01 0.49329926090E+01
 0.49941271424E+01 0.50865358103E+01 0.52279183406E+01 0.54297555873E+01 0.56840484729E+01
 0.59612070489E+01 0.62197646284E+01 0.64188743334E+01 0.65268658293E+01 0.65263900023E+01
 0.64176596154E+01 0.62184991746E+01 0.72472196219E+01 0.66750280934E+01 0.61585640399E+01
 0.57391766195E+01 0.54204230206E+01 0.51821588614E+01 0.50061923312E+01 0.48921421307E+01
 0.48518703434E+01 0.48921959608E+01 0.50061115903E+01 0.51819924718E+01 0.54203959442E+01
 0.57392289240E+01 0.61584540373E+01 0.66748538653E+01 0.72473069329E+01 0.78042763337E+01
 0.82668295049E+01 0.85705884316E+01 0.86599803750E+01 0.85706373752E+01 0.82666720995E+01
 0.78039727671E+01 0.84086224301E+01 0.74716522012E+01 0.66617322836E+01 0.60220750943E+01
 0.55398391552E+01 0.51822110478E+01 0.49326312520E+01 0.48002120058E+01 0.48004945184E+01
 0.49329926090E+01 0.51819924718E+01 0.55392640082E+01 0.60219029581E+01 0.66622721965E+01
 0.74726023218E+01 0.84094480775E+01 0.93670526468E+01 0.10187070179E+02 0.10802025029E+02
 0.11131761201E+02 0.11132588181E+02 0.10803705287E+02 0.10188169624E+02 0.93669889628E+01
 0.92286519782E+01 0.79195759301E+01 0.68420471939E+01 0.60218478237E+01 0.54205055106E+01
 0.49940428375E+01 0.47290262306E+01 0.46377145807E+01 0.47292659436E+01 0.49941271424E+01
 0.54203959442E+01 0.60219029581E+01 0.68423041686E+01 0.79196950308E+01 0.92285851920E+01
 0.10622582912E+02 0.11936083053E+02 0.13018519135E+02 0.13726807482E+02 0.13971962479E+02
 0.13727124653E+02 0.13018703575E+02 0.11936015886E+02 0.10622563400E+02 0.95257875686E+01
 0.79200436352E+01 0.66616639661E+01 0.57385944608E+01 0.50865357153E+01 0.46566579988E+01
 0.44377486930E+01 0.44375198893E+01 0.46562479194E+01 0.50865358103E+01 0.57392289240E+01
 0.66622721965E+01 0.79196950308E+01 0.95245691486E+01 0.11337489900E+02 0.13178583277E+02
 0.14824943462E+02 0.16030056634E+02 0.16647698999E+02 0.16647331065E+02 0.16029014833E+02
 0.14823740608E+02 0.13178212609E+02 0.11338362897E+02 0.92286561624E+01 0.74725576953E+01
 0.61585115674E+01 0.52280383856E+01 0.46011509825E+01 0.42315651894E+01 0.41082455784E+01
 0.42317754793E+01 0.46012299093E+01 0.52279183406E+01 0.61584540373E+01 0.74726023218E+01
 0.92285851920E+01 0.11337489900E+02 0.13629898688E+02 0.15839802588E+02 0.17591913366E+02
 0.18628602447E+02 0.18951882680E+02 0.18628803176E+02 0.17591972163E+02 0.15839672290E+02
 0.13629881197E+02 0.11337643547E+02 0.84086023930E+01 0.66753640327E+01 0.54309241824E+01
 0.45807752670E+01 0.40437388791E+01 0.37809039375E+01 0.37816549619E+01 0.40448725101E+01
 0.45806325427E+01 0.54297555873E+01 0.66748538653E+01 0.84094480775E+01 0.10622582912E+02
 0.13178583277E+02 0.15839802588E+02 0.18137471444E+02 0.19619257680E+02 0.20232264286E+02
 0.20232508146E+02 0.19619962859E+02 0.18138441445E+02 0.15840477550E+02 0.13178290436E+02
 0.10621411203E+02 0.72471301998E+01 0.56840158537E+01 0.46012301347E+01 0.38919060029E+01
 0.34853992507E+01 0.33521386863E+01 0.34854887570E+01 0.38918559708E+01 0.46010833904E+01
 0.56840484729E+01 0.72473069329E+01 0.93670526468E+01 0.11936083053E+02 0.14824943462E+02
 0.17591913366E+02 0.19619257680E+02 0.20599568531E+02 0.20833213290E+02 0.20599611575E+02
 0.19619159366E+02 0.17591750566E+02 0.14824980924E+02 0.11936257298E+02 0.93670468123E+01
 0.59606494685E+01 0.46548750971E+01 0.37787993901E+01 0.32367620841E+01 0.29751164550E+01
 0.29743398069E+01 0.32355300363E+01 0.37788470069E+01 0.46560941345E+01 0.59612070489E+01
 0.78042763337E+01 0.10187070179E+02 0.13018519135E+02 0.16030056634E+02 0.18628602447E+02
 0.20232264286E+02 0.20833213290E+02 0.20833566853E+02 0.20232512534E+02 0.18627719752E+02
 0.16028750388E+02 0.13018473495E+02 0.10188463413E+02 0.78053447820E+01 0.47291586384E+01
 0.37041302281E+01 0.30387706237E+01 0.26622056367E+01 0.25398815855E+01 0.26622011780E+01
 0.30387804374E+01 0.37041386110E+01 0.47291518942E+01 0.62197646284E+01 0.82668295049E+01
 0.10802025029E+02 0.13726807482E+02 0.16647698999E+02 0.18951882680E+02 0.20232508146E+02
 0.20599611575E+02 0.20232512534E+02 0.18952000882E+02 0.16647915289E+02 0.13726950090E+02
 0.10802008354E+02 0.82667555426E+01 0.62197401750E+01 0.36616385712E+01 0.28953537691E+01
 0.24198883687E+01 0.21911699292E+01 0.21918997938E+01 0.24209945566E+01 0.28952049926E+01
 0.36605377643E+01 0.48003601717E+01 0.64188743334E+01 0.85705884316E+01 0.11131761201E+02
 0.13971962479E+02 0.16647331065E+02 0.18628803176E+02 0.19619962859E+02 0.19619159366E+02
 0.18627719752E+02 0.16647915289E+02 0.13973767763E+02 0.11132501835E+02 0.85694118635E+01
 0.64175023632E+01 0.48005399813E+01 0.27997619422E+01 0.22494844791E+01 0.19342433496E+01
 0.18309076727E+01 0.19341374489E+01 0.22494272641E+01 0.27998113769E+01 0.36386849194E+01
 0.48517516377E+01 0.65268658293E+01 0.86599803750E+01 0.11132588181E+02 0.13727124653E+02
 0.16029014833E+02 0.17591972163E+02 0.18138441445E+02 0.17591750566E+02 0.16028750388E+02
 0.13726950090E+02 0.11132501835E+02 0.86599582998E+01 0.65268972688E+01 0.48517715480E+01
 0.36386347210E+01 0.21415637218E+01 0.17629271376E+01 0.15786942667E+01 0.15781359719E+01
 0.17621259052E+01 0.21417169929E+01 0.27459631031E+01 0.36302705877E+01 0.48705442147E+01
 0.65263900023E+01 0.85706373752E+01 0.10803705287E+02 0.13018703575E+02 0.14823740608E+02
 0.15839672290E+02 0.15840477550E+02 0.14824980924E+02 0.13018473495E+02 0.10802008354E+02
 0.85694118635E+01 0.65268972688E+01 0.48717736267E+01 0.36305442143E+01 0.27453120887E+01
 0.16659136681E+01 0.14218688225E+01 0.13420723292E+01 0.14218966683E+01 0.16659545184E+01
 0.20905501771E+01 0.27285810254E+01 0.36304988574E+01 0.48519097433E+01 0.64176596154E+01
 0.82666720995E+01 0.10188169624E+02 0.11936015886E+02 0.13178212609E+02 0.13629881197E+02
 0.13178290436E+02 0.11936257298E+02 0.10188463413E+02 0.82667555426E+01 0.64175023632E+01
 0.48517715480E+01 0.36305442143E+01 0.27286904879E+01 0.20905735858E+01 0.13481439755E+01
 0.12092201482E+01 0.12093631610E+01 0.13483559103E+01 0.16353763119E+01 0.20906498740E+01
 0.27458631718E+01 0.36393852329E+01 0.48005006578E+01 0.62184991746E+01 0.78039727671E+01
 0.93669889628E+01 0.10622563400E+02 0.11338362897E+02 0.11337643547E+02 0.10621411203E+02
 0.93670468123E+01 0.78053447820E+01 0.62197401750E+01 0.48005399813E+01 0.36386347210E+01
 0.27453120887E+01 0.20905735858E+01 0.16353520311E+01 0.10470743374E+01 0.10470645087E+01
 0.11443086646E+01 0.13480779406E+01 0.16734478737E+01 0.21372237223E+01 0.27537430880E+01
 0.35271851852E+01 0.44378721698E+01 0.54255612883E+01 0.63794695853E+01 0.71488132546E+01
 0.75818243344E+01 0.75817682398E+01 0.71488232997E+01 0.63797627804E+01 0.54259668953E+01
 0.44379990747E+01 0.35269237876E+01 0.27533609418E+01 0.21369993706E+01 0.16734127968E+01
 0.13481171240E+01 0.11443407973E+01 0.10470645087E+01 0.10865045206E+01 0.12093703645E+01
 0.14278846477E+01 0.17561818763E+01 0.22054465093E+01 0.27793570683E+01 0.34667828068E+01
 0.42314050070E+01 0.50032827636E+01 0.56808214464E+01 0.61499414147E+01 0.63183745365E+01
 0.61502815272E+01 0.56810992861E+01 0.50030502252E+01 0.42306422916E+01 0.34660211843E+01
 0.27792082494E+01 0.22059852436E+01 0.17568891258E+01 0.14282060971E+01 0.12092283841E+01
 0.10862552048E+01 0.11443086646E+01 0.12093703645E+01 0.13479481548E+01 0.15723937502E+01
 0.18933457518E+01 0.23154399645E+01 0.28330814348E+01 0.34242340782E+01 0.40438113236E+01
 0.46223889441E+01 0.50758668318E+01 0.53262628112E+01 0.53262567921E+01 0.50758451526E+01
 0.46223442530E+01 0.40437518710E+01 0.34242026041E+01 0.28331244029E+01 0.23155447431E+01
 0.18934405798E+01 0.15724277228E+01 0.13479396276E+01 0.12093604648E+01 0.11443071947E+01
 0.13480779406E+01 0.14278846477E+01 0.15723937502E+01 0.17919788340E+01 0.20926722241E+01
 0.24730327802E+01 0.29209350189E+01 0.34089352050E+01 0.38908455560E+01 0.43049614772E+01
 0.45866438796E+01 0.46865205569E+01 0.45862475046E+01 0.43045752040E+01 0.38909640492E+01
 0.34096761898E+01 0.29218294488E+01 0.24733833838E+01 0.20922155812E+01 0.17911523696E+01
 0.15718823883E+01 0.14279361791E+01 0.13483357465E+01 0.13230062607E+01 0.16734478737E+01
 0.17561818763E+01 0.18933457518E+01 0.20926722241E+01 0.23561164865E+01 0.26780443405E+01
 0.30433268141E+01 0.34241727261E+01 0.37786994129E+01 0.40560645708E+01 0.42090557243E+01
 0.42090724231E+01 0.40561039021E+01 0.37787514094E+01 0.34242392221E+01 0.30433831378E+01
 0.26780369666E+01 0.23560344657E+01 0.20925752258E+01 0.18932856147E+01 0.17561445732E+01
 0.16734085497E+01 0.16353814943E+01 0.16354021089E+01 0.21372237223E+01 0.22054465093E+01
 0.23154399645E+01 0.24730327802E+01 0.26780443405E+01 0.29235111751E+01 0.31946606561E+01
 0.34667760056E+01 0.37049291768E+01 0.38697043388E+01 0.39289733428E+01 0.38701183280E+01
 0.37053489823E+01 0.34667121400E+01 0.31939641863E+01 0.29225658596E+01 0.26775188711E+01
 0.24733177719E+01 0.23162666045E+01 0.22061383959E+01 0.21373852198E+01 0.21014879798E+01
 0.20906813184E+01 0.21016251012E+01 0.27537430880E+01 0.27793570683E+01 0.28330814348E+01
 0.29209350189E+01 0.30433268141E+01 0.31946606561E+01 0.33626469208E+01 0.35272373318E+01
 0.36615889645E+01 0.37380030304E+01 0.37381566238E+01 0.36617499803E+01 0.35269605807E+01
 0.33620222497E+01 0.31942278974E+01 0.30433993366E+01 0.29213007873E+01 0.28333814677E+01
 0.27795022668E+01 0.27538598784E+01 0.27462957695E+01 0.27459505463E+01 0.27458800350E+01
 0.27461546181E+01 0.35271851852E+01 0.34667828068E+01 0.34242340782E+01 0.34089352050E+01
 0.34241727261E+01 0.34667760056E+01 0.35272373318E+01 0.35906711274E+01 0.36393450559E+01
 0.36577809809E+01 0.36393586934E+01 0.35901392398E+01 0.35262293236E+01 0.34663124210E+01
 0.34249557960E+01 0.34103094179E+01 0.34249167665E+01 0.34663401338E+01 0.35263136470E+01
 0.35901590344E+01 0.36393106228E+01 0.36577802105E+01 0.36393977262E+01 0.35906703698E+01
 0.44378721698E+01 0.42314050070E+01 0.40438113236E+01 0.38908455560E+01 0.37786994129E+01
 0.37049291768E+01 0.36615889645E+01 0.36393450559E+01 0.36304446799E+01 0.36303293949E+01
 0.36388144403E+01 0.36606013278E+01 0.37041431466E+01 0.37788823752E+01 0.38918776690E+01
 0.40447770181E+01 0.42316206468E+01 0.44374439592E+01 0.46377056669E+01 0.48001754975E+01
 0.48921157901E+01 0.48922410326E+01 0.48005605138E+01 0.46382790231E+01 0.54255612883E+01
 0.50032827636E+01 0.46223889441E+01 0.43049614772E+01 0.40560645708E+01 0.38697043388E+01
 0.37380030304E+01 0.36577809809E+01 0.36303293949E+01 0.36569841819E+01 0.37367797606E+01
 0.38688492109E+01 0.40562225824E+01 0.43058413361E+01 0.46230169207E+01 0.50031604251E+01
 0.54251469770E+01 0.58489771700E+01 0.62189700744E+01 0.64740792027E+01 0.65652758703E+01
 0.64737045847E+01 0.62185920526E+01 0.58490257947E+01 0.63794695853E+01 0.56808214464E+01
 0.50758668318E+01 0.45866438796E+01 0.42090557243E+01 0.39289733428E+01 0.37381566238E+01
 0.36393586934E+01 0.36388144403E+01 0.37367797606E+01 0.39276695479E+01 0.42090267984E+01
 0.45881146484E+01 0.50775123475E+01 0.56811281765E+01 0.63784209827E+01 0.71147965970E+01
 0.78037547289E+01 0.83427782377E+01 0.86395208069E+01 0.86392620116E+01 0.83423908041E+01
 0.78040193588E+01 0.71159281919E+01 0.71488132546E+01 0.61499414147E+01 0.53262628112E+01
 0.46865205569E+01 0.42090724231E+01 0.38701183280E+01 0.36617499803E+01 0.35901392398E+01
 0.36606013278E+01 0.38688492109E+01 0.42090267984E+01 0.46880884709E+01 0.53282893071E+01
 0.61508524440E+01 0.71482254002E+01 0.82596040268E+01 0.93657902254E+01 0.10290996466E+02
 0.10924977628E+02 0.11150826844E+02 0.10925578028E+02 0.10291929582E+02 0.93669597244E+01
 0.82608627145E+01 0.75818243344E+01 0.63183745365E+01 0.53262567921E+01 0.45862475046E+01
 0.40561039021E+01 0.37053489823E+01 0.35269605807E+01 0.35262293236E+01 0.37041431466E+01
 0.40562225824E+01 0.45881146484E+01 0.53282893071E+01 0.63187789718E+01 0.75806228343E+01
 0.90679678158E+01 0.10621961946E+02 0.12064562887E+02 0.13195965279E+02 0.13821845945E+02
 0.13822115546E+02 0.13196386311E+02 0.12064779801E+02 0.10622497988E+02 0.90692856814E+01
 0.75817682398E+01 0.61502815272E+01 0.50758451526E+01 0.43045752040E+01 0.37787514094E+01
 0.34667121400E+01 0.33620222497E+01 0.34663124210E+01 0.37788823752E+01 0.43058413361E+01
 0.50775123475E+01 0.61508524440E+01 0.75806228343E+01 0.93599385525E+01 0.11337221484E+02
 0.13325862692E+02 0.15063440387E+02 0.16251017082E+02 0.16671713599E+02 0.16250323678E+02
 0.15062504049E+02 0.13325585940E+02 0.11338276548E+02 0.93618021437E+01 0.71488232997E+01
 0.56810992861E+01 0.46223442530E+01 0.38909640492E+01 0.34242392221E+01 0.31939641863E+01
 0.31942278974E+01 0.34249557960E+01 0.38918776690E+01 0.46230169207E+01 0.56811281765E+01
 0.71482254002E+01 0.90679678158E+01 0.11337221484E+02 0.13783866878E+02 0.16120570715E+02
 0.17952072166E+02 0.18947674260E+02 0.18947903102E+02 0.17952456908E+02 0.16120685436E+02
 0.13783833852E+02 0.11337516509E+02 0.90686695688E+01 0.63797627804E+01 0.50030502252E+01
 0.40437518710E+01 0.34096761898E+01 0.30433831378E+01 0.29225658596E+01 0.30433993366E+01
 0.34103094179E+01 0.40447770181E+01 0.50031604251E+01 0.63784209827E+01 0.82596040268E+01
 0.10621961946E+02 0.13325862692E+02 0.16120570715E+02 0.18560437728E+02 0.20192597798E+02
 0.20758576812E+02 0.20195129578E+02 0.18562424002E+02 0.16119859815E+02 0.13323796125E+02
 0.10621275852E+02 0.82608695114E+01 0.54259668953E+01 0.42306422916E+01 0.34242026041E+01
 0.29218294488E+01 0.26780369666E+01 0.26775188711E+01 0.29213007873E+01 0.34249167665E+01
 0.42316206468E+01 0.54251469770E+01 0.71147965970E+01 0.93657902254E+01 0.12064562887E+02
 0.15063440387E+02 0.17952072166E+02 0.20192597798E+02 0.21383861036E+02 0.21384987669E+02
 0.20194176979E+02 0.17951286531E+02 0.15060558852E+02 0.12062769910E+02 0.93669820131E+01
 0.71172115548E+01 0.44379990747E+01 0.34660211843E+01 0.28331244029E+01 0.24733833838E+01
 0.23560344657E+01 0.24733177719E+01 0.28333814677E+01 0.34663401338E+01 0.44374439592E+01
 0.58489771700E+01 0.78037547289E+01 0.10290996466E+02 0.13195965279E+02 0.16251017082E+02
 0.18947674260E+02 0.20758576812E+02 0.21384987669E+02 0.20757686013E+02 0.18945961515E+02
 0.16248945661E+02 0.13194552262E+02 0.10291189100E+02 0.78053697317E+01 0.58506386682E+01
 0.35269237876E+01 0.27792082494E+01 0.23155447431E+01 0.20922155812E+01 0.20925752258E+01
 0.23162666045E+01 0.27795022668E+01 0.35263136470E+01 0.46377056669E+01 0.62189700744E+01
 0.83427782377E+01 0.10924977628E+02 0.13821845945E+02 0.16671713599E+02 0.18947903102E+02
 0.20195129578E+02 0.20194176979E+02 0.18945961515E+02 0.16670322367E+02 0.13821419537E+02
 0.10924999384E+02 0.83430783808E+01 0.62198025055E+01 0.46388258174E+01 0.27533609418E+01
 0.22059852436E+01 0.18934405798E+01 0.17911523696E+01 0.18932856147E+01 0.22061383959E+01
 0.27538598784E+01 0.35901590344E+01 0.48001754975E+01 0.64740792027E+01 0.86395208069E+01
 0.11150826844E+02 0.13822115546E+02 0.16250323678E+02 0.17952456908E+02 0.18562424002E+02
 0.17951286531E+02 0.16248945661E+02 0.13821419537E+02 0.11150993548E+02 0.86402675933E+01
 0.64749468650E+01 0.48006108146E+01 0.35899137929E+01 0.21369993706E+01 0.17568891258E+01
 0.15724277228E+01 0.15718823883E+01 0.17561445732E+01 0.21373852198E+01 0.27462957695E+01
 0.36393106228E+01 0.48921157901E+01 0.65652758703E+01 0.86392620116E+01 0.10925578028E+02
 0.13196386311E+02 0.15062504049E+02 0.16120685436E+02 0.16119859815E+02 0.15060558852E+02
 0.13194552262E+02 0.10924999384E+02 0.86402675933E+01 0.65670275034E+01 0.48930968424E+01
 0.36387228815E+01 0.27450237896E+01 0.16734127968E+01 0.14282060971E+01 0.13479396276E+01
 0.14279361791E+01 0.16734085497E+01 0.21014879798E+01 0.27459505463E+01 0.36577802105E+01
 0.48922410326E+01 0.64737045847E+01 0.83423908041E+01 0.10291929582E+02 0.12064779801E+02
 0.13325585940E+02 0.13783833852E+02 0.13323796125E+02 0.12062769910E+02 0.10291189100E+02
 0.83430783808E+01 0.64749468650E+01 0.48930968424E+01 0.36578177571E+01 0.27453877946E+01
 0.21009814777E+01 0.13481171240E+01 0.12092283841E+01 0.12093604648E+01 0.13483357465E+01
 0.16353814943E+01 0.20906813184E+01 0.27458800350E+01 0.36393977262E+01 0.48005605138E+01
 0.62185920526E+01 0.78040193588E+01 0.93669597244E+01 0.10622497988E+02 0.11338276548E+02
 0.11337516509E+02 0.10621275852E+02 0.93669820131E+01 0.78053697317E+01 0.62198025055E+01
 0.48006108146E+01 0.36387228815E+01 0.27453877946E+01 0.20905813969E+01 0.16353065920E+01
 0.11443407973E+01 0.10862552048E+01 0.11443071947E+01 0.13230062607E+01 0.16354021089E+01
 0.21016251012E+01 0.27461546181E+01 0.35906703698E+01 0.46382790231E+01 0.58490257947E+01
 0.71159281919E+01 0.82608627145E+01 0.90692856814E+01 0.93618021437E+01 0.90686695688E+01
 0.82608695114E+01 0.71172115548E+01 0.58506386682E+01 0.46388258174E+01 0.35899137929E+01
 0.27450237896E+01 0.21009814777E+01 0.16353065920E+01 0.13230838986E+01  
