qvasp                                   
   1.00000000000000     
     0.000000    1.783400    1.783400
     1.783400    0.000000    1.783400
     1.783400    1.783400    0.000000
   C 
     2
Direct
  0.750000  0.750000  0.750000
  0.500000  0.500000  0.500000
 
   24   24   24
 -.87909991686E-06 0.49398342518E-06 -.15895706203E-06 0.33283744487E-07 0.65483931722E-06
 0.90263858409E-06 0.53614498001E-05 0.12056358378E-04 0.32958248794E-04 0.66292300522E-04
 0.11627163937E-03 0.15887708105E-03 0.18186671723E-03 0.16773660201E-03 0.14278060107E-03
 0.86974629472E-04 0.10843862352E-04 -.13786585003E-04 0.18445448308E-04 0.13677496041E-04
 -.63243630999E-05 0.41837867376E-05 -.34598878221E-05 0.91892328124E-06 0.49398344026E-06
 -.24182655415E-06 0.24307447600E-07 0.23119868590E-06 -.34296828083E-07 0.12470056517E-05
 0.15250802285E-05 0.63320170403E-05 0.11478239207E-04 0.22259231182E-04 0.33218534851E-04
 0.42973582857E-04 0.42674753139E-04 0.29476482701E-04 0.37761205683E-05 -.20531946284E-05
 0.14447399842E-04 0.20423744958E-04 -.72490653761E-05 -.91548716902E-05 0.50425791307E-05
 -.30532619887E-05 0.25885923444E-05 -.45388017901E-06 -.15895704730E-06 0.24307408075E-07
 0.20667196532E-06 -.24953000554E-06 0.59595862403E-06 -.42617153066E-07 0.20540088913E-05
 0.20283686659E-05 0.59625135888E-05 0.86390577871E-05 0.11941942170E-04 0.12174617517E-04
 0.10550967756E-04 0.10812858470E-04 0.20545896666E-04 0.16438057220E-04 -.57120767311E-05
 -.15092488195E-04 0.54050712426E-05 0.83071043485E-05 -.37890720507E-05 0.24812018572E-05
 -.19368924846E-05 0.14509461042E-06 0.33283753514E-07 0.23119868114E-06 -.24953001784E-06
 0.48994211916E-06 -.35426453521E-06 0.93112467822E-06 -.59033977164E-07 0.22654665024E-05
 0.18568673036E-05 0.30598755729E-05 0.33756907656E-05 0.32662497307E-05 0.38442534486E-05
 0.15143414114E-05 -.11969148797E-04 -.12577434788E-04 0.60194075411E-05 0.13875179936E-04
 -.33445359630E-05 -.74274316554E-05 0.31088579695E-05 -.19968607329E-05 0.15746155400E-05
 0.20481153923E-06 0.65483926711E-06 -.34296823996E-07 0.59595862087E-06 -.35426452599E-06
 0.82100507350E-06 -.46630002517E-07 0.20540088097E-05 0.14488179878E-05 0.40194516686E-05
 0.52881954050E-05 0.56972604520E-05 0.65408068684E-05 0.34390924874E-05 0.16700615899E-05
 0.13395413611E-04 0.14343981096E-04 -.41807125938E-05 -.12408234815E-04 0.21917043289E-05
 0.71478613046E-05 -.20489058162E-05 0.23228829620E-05 -.50818317187E-06 0.21175157493E-06
 0.90263858492E-06 0.12470056614E-05 -.42617139145E-07 0.93112467735E-06 -.46630031705E-07
 0.17945932750E-05 0.15250802251E-05 0.47987873774E-05 0.55541890380E-05 0.61399077109E-05
 0.70050336927E-05 0.26839096745E-05 0.33884935879E-05 0.42585600076E-05 -.93769968882E-05
 -.13667395172E-04 0.28116313277E-05 0.12174293667E-04 -.98329372256E-07 -.49610877356E-05
 0.38588680228E-05 0.66382384362E-06 0.29484659883E-05 0.23663039904E-05 0.53614497986E-05
 0.15250802464E-05 0.20540088632E-05 -.59033990538E-07 0.20540088842E-05 0.15250802237E-05
 0.53614497846E-05 0.60969899398E-05 0.95132910357E-05 0.11390232617E-04 0.84235276408E-05
 0.12095265823E-04 0.57023198249E-05 -.98565295456E-05 0.20700685465E-05 0.23806287465E-04
 0.20700685470E-05 -.98565295509E-05 0.57023199069E-05 0.12095265876E-04 0.84235276345E-05
 0.11390232641E-04 0.95132910426E-05 0.60969899288E-05 0.12056358334E-04 0.63320170497E-05
 0.20283686878E-05 0.22654664985E-05 0.14488179998E-05 0.47987874030E-05 0.60969899558E-05
 0.11315649212E-04 0.12559326524E-04 0.12225728906E-04 0.19342694890E-04 0.17304298998E-04
 0.22502107421E-04 0.25643319549E-04 -.29669869050E-04 -.20376013941E-04 0.11705897761E-04
 0.13775877298E-04 0.26300337506E-04 0.27563344349E-04 0.44929344230E-04 0.40352593533E-04
 0.35037598641E-04 0.23136904122E-04 0.32958248810E-04 0.11478239218E-04 0.59625136051E-05
 0.18568672898E-05 0.40194516845E-05 0.55541890119E-05 0.95132910205E-05 0.12559326526E-04
 0.13401255824E-04 0.25058917761E-04 0.11359574349E-04 0.32299483014E-04 0.54631212446E-04
 0.10667380616E-04 -.35798372486E-04 0.30233220122E-04 0.53557664963E-04 0.49987086483E-04
 0.11769478485E-03 0.16063764627E-03 0.18081569017E-03 0.15958263645E-03 0.11554811371E-03
 0.63748436501E-04 0.66292300508E-04 0.22259231192E-04 0.86390577911E-05 0.30598755750E-05
 0.52881954070E-05 0.61399076997E-05 0.11390232634E-04 0.12225728901E-04 0.25058917755E-04
 0.27757268072E-05 0.12088667178E-04 0.31183149122E-04 0.30136662812E-04 0.47974207487E-04
 0.18928710528E-05 0.81302478950E-04 0.17400102939E-03 0.32720773424E-03 0.54230316828E-03
 0.66689385815E-03 0.67944450470E-03 0.52129661661E-03 0.32425776600E-03 0.15847485865E-03
 0.11627163940E-03 0.33218534827E-04 0.11941942204E-04 0.33756907760E-05 0.56972604612E-05
 0.70050336694E-05 0.84235276146E-05 0.19342694853E-04 0.11359574356E-04 0.12088667147E-04
 0.21954445349E-04 0.27615720855E-04 0.12447018837E-03 0.28533738998E-04 0.35797022434E-04
 0.32417324225E-03 0.70598630964E-03 0.14292854241E-02 0.21938053858E-02 0.25360276801E-02
 0.22068753408E-02 0.14705951903E-02 0.76959724313E-03 0.32091826182E-03 0.15887708105E-03
 0.42973582853E-04 0.12174617540E-04 0.32662497741E-05 0.65408069019E-05 0.26839096689E-05
 0.12095265807E-04 0.17304299011E-04 0.32299483006E-04 0.31183149181E-04 0.27615720878E-04
 0.13663702643E-03 0.49478061783E-04 0.11511274352E-04 0.51545103207E-03 0.14903154537E-02
 0.33809191181E-02 0.60262482732E-02 0.80699131406E-02 0.80768530162E-02 0.59865470596E-02
 0.33520853393E-02 0.14657925639E-02 0.52664237769E-03 0.18186671726E-03 0.42674753085E-04
 0.10550967705E-04 0.38442534454E-05 0.34390924503E-05 0.33884936190E-05 0.57023199197E-05
 0.22502107425E-04 0.54631212546E-04 0.30136662784E-04 0.12447018848E-03 0.49478061896E-04
 0.27432175557E-04 0.68091069238E-03 0.23243431669E-02 0.60344798946E-02 0.12879461287E-01
 0.20885637082E-01 0.24645215971E-01 0.20866523469E-01 0.12828269167E-01 0.60081874852E-02
 0.22104239462E-02 0.67410738345E-03 0.16773660200E-03 0.29476482720E-04 0.10812858464E-04
 0.15143413524E-05 0.16700615968E-05 0.42585599670E-05 -.98565295384E-05 0.25643319537E-04
 0.10667380626E-04 0.47974207515E-04 0.28533738956E-04 0.11511274408E-04 0.68091069227E-03
 0.26607416452E-02 0.80954677097E-02 0.20884906370E-01 0.41173861272E-01 0.58685514016E-01
 0.58718463519E-01 0.41191414531E-01 0.20808932885E-01 0.80487266371E-02 0.25565733893E-02
 0.65209219507E-03 0.14278060109E-03 0.37761205624E-05 0.20545896675E-04 -.11969148813E-04
 0.13395413542E-04 -.93769969244E-05 0.20700685667E-05 -.29669869002E-04 -.35798372488E-04
 0.18928710546E-05 0.35797022456E-04 0.51545103210E-03 0.23243431669E-02 0.80954677097E-02
 0.24672821978E-01 0.58661256562E-01 0.10244338100E+00 0.12425996507E+00 0.10251782876E+00
 0.58802718948E-01 0.24588121236E-01 0.80430344067E-02 0.22795395723E-02 0.49585068103E-03
 0.86974629422E-04 -.20531946385E-05 0.16438057181E-04 -.12577434761E-04 0.14343981091E-04
 -.13667395191E-04 0.23806287496E-04 -.20376013938E-04 0.30233220137E-04 0.81302478950E-04
 0.32417324229E-03 0.14903154537E-02 0.60344798946E-02 0.20884906370E-01 0.58661256562E-01
 0.12422377421E+00 0.18495680436E+00 0.18490324196E+00 0.12430895942E+00 0.58874331688E-01
 0.20753305124E-01 0.59997079708E-02 0.14843373109E-02 0.28620598883E-03 0.10843862371E-04
 0.14447399861E-04 -.57120767286E-05 0.60194075674E-05 -.41807125852E-05 0.28116313598E-05
 0.20700685409E-05 0.11705897763E-04 0.53557664951E-04 0.17400102937E-03 0.70598630964E-03
 0.33809191181E-02 0.12879461287E-01 0.41173861272E-01 0.10244338100E+00 0.18495680436E+00
 0.22697553777E+00 0.18494784200E+00 0.10268953599E+00 0.41243590240E-01 0.12589554963E-01
 0.34613472707E-02 0.69558818600E-03 0.17183528862E-03 -.13786585035E-04 0.20423744941E-04
 -.15092488238E-04 0.13875179904E-04 -.12408234786E-04 0.12174293684E-04 -.98565295003E-05
 0.13775877295E-04 0.49987086469E-04 0.32720773423E-03 0.14292854241E-02 0.60262482732E-02
 0.20885637082E-01 0.58685514016E-01 0.12425996507E+00 0.18490324196E+00 0.18494784200E+00
 0.12443930992E+00 0.58883479470E-01 0.20592074411E-01 0.60205302344E-02 0.15650440555E-02
 0.29400226221E-03 0.12069532591E-03 0.18445448271E-04 -.72490653064E-05 0.54050712889E-05
 -.33445360253E-05 0.21917042706E-05 -.98329449485E-07 0.57023199513E-05 0.26300337510E-04
 0.11769478499E-03 0.54230316829E-03 0.21938053859E-02 0.80699131406E-02 0.24645215971E-01
 0.58718463519E-01 0.10251782876E+00 0.12430895942E+00 0.10268953599E+00 0.58883479470E-01
 0.24427294127E-01 0.80194300861E-02 0.24100418340E-02 0.45659201042E-03 0.17390220362E-03
 0.15885424981E-04 0.13677496004E-04 -.91548717128E-05 0.83071043809E-05 -.74274316726E-05
 0.71478612988E-05 -.49610877412E-05 0.12095265802E-04 0.27563344321E-04 0.16063764623E-03
 0.66689385815E-03 0.25360276802E-02 0.80768530162E-02 0.20866523469E-01 0.41191414531E-01
 0.58802718948E-01 0.58874331688E-01 0.41243590240E-01 0.20592074411E-01 0.80194300861E-02
 0.27419505166E-02 0.60955982684E-03 0.17200486526E-03 0.45657423348E-04 0.38302075661E-05
 -.63243631788E-05 0.50425791234E-05 -.37890720578E-05 0.31088579975E-05 -.20489058041E-05
 0.38588680237E-05 0.84235275668E-05 0.44929344231E-04 0.18081569018E-03 0.67944450474E-03
 0.22068753409E-02 0.59865470596E-02 0.12828269167E-01 0.20808932885E-01 0.24588121236E-01
 0.20753305124E-01 0.12589554963E-01 0.60205302345E-02 0.24100418339E-02 0.60955982686E-03
 0.17674042954E-03 0.43261397159E-04 -.94396085231E-05 0.14783684135E-04 0.41837867228E-05
 -.30532619833E-05 0.24812018499E-05 -.19968607020E-05 0.23228829438E-05 0.66382386600E-06
 0.11390232579E-04 0.40352593530E-04 0.15958263644E-03 0.52129661662E-03 0.14705951904E-02
 0.33520853393E-02 0.60081874852E-02 0.80487266371E-02 0.80430344067E-02 0.59997079708E-02
 0.34613472708E-02 0.15650440555E-02 0.45659201037E-03 0.17200486525E-03 0.43261397150E-04
 -.12965880213E-04 0.15324617415E-04 -.35627805111E-05 -.34598878674E-05 0.25885923553E-05
 -.19368924918E-05 0.15746155515E-05 -.50818315240E-06 0.29484659791E-05 0.95132910683E-05
 0.35037598687E-04 0.11554811369E-03 0.32425776603E-03 0.76959724314E-03 0.14657925639E-02
 0.22104239462E-02 0.25565733893E-02 0.22795395723E-02 0.14843373108E-02 0.69558818602E-03
 0.29400226223E-03 0.17390220361E-03 0.45657423320E-04 -.94396085098E-05 0.15324617396E-04
 -.65188253268E-05 0.41545529536E-05 0.91892328402E-06 -.45388017499E-06 0.14509461150E-06
 0.20481154039E-06 0.21175159564E-06 0.23663039839E-05 0.60969899248E-05 0.23136904125E-04
 0.63748436488E-04 0.15847485865E-03 0.32091826180E-03 0.52664237767E-03 0.67410738344E-03
 0.65209219509E-03 0.49585068103E-03 0.28620598882E-03 0.17183528858E-03 0.12069532590E-03
 0.15885424957E-04 0.38302075891E-05 0.14783684135E-04 -.35627805155E-05 0.41545529625E-05
 -.97583974743E-06 0.49398344061E-06 -.24182657730E-06 0.24307399610E-07 0.23119871860E-06
 -.34296796482E-07 0.12470056489E-05 0.15250802941E-05 0.63320170424E-05 0.11478239215E-04
 0.22259231171E-04 0.33218534834E-04 0.42973582853E-04 0.42674753198E-04 0.29476482716E-04
 0.37761205390E-05 -.20531946333E-05 0.14447399830E-04 0.20423744923E-04 -.72490652942E-05
 -.91548717193E-05 0.50425791435E-05 -.30532619672E-05 0.25885923559E-05 -.45388016851E-06
 -.24182650671E-06 0.10666827829E-06 0.66418531211E-07 -.10151591655E-06 0.40535840086E-06
 0.16679343228E-06 0.17945932743E-05 0.23296448078E-05 0.56703176719E-05 0.91335567368E-05
 0.11642498526E-04 0.13061984573E-04 0.94327484104E-05 0.12084517505E-04 0.17358943089E-04
 0.11292108582E-04 0.32708022437E-05 -.96678940412E-05 0.38619142020E-05 0.69732980166E-05
 -.34815478466E-05 0.23296803813E-05 -.19085341116E-05 0.16284352524E-06 0.24307451073E-07
 0.66418502372E-07 -.15791395088E-06 0.29155091923E-06 -.21237479153E-06 0.58960468395E-06
 -.46629982701E-07 0.14624918850E-05 0.13647434101E-05 0.15091426835E-05 0.23952815617E-05
 0.12428890492E-05 0.39525955859E-05 -.24866067317E-06 -.87372574366E-05 -.73359215202E-05
 -.29469517421E-05 0.79091350329E-05 -.17637789436E-05 -.58863952287E-05 0.25105531672E-05
 -.18803330491E-05 0.14189337899E-05 0.81585866320E-07 0.23119874296E-06 -.10151595352E-06
 0.29155090156E-06 -.26342352944E-06 0.41786873960E-06 -.17480296012E-06 0.93112472403E-06
 0.25316758021E-06 0.12319418283E-05 0.24092257407E-05 0.17785601618E-05 0.37742104196E-05
 -.32120714834E-06 0.11797905178E-05 0.89543575295E-05 0.74119631552E-05 0.40566333034E-05
 -.57165737835E-05 0.82323261181E-06 0.53302757751E-05 -.17400841571E-05 0.17458791459E-05
 -.90704203520E-06 -.10006105791E-06 -.34296821073E-07 0.40535839507E-06 -.21237478573E-06
 0.41786868570E-06 -.23794662373E-06 0.58960465724E-06 -.42617105939E-07 0.11878187791E-05
 0.11114540511E-05 0.82483810377E-07 0.13795464266E-05 -.21305937112E-05 0.19045680042E-05
 0.15278575254E-05 -.75848917359E-05 -.70748561756E-05 -.48384826016E-05 0.41857313524E-05
 0.70531863817E-07 -.45159848711E-05 0.16464769773E-05 -.10725760182E-05 0.10992445444E-05
 0.65849977667E-06 0.12470056527E-05 0.16679344313E-06 0.58960466416E-06 -.17480296740E-06
 0.58960463648E-06 0.16679342322E-06 0.12470056190E-05 0.90302484676E-06 0.12960537153E-05
 0.32208603035E-05 0.82230199929E-06 0.55980755689E-05 0.48661139857E-06 -.19805721719E-05
 0.70004413241E-05 0.72424762817E-05 0.70004412793E-05 -.19805721777E-05 0.48661133946E-06
 0.55980755483E-05 0.82230194116E-06 0.32208603093E-05 0.12960537127E-05 0.90302484074E-06
 0.15250802662E-05 0.17945932867E-05 -.46629981152E-07 0.93112466958E-06 -.42617142180E-07
 0.12470056352E-05 0.90263858426E-06 0.23663039972E-05 0.29484659835E-05 0.66382385984E-06
 0.38588680048E-05 -.49610877576E-05 -.98329463964E-07 0.12174293697E-04 0.28116313496E-05
 -.13667395177E-04 -.93769969072E-05 0.42585599541E-05 0.33884933805E-05 0.26839096719E-05
 0.70050336654E-05 0.61399077318E-05 0.55541890005E-05 0.47987873955E-05 0.63320170292E-05
 0.23296448134E-05 0.14624918934E-05 0.25316758779E-06 0.11878188268E-05 0.90302484646E-06
 0.23663039722E-05 0.20023541834E-05 0.19192263698E-05 0.34705948866E-05 -.73324972160E-05
 -.60565048797E-05 -.15493307863E-04 -.24381267116E-04 0.25054802420E-04 0.17886145669E-04
 0.10217526397E-04 0.21551890432E-04 0.15849832039E-04 0.30549129734E-04 0.27378718362E-04
 0.27746025929E-04 0.18706919644E-04 0.11395645808E-04 0.11478239263E-04 0.56703176779E-05
 0.13647434350E-05 0.12319418388E-05 0.11114540907E-05 0.12960536917E-05 0.29484659855E-05
 0.19192263551E-05 0.44196155491E-05 -.97031497683E-05 0.33829971942E-05 -.21458692855E-04
 -.45027404422E-04 -.46700421841E-05 0.45906558905E-04 0.85443329976E-05 -.37274469127E-05
 0.54829840175E-04 0.78462299805E-04 0.10298476296E-03 0.10019855462E-03 0.81950384170E-04
 0.51648159414E-04 0.29571261748E-04 0.22259231167E-04 0.91335567214E-05 0.15091426864E-05
 0.24092257295E-05 0.82483796649E-07 0.32208602769E-05 0.66382382129E-06 0.34705948790E-05
 -.97031497765E-05 0.11589510020E-04 -.21913489637E-05 -.20615867293E-04 -.13125082136E-04
 -.32242228322E-04 0.31864123763E-04 0.30860859798E-04 0.12183790471E-03 0.23686196844E-03
 0.30859519202E-03 0.37274334209E-03 0.32203775887E-03 0.23237887116E-03 0.12691448091E-03
 0.60933867474E-04 0.33218534822E-04 0.11642498497E-04 0.23952815965E-05 0.17785601588E-05
 0.13795464319E-05 0.82230193565E-06 0.38588680169E-05 -.73324972465E-05 0.33829971903E-05
 -.21913489701E-05 -.11062291223E-04 -.70726051398E-05 -.98100390119E-04 0.25719796596E-04
 0.18357658317E-03 0.28041284989E-03 0.57994280507E-03 0.90344488884E-03 0.11458147442E-02
 0.11325116652E-02 0.87318342765E-03 0.52762082441E-03 0.25347707123E-03 0.10371024382E-03
 0.42973582857E-04 0.13061984571E-04 0.12428890967E-05 0.37742104337E-05 -.21305937318E-05
 0.55980755366E-05 -.49610877486E-05 -.60565048810E-05 -.21458692839E-04 -.20615867280E-04
 -.70726051149E-05 -.10783106129E-03 0.24904401698E-04 0.29653096175E-03 0.43718922565E-03
 0.95861461683E-03 0.19192220580E-02 0.29028852898E-02 0.33727971396E-02 0.29228269862E-02
 0.19316977965E-02 0.99773276516E-03 0.41655592026E-03 0.14443857751E-03 0.42674753064E-04
 0.94327482979E-05 0.39525956249E-05 -.32120719871E-06 0.19045680314E-05 0.48661134036E-06
 -.98329466108E-07 -.15493307788E-04 -.45027404518E-04 -.13125082148E-04 -.98100390090E-04
 0.24904401585E-04 0.31967512155E-03 0.52889942201E-03 0.13538214279E-02 0.33177884961E-02
 0.59511035419E-02 0.80682623573E-02 0.81060700076E-02 0.60164547857E-02 0.33873380581E-02
 0.14535114328E-02 0.52700702506E-03 0.15952031653E-03 0.29476482726E-04 0.12084517492E-04
 -.24866068048E-06 0.11797904904E-05 0.15278575650E-05 -.19805721806E-05 0.12174293703E-04
 -.24381267124E-04 -.46700421783E-05 -.32242228318E-04 0.25719796582E-04 0.29653096175E-03
 0.52889942191E-03 0.15540266768E-02 0.44413201623E-02 0.94075270030E-02 0.15054250023E-01
 0.17709431349E-01 0.15021550040E-01 0.93852576297E-02 0.45463484556E-02 0.17010372739E-02
 0.51567003723E-03 0.16235521606E-03 0.37761205736E-05 0.17358943084E-04 -.87372574620E-05
 0.89543575104E-05 -.75848917249E-05 0.70004412853E-05 0.28116312962E-05 0.25054802423E-04
 0.45906558895E-04 0.31864123818E-04 0.18357658318E-03 0.43718922565E-03 0.13538214279E-02
 0.44413201623E-02 0.10989616793E-01 0.20886695779E-01 0.29215043008E-01 0.29191604861E-01
 0.20816321309E-01 0.10897646863E-01 0.45755988190E-02 0.14716572904E-02 0.36496981309E-03
 0.11877306557E-03 -.20531946314E-05 0.11292108587E-04 -.73359215396E-05 0.74119631576E-05
 -.70748562302E-05 0.72424762777E-05 -.13667395167E-04 0.17886145650E-04 0.85443329967E-05
 0.30860859768E-04 0.28041284990E-03 0.95861461682E-03 0.33177884962E-02 0.94075270030E-02
 0.20886695779E-01 0.34703256219E-01 0.41262970514E-01 0.34713546257E-01 0.20771630752E-01
 0.92834344714E-02 0.34893873217E-02 0.95557840957E-03 0.25675083849E-03 0.84505384676E-04
 0.14447399876E-04 0.32708022559E-05 -.29469517296E-05 0.40566333334E-05 -.48384826057E-05
 0.70004412872E-05 -.93769968547E-05 0.10217526416E-04 -.37274469096E-05 0.12183790473E-03
 0.57994280506E-03 0.19192220580E-02 0.59511035418E-02 0.15054250023E-01 0.29215043008E-01
 0.41262970514E-01 0.41293423791E-01 0.29190685336E-01 0.14800200831E-01 0.60386655997E-02
 0.20972908420E-02 0.46704093393E-03 0.18079521226E-03 0.32139780081E-04 0.20423744943E-04
 -.96678940460E-05 0.79091350265E-05 -.57165737928E-05 0.41857313740E-05 -.19805721587E-05
 0.42585599756E-05 0.21551890433E-04 0.54829840152E-04 0.23686196841E-03 0.90344488884E-03
 0.29028852897E-02 0.80682623573E-02 0.17709431349E-01 0.29191604861E-01 0.34713546257E-01
 0.29190685336E-01 0.17455532955E-01 0.79990969458E-02 0.31957448145E-02 0.80770330115E-03
 0.16603773972E-03 0.64049294262E-04 -.30714294672E-04 -.72490652891E-05 0.38619143191E-05
 -.17637789120E-05 0.82323261109E-06 0.70531879544E-07 0.48661138224E-06 0.33884935629E-05
 0.15849832005E-04 0.78462299834E-04 0.30859519206E-03 0.11458147442E-02 0.33727971397E-02
 0.81060700076E-02 0.15021550040E-01 0.20816321309E-01 0.20771630752E-01 0.14800200831E-01
 0.79990969457E-02 0.36372116119E-02 0.11059814161E-02 0.17704320042E-03 0.12154653982E-03
 -.30915433875E-04 0.24351353566E-05 -.91548717506E-05 0.69732980325E-05 -.58863951983E-05
 0.53302757874E-05 -.45159849287E-05 0.55980755516E-05 0.26839096317E-05 0.30549129711E-04
 0.10298476296E-03 0.37274334211E-03 0.11325116652E-02 0.29228269862E-02 0.60164547857E-02
 0.93852576297E-02 0.10897646863E-01 0.92834344714E-02 0.60386655997E-02 0.31957448145E-02
 0.11059814159E-02 0.20412916957E-03 0.15014531509E-03 0.98731584440E-05 -.44340042067E-05
 0.62271027024E-06 0.50425790946E-05 -.34815478722E-05 0.25105531479E-05 -.17400841303E-05
 0.16464769233E-05 0.82230197243E-06 0.70050336466E-05 0.27378718366E-04 0.10019855464E-03
 0.32203775888E-03 0.87318342767E-03 0.19316977965E-02 0.33873380582E-02 0.45463484557E-02
 0.45755988190E-02 0.34893873217E-02 0.20972908420E-02 0.80770330111E-03 0.17704320044E-03
 0.15014531510E-03 0.25920985014E-04 0.86950338885E-05 0.15632968871E-04 -.10582872537E-04
 -.30532620605E-05 0.23296803717E-05 -.18803330503E-05 0.17458791645E-05 -.10725759818E-05
 0.32208602850E-05 0.61399076617E-05 0.27746025936E-04 0.81950384205E-04 0.23237887119E-03
 0.52762082447E-03 0.99773276513E-03 0.14535114328E-02 0.17010372739E-02 0.14716572905E-02
 0.95557840958E-03 0.46704093391E-03 0.16603773970E-03 0.12154653986E-03 0.98731584138E-05
 0.86950338964E-05 0.20592716947E-04 -.11075605912E-04 0.28071896624E-05 0.25885923312E-05
 -.19085341403E-05 0.14189338177E-05 -.90704200332E-06 0.10992445414E-05 0.12960537022E-05
 0.55541889654E-05 0.18706919649E-04 0.51648159432E-04 0.12691448091E-03 0.25347707121E-03
 0.41655592022E-03 0.52700702498E-03 0.51567003723E-03 0.36496981311E-03 0.25675083852E-03
 0.18079521223E-03 0.64049294233E-04 -.30915433733E-04 -.44340041983E-05 0.15632968927E-04
 -.11075605945E-04 0.54084291894E-05 -.29341532260E-05 -.45388015971E-06 0.16284350126E-06
 0.81585836617E-07 -.10006106775E-06 0.65849979449E-06 0.90302486828E-06 0.47987874078E-05
 0.11395645826E-04 0.29571261759E-04 0.60933867459E-04 0.10371024380E-03 0.14443857751E-03
 0.15952031650E-03 0.16235521611E-03 0.11877306559E-03 0.84505384640E-04 0.32139780085E-04
 -.30714294693E-04 0.24351353052E-05 0.62271028421E-06 -.10582872535E-04 0.28071896373E-05
 -.29341531987E-05 0.40766607321E-06 -.15895707178E-06 0.24307412466E-07 0.20667200503E-06
 -.24953001534E-06 0.59595860499E-06 -.42617140623E-07 0.20540088512E-05 0.20283686693E-05
 0.59625135959E-05 0.86390577973E-05 0.11941942162E-04 0.12174617523E-04 0.10550967842E-04
 0.10812858499E-04 0.20545896667E-04 0.16438057224E-04 -.57120767013E-05 -.15092488230E-04
 0.54050712571E-05 0.83071043676E-05 -.37890720311E-05 0.24812018676E-05 -.19368924928E-05
 0.14509462852E-06 0.24307447666E-07 0.66418509348E-07 -.15791395787E-06 0.29155091554E-06
 -.21237484237E-06 0.58960466622E-06 -.46629954134E-07 0.14624918974E-05 0.13647434217E-05
 0.15091426596E-05 0.23952815907E-05 0.12428890967E-05 0.39525956369E-05 -.24866065828E-06
 -.87372574297E-05 -.73359215129E-05 -.29469517137E-05 0.79091350160E-05 -.17637788250E-05
 -.58863952162E-05 0.25105531455E-05 -.18803330500E-05 0.14189338199E-05 0.81585840492E-07
 0.20667204554E-06 -.15791396903E-06 0.28655259171E-06 -.29358146457E-06 0.40213646066E-06
 -.23794660423E-06 0.82100507154E-06 0.54366509384E-07 0.93451767208E-06 0.19871253065E-05
 0.13897978192E-05 0.33111697409E-05 -.65083319782E-06 0.79834358017E-06 0.79089137270E-05
 0.75955386345E-05 0.42781269469E-05 -.59197592204E-05 0.32850168801E-06 0.49015896075E-05
 -.15668691169E-05 0.15799516026E-05 -.91140031309E-06 -.19176227844E-06 -.24952998249E-06
 0.29155089846E-06 -.29358144655E-06 0.36424869251E-06 -.32300311274E-06 0.41786868741E-06
 -.35426454251E-06 0.64512681431E-06 0.35551944278E-06 -.74281583347E-06 0.37515220821E-06
 -.26628183763E-05 0.14475973045E-05 0.12506600766E-05 -.65227162395E-05 -.70064054970E-05
 -.49388387229E-05 0.41874490038E-05 0.45436292738E-06 -.41676644616E-05 0.10630593138E-05
 -.12558669817E-05 0.71054400460E-06 0.40296807949E-06 0.59595862010E-06 -.21237479269E-06
 0.40213652935E-06 -.32300311710E-06 0.40213647063E-06 -.21237482126E-06 0.59595864300E-06
 -.11872693159E-06 0.30269345351E-07 0.16170477484E-05 -.16132691301E-06 0.39623889125E-05
 -.70055712714E-06 -.25543085572E-05 0.59660085363E-05 0.71999278844E-05 0.59660085097E-05
 -.25543085510E-05 -.70055722230E-06 0.39623888762E-05 -.16132692540E-06 0.16170477729E-05
 0.30269345723E-07 -.11872693019E-06 -.42617151857E-07 0.58960466406E-06 -.23794663089E-06
 0.41786867221E-06 -.21237480721E-06 0.40535838741E-06 -.34296777063E-07 0.65849980325E-06
 0.10992445675E-05 -.10725760030E-05 0.16464769621E-05 -.45159848893E-05 0.70531967798E-07
 0.41857313368E-05 -.48384826286E-05 -.70748561836E-05 -.75848917592E-05 0.15278575104E-05
 0.19045680551E-05 -.21305937304E-05 0.13795464130E-05 0.82483790211E-07 0.11114540587E-05
 0.11878187903E-05 0.20540088638E-05 -.46630010327E-07 0.82100506288E-06 -.35426453345E-06
 0.59595862333E-06 -.34296827298E-07 0.65483926649E-06 0.21175160879E-06 -.50818317103E-06
 0.23228829637E-05 -.20489058137E-05 0.71478613258E-05 0.21917041484E-05 -.12408234768E-04
 -.41807125961E-05 0.14343981092E-04 0.13395413552E-04 0.16700615543E-05 0.34390923517E-05
 0.65408068584E-05 0.56972604231E-05 0.52881953623E-05 0.40194516442E-05 0.14488179850E-05
 0.20283686747E-05 0.14624918607E-05 0.54366539337E-07 0.64512680257E-06 -.11872691032E-06
 0.65849978006E-06 0.21175159103E-06 0.95042551681E-06 0.18210694796E-05 -.69209016173E-06
 0.95686918652E-05 0.57976338147E-05 0.13379293855E-04 0.28510579566E-04 -.17049250972E-04
 -.14244716099E-04 -.94370095244E-06 -.17846444709E-05 0.17086320659E-04 0.13376807152E-04
 0.17011914833E-04 0.12022784703E-04 0.92099245744E-05 0.55571247332E-05 0.59625136410E-05
 0.13647433996E-05 0.93451768554E-06 0.35551945837E-06 0.30269313635E-07 0.10992445372E-05
 -.50818320816E-06 0.18210694753E-05 -.18919162509E-05 0.11773934894E-04 -.43012306468E-05
 0.18987204712E-04 0.44760328979E-04 0.59758868201E-05 -.37143224624E-04 0.12929882546E-04
 0.56491236467E-04 0.38277949558E-04 0.54252274841E-04 0.56062638567E-04 0.54391147670E-04
 0.38192102619E-04 0.24402575215E-04 0.10540132569E-04 0.86390577768E-05 0.15091426696E-05
 0.19871253162E-05 -.74281583346E-06 0.16170477869E-05 -.10725760226E-05 0.23228829353E-05
 -.69209017716E-06 0.11773934848E-04 -.11246436142E-04 0.18674542224E-05 0.19990663715E-04
 0.73091425623E-05 0.49821003680E-04 0.24726182645E-04 0.76901069038E-04 0.96886148632E-04
 0.12915973661E-03 0.18979049826E-03 0.16726623001E-03 0.13935490618E-03 0.83900923340E-04
 0.47485621706E-04 0.18965152131E-04 0.11941942167E-04 0.23952815864E-05 0.13897977936E-05
 0.37515220570E-06 -.16132690542E-06 0.16464769751E-05 -.20489058520E-05 0.95686918543E-05
 -.43012306587E-05 0.18674542464E-05 0.10322502062E-04 0.56990935349E-06 0.11894753922E-03
 0.54838610193E-04 -.79054590376E-05 0.13428258714E-03 0.25015794722E-03 0.40454850759E-03
 0.48246665824E-03 0.43909960537E-03 0.30965627138E-03 0.17336324073E-03 0.82029872999E-04
 0.29940091506E-04 0.12174617569E-04 0.12428890933E-05 0.33111697283E-05 -.26628184045E-05
 0.39623888696E-05 -.45159849139E-05 0.71478612942E-05 0.57976338203E-05 0.18987204687E-04
 0.19990663693E-04 0.56990934993E-06 0.13078288724E-03 0.66084939647E-04 -.52066096995E-04
 0.23531896374E-03 0.59855356976E-03 0.93959388660E-03 0.12118458691E-02 0.11840959329E-02
 0.92318646904E-03 0.55949429013E-03 0.26992895624E-03 0.10755648938E-03 0.36213616255E-04
 0.10550967674E-04 0.39525956097E-05 -.65083328720E-06 0.14475972449E-05 -.70055727665E-06
 0.70531896472E-07 0.21917042542E-05 0.13379293799E-04 0.44760328921E-04 0.73091426742E-05
 0.11894753922E-03 0.66084939675E-04 -.46564863126E-04 0.33818238112E-03 0.94804334848E-03
 0.16176761765E-02 0.23814651687E-02 0.26964967366E-02 0.23094301023E-02 0.15374175929E-02
 0.79603695701E-03 0.36597802584E-03 0.12457488286E-03 0.40089731969E-04 0.10812858452E-04
 -.24866069039E-06 0.79834357432E-06 0.12506600589E-05 -.25543085610E-05 0.41857313447E-05
 -.12408234782E-04 0.28510579574E-04 0.59758867841E-05 0.49821003705E-04 0.54838610225E-04
 -.52066097012E-04 0.33818238124E-03 0.10742424265E-02 0.20848451440E-02 0.35466042632E-02
 0.47233342468E-02 0.47111176728E-02 0.35772029359E-02 0.20513809544E-02 0.86949185342E-03
 0.33688210705E-03 0.11679782830E-03 0.15636904142E-04 0.20545896642E-04 -.87372574520E-05
 0.79089137117E-05 -.65227162475E-05 0.59660084917E-05 -.48384826186E-05 -.41807126111E-05
 -.17049250949E-04 -.37143224609E-04 0.24726182675E-04 -.79054590483E-05 0.23531896372E-03
 0.94804334855E-03 0.20848451440E-02 0.40712380517E-02 0.62688627375E-02 0.72445808527E-02
 0.62936364700E-02 0.41457765989E-02 0.20797873611E-02 0.73092747476E-03 0.28490449959E-03
 0.11887551264E-03 0.96996105477E-05 0.16438057212E-04 -.73359215126E-05 0.75955386018E-05
 -.70064055066E-05 0.71999278761E-05 -.70748561879E-05 0.14343981111E-04 -.14244716115E-04
 0.12929882536E-04 0.76901069009E-04 0.13428258711E-03 0.59855356980E-03 0.16176761765E-02
 0.35466042632E-02 0.62688627375E-02 0.83636004096E-02 0.83826706657E-02 0.62598514821E-02
 0.36514458519E-02 0.16226747148E-02 0.47519089057E-03 0.21024126347E-03 0.44362531116E-04
 -.97660450753E-05 -.57120767464E-05 -.29469517275E-05 0.42781269780E-05 -.49388387061E-05
 0.59660084860E-05 -.75848917438E-05 0.13395413585E-04 -.94370093695E-06 0.56491236515E-04
 0.96886148632E-04 0.25015794722E-03 0.93959388664E-03 0.23814651686E-02 0.47233342468E-02
 0.72445808527E-02 0.83826706656E-02 0.72168677479E-02 0.47678154711E-02 0.25401707334E-02
 0.85759239991E-03 0.18879004781E-03 0.12416311230E-03 -.24255042565E-04 -.34453838714E-05
 -.15092488188E-04 0.79091350243E-05 -.59197592369E-05 0.41874490137E-05 -.25543086018E-05
 0.15278575351E-05 0.16700615915E-05 -.17846445017E-05 0.38277949517E-04 0.12915973662E-03
 0.40454850758E-03 0.12118458690E-02 0.26964967367E-02 0.47111176728E-02 0.62936364700E-02
 0.62598514821E-02 0.47678154711E-02 0.29050654197E-02 0.12012649329E-02 0.22411897607E-03
 0.19323787633E-03 0.88094642676E-04 0.61001387054E-05 0.38387992544E-04 0.54050712281E-05
 -.17637789124E-05 0.32850182108E-06 0.45436291163E-06 -.70055728846E-06 0.19045680438E-05
 0.34390924684E-05 0.17086320635E-04 0.54252274864E-04 0.18979049824E-03 0.48246665828E-03
 0.11840959329E-02 0.23094301022E-02 0.35772029360E-02 0.41457765989E-02 0.36514458519E-02
 0.25401707334E-02 0.12012649331E-02 0.27080633272E-03 0.21386507688E-03 0.17527349301E-03
 -.69303157177E-05 0.48910306394E-04 0.71422222906E-05 0.83071043484E-05 -.58863952055E-05
 0.49015896200E-05 -.41676644432E-05 0.39623888770E-05 -.21305937214E-05 0.65408069031E-05
 0.13376807102E-04 0.56062638553E-04 0.16726622999E-03 0.43909960533E-03 0.92318646904E-03
 0.15374175929E-02 0.20513809544E-02 0.20797873612E-02 0.16226747147E-02 0.85759239989E-03
 0.22411897604E-03 0.21386507680E-03 0.19397086046E-03 -.13537249171E-04 0.20927127421E-04
 0.13477359359E-04 0.27591886623E-05 -.37890720381E-05 0.25105531462E-05 -.15668690929E-05
 0.10630593411E-05 -.16132689376E-06 0.13795464222E-05 0.56972604371E-05 0.17011914823E-04
 0.54391147688E-04 0.13935490620E-03 0.30965627141E-03 0.55949429006E-03 0.79603695717E-03
 0.86949185346E-03 0.73092747477E-03 0.47519089056E-03 0.18879004778E-03 0.19323787634E-03
 0.17527349288E-03 -.13537249173E-04 0.98459662512E-05 -.17453073142E-06 -.10091023176E-04
 0.99872165946E-05 0.24812018802E-05 -.18803330333E-05 0.15799516385E-05 -.12558669771E-05
 0.16170477899E-05 0.82483776059E-07 0.52881953683E-05 0.12022784732E-04 0.38192102623E-04
 0.83900923305E-04 0.17336324071E-03 0.26992895626E-03 0.36597802585E-03 0.33688210707E-03
 0.28490449962E-03 0.21024126346E-03 0.12416311227E-03 0.88094642655E-04 -.69303157251E-05
 0.20927127398E-04 -.17453070855E-06 -.15477774976E-04 0.11081368043E-04 -.19224143447E-05
 -.19368925001E-05 0.14189338072E-05 -.91140032304E-06 0.71054399342E-06 0.30269337138E-07
 0.11114540472E-05 0.40194516728E-05 0.92099246064E-05 0.24402575202E-04 0.47485621676E-04
 0.82029872976E-04 0.10755648938E-03 0.12457488292E-03 0.11679782832E-03 0.11887551269E-03
 0.44362531087E-04 -.24255042552E-04 0.61001387039E-05 0.48910306342E-04 0.13477359334E-04
 -.10091023194E-04 0.11081368052E-04 -.40865836755E-05 0.22497358530E-05 0.14509460753E-06
 0.81585833872E-07 -.19176226261E-06 0.40296808381E-06 -.11872688850E-06 0.11878188075E-05
 0.14488180163E-05 0.55571247522E-05 0.10540132588E-04 0.18965152164E-04 0.29940091529E-04
 0.36213616255E-04 0.40089731953E-04 0.15636904188E-04 0.96996105607E-05 -.97660450596E-05
 -.34453838590E-05 0.38387992524E-04 0.71422223008E-05 0.27591886826E-05 0.99872165936E-05
 -.19224143420E-05 0.22497358270E-05 -.17110946671E-07 0.33283772866E-07 0.23119869324E-06
 -.24952999348E-06 0.48994212287E-06 -.35426457290E-06 0.93112469421E-06 -.59033918883E-07
 0.22654665103E-05 0.18568672899E-05 0.30598755831E-05 0.33756907305E-05 0.32662497173E-05
 0.38442535280E-05 0.15143413922E-05 -.11969148764E-04 -.12577434788E-04 0.60194076012E-05
 0.13875179939E-04 -.33445358953E-05 -.74274316151E-05 0.31088579957E-05 -.19968607327E-05
 0.15746155448E-05 0.20481154111E-06 0.23119873440E-06 -.10151595167E-06 0.29155089541E-06
 -.26342355021E-06 0.41786863572E-06 -.17480294410E-06 0.93112471661E-06 0.25316759840E-06
 0.12319417927E-05 0.24092257239E-05 0.17785601632E-05 0.37742104281E-05 -.32120708607E-06
 0.11797905043E-05 0.89543575287E-05 0.74119631600E-05 0.40566333555E-05 -.57165737772E-05
 0.82323262364E-06 0.53302757751E-05 -.17400841175E-05 0.17458791401E-05 -.90704200952E-06
 -.10006105016E-06 -.24952996522E-06 0.29155089906E-06 -.29358143216E-06 0.36424867944E-06
 -.32300312623E-06 0.41786868746E-06 -.35426450002E-06 0.64512681112E-06 0.35551945845E-06
 -.74281583830E-06 0.37515221871E-06 -.26628183669E-05 0.14475973359E-05 0.12506600706E-05
 -.65227162108E-05 -.70064055007E-05 -.49388387103E-05 0.41874490215E-05 0.45436283877E-06
 -.41676644544E-05 0.10630592930E-05 -.12558669689E-05 0.71054396885E-06 0.40296808961E-06
 0.48994212154E-06 -.26342355364E-06 0.36424869241E-06 -.33791991406E-06 0.36424865491E-06
 -.26342355237E-06 0.48994204865E-06 -.25698333390E-06 -.14712205089E-06 0.13777976100E-05
 -.26426563702E-06 0.36691839340E-05 -.84684426795E-06 -.25015312381E-05 0.56523189031E-05
 0.67843884214E-05 0.56523188892E-05 -.25015312304E-05 -.84684434117E-06 0.36691839347E-05
 -.26426567886E-06 0.13777975858E-05 -.14712201647E-06 -.25698332450E-06 -.35426452967E-06
 0.41786868598E-06 -.32300312488E-06 0.36424867544E-06 -.29358144413E-06 0.29155089474E-06
 -.24952999134E-06 0.40296807926E-06 0.71054400147E-06 -.12558670032E-05 0.10630593431E-05
 -.41676644423E-05 0.45436299719E-06 0.41874490150E-05 -.49388387312E-05 -.70064054964E-05
 -.65227162709E-05 0.12506600700E-05 0.14475973757E-05 -.26628183987E-05 0.37515221592E-06
 -.74281580718E-06 0.35551946189E-06 0.64512681055E-06 0.93112475487E-06 -.17480296314E-06
 0.41786868429E-06 -.26342355437E-06 0.29155091465E-06 -.10151594028E-06 0.23119871412E-06
 -.10006106375E-06 -.90704200463E-06 0.17458791373E-05 -.17400841592E-05 0.53302757879E-05
 0.82323257360E-06 -.57165737905E-05 0.40566333417E-05 0.74119631652E-05 0.89543575122E-05
 0.11797905171E-05 -.32120719410E-06 0.37742104271E-05 0.17785601583E-05 0.24092257163E-05
 0.12319418174E-05 0.25316759492E-06 -.59033908362E-07 0.93112469574E-06 -.35426454356E-06
 0.48994208754E-06 -.24952998254E-06 0.23119870662E-06 0.33283735309E-07 0.20481155568E-06
 0.15746155572E-05 -.19968607498E-05 0.31088579560E-05 -.74274316096E-05 -.33445360520E-05
 0.13875179920E-04 0.60194075763E-05 -.12577434780E-04 -.11969148808E-04 0.15143413524E-05
 0.38442535218E-05 0.32662497158E-05 0.33756907478E-05 0.30598755704E-05 0.18568672609E-05
 0.22654665064E-05 0.22654665145E-05 0.25316760298E-06 0.64512682844E-06 -.25698332846E-06
 0.40296811483E-06 -.10006105790E-06 0.20481148552E-06 -.86808467278E-07 -.15873611649E-05
 0.15902467318E-05 -.93037161680E-05 -.38935121052E-05 -.96839579491E-05 -.30967841687E-04
 0.15057869082E-04 0.21984261043E-04 0.14659538788E-04 0.23487308147E-04 0.11170186647E-04
 0.17889547991E-04 0.14423231387E-04 0.12221959036E-04 0.71738062607E-05 0.33066859406E-05
 0.18568672636E-05 0.12319418363E-05 0.35551946472E-06 -.14712201733E-06 0.71054400164E-06
 -.90704202231E-06 0.15746155557E-05 -.15873611618E-05 0.33199436012E-05 -.10878300479E-04
 0.75895035795E-05 -.14910293565E-04 -.42905300386E-04 0.15292919986E-05 0.50301624322E-04
 0.15047948046E-04 -.10565625798E-04 0.34139301459E-04 0.43697654704E-04 0.47669571114E-04
 0.34533972781E-04 0.24417304347E-04 0.12309726775E-04 0.71738062611E-05 0.30598755856E-05
 0.24092257203E-05 -.74281584090E-06 0.13777976634E-05 -.12558669468E-05 0.17458791302E-05
 -.19968607698E-05 0.15902466994E-05 -.10878300448E-04 0.13724934331E-04 0.68771788286E-06
 -.16131634046E-04 0.10873914657E-04 -.34363958185E-04 0.71232867036E-05 0.16655969782E-04
 0.73860992401E-04 0.12526826513E-03 0.11186783280E-03 0.12118334695E-03 0.83660551622E-04
 0.54995599831E-04 0.24417304348E-04 0.12221959054E-04 0.33756907614E-05 0.17785601544E-05
 0.37515215868E-06 -.26426561735E-06 0.10630593190E-05 -.17400841633E-05 0.31088579542E-05
 -.93037161851E-05 0.75895035649E-05 0.68771787598E-06 -.56100991781E-05 0.20364255928E-04
 -.98723653432E-04 -.23556930469E-05 0.18240601458E-03 0.21953941024E-03 0.32135397303E-03
 0.36144345840E-03 0.33355830759E-03 0.25453681470E-03 0.15973946209E-03 0.83660551597E-04
 0.34533972762E-04 0.14423231352E-04 0.32662496903E-05 0.37742104338E-05 -.26628183734E-05
 0.36691839419E-05 -.41676644686E-05 0.53302757695E-05 -.74274316561E-05 -.38935121260E-05
 -.14910293593E-04 -.16131634045E-04 0.20364255912E-04 -.10878578583E-03 0.85195483095E-05
 0.29782267787E-03 0.30791848032E-03 0.40545553257E-03 0.61733414254E-03 0.70857450694E-03
 0.65617894026E-03 0.45173144439E-03 0.25453681471E-03 0.12118334696E-03 0.47669571118E-04
 0.17889547954E-04 0.38442534115E-05 -.32120722191E-06 0.14475972581E-05 -.84684432347E-06
 0.45436292393E-06 0.82323256819E-06 -.33445359735E-05 -.96839578996E-05 -.42905300348E-04
 0.10873914833E-04 -.98723653355E-04 0.85195482242E-05 0.32038011522E-03 0.32867744640E-03
 0.48241330766E-03 0.95380654236E-03 0.12704988535E-02 0.13010553766E-02 0.10608000492E-02
 0.65617894022E-03 0.33355830753E-03 0.11186783277E-03 0.43697654633E-04 0.11170186629E-04
 0.15143413948E-05 0.11797904939E-05 0.12506600781E-05 -.25015312437E-05 0.41874489864E-05
 -.57165738039E-05 0.13875179877E-04 -.30967841671E-04 0.15292920201E-05 -.34363958139E-04
 -.23556930397E-05 0.29782267788E-03 0.32867744660E-03 0.54345798088E-03 0.12634909405E-02
 0.19402708609E-02 0.21945117890E-02 0.19368080561E-02 0.13010553766E-02 0.70857450693E-03
 0.36144345838E-03 0.12526826512E-03 0.34139301429E-04 0.23487308129E-04 -.11969148842E-04
 0.89543574845E-05 -.65227162263E-05 0.56523189199E-05 -.49388386891E-05 0.40566333117E-05
 0.60194075503E-05 0.15057869081E-04 0.50301624321E-04 0.71232866816E-05 0.18240601457E-03
 0.30791848033E-03 0.48241330765E-03 0.12634909405E-02 0.22328527285E-02 0.29173491658E-02
 0.29181199352E-02 0.21945117890E-02 0.12704988535E-02 0.61733414255E-03 0.32135397304E-03
 0.73860992440E-04 -.10565625781E-04 0.14659538770E-04 -.12577434733E-04 0.74119631346E-05
 -.70064055292E-05 0.67843883971E-05 -.70064055005E-05 0.74119631467E-05 -.12577434779E-04
 0.21984261049E-04 0.15047948064E-04 0.16655969822E-04 0.21953941026E-03 0.40545553258E-03
 0.95380654234E-03 0.19402708610E-02 0.29173491658E-02 0.33819768888E-02 0.29173491658E-02
 0.19402708609E-02 0.95380654229E-03 0.40545553256E-03 0.21953941027E-03 0.16655969818E-04
 0.15047948079E-04 0.21984261050E-04 0.60194075446E-05 0.40566333257E-05 -.49388387158E-05
 0.56523189139E-05 -.65227162524E-05 0.89543575005E-05 -.11969148831E-04 0.14659538766E-04
 -.10565625788E-04 0.73860992416E-04 0.32135397304E-03 0.61733414254E-03 0.12704988535E-02
 0.21945117890E-02 0.29181199352E-02 0.29173491658E-02 0.22328527284E-02 0.12634909404E-02
 0.48241330759E-03 0.30791848032E-03 0.18240601457E-03 0.71232866898E-05 0.50301624335E-04
 0.15057869079E-04 0.13875179904E-04 -.57165737900E-05 0.41874490325E-05 -.25015312387E-05
 0.12506600702E-05 0.11797905081E-05 0.15143413753E-05 0.23487308126E-04 0.34139301423E-04
 0.12526826512E-03 0.36144345837E-03 0.70857450696E-03 0.13010553765E-02 0.19368080561E-02
 0.21945117889E-02 0.19402708609E-02 0.12634909405E-02 0.54345798089E-03 0.32867744630E-03
 0.29782267784E-03 -.23556930282E-05 -.34363958148E-04 0.15292920101E-05 -.30967841677E-04
 -.33445360298E-05 0.82323258058E-06 0.45436291275E-06 -.84684431926E-06 0.14475972720E-05
 -.32120721877E-06 0.38442534679E-05 0.11170186619E-04 0.43697654634E-04 0.11186783277E-03
 0.33355830752E-03 0.65617894025E-03 0.10608000492E-02 0.13010553766E-02 0.12704988535E-02
 0.95380654237E-03 0.48241330765E-03 0.32867744633E-03 0.32038011516E-03 0.85195482722E-05
 -.98723653355E-04 0.10873914842E-04 -.42905300374E-04 -.96839579128E-05 -.74274316896E-05
 0.53302757770E-05 -.41676644655E-05 0.36691839527E-05 -.26628183632E-05 0.37742104319E-05
 0.32662497393E-05 0.17889547939E-04 0.47669571136E-04 0.12118334697E-03 0.25453681473E-03
 0.45173144440E-03 0.65617894012E-03 0.70857450694E-03 0.61733414252E-03 0.40545553257E-03
 0.30791848029E-03 0.29782267790E-03 0.85195482455E-05 -.10878578585E-03 0.20364255935E-04
 -.16131634036E-04 -.14910293566E-04 -.38935121121E-05 0.31088579733E-05 -.17400841347E-05
 0.10630593095E-05 -.26426562625E-06 0.37515218267E-06 0.17785601423E-05 0.33756907627E-05
 0.14423231367E-04 0.34533972794E-04 0.83660551566E-04 0.15973946205E-03 0.25453681467E-03
 0.33355830761E-03 0.36144345842E-03 0.32135397305E-03 0.21953941024E-03 0.18240601453E-03
 -.23556930326E-05 -.98723653442E-04 0.20364255917E-04 -.56100991186E-05 0.68771789508E-06
 0.75895035943E-05 -.93037161664E-05 -.19968607340E-05 0.17458791588E-05 -.12558669730E-05
 0.13777976428E-05 -.74281579037E-06 0.24092256970E-05 0.30598756032E-05 0.12221959060E-04
 0.24417304376E-04 0.54995599837E-04 0.83660551591E-04 0.12118334690E-03 0.11186783268E-03
 0.12526826513E-03 0.73860992426E-04 0.16655969792E-04 0.71232866845E-05 -.34363958168E-04
 0.10873914707E-04 -.16131634026E-04 0.68771789552E-06 0.13724934322E-04 -.10878300464E-04
 0.15902467216E-05 0.15746155951E-05 -.90704202661E-06 0.71054402933E-06 -.14712202988E-06
 0.35551948936E-06 0.12319418344E-05 0.18568672566E-05 0.71738062953E-05 0.12309726779E-04
 0.24417304356E-04 0.34533972753E-04 0.47669571111E-04 0.43697654653E-04 0.34139301468E-04
 -.10565625771E-04 0.15047948063E-04 0.50301624316E-04 0.15292920179E-05 -.42905300402E-04
 -.14910293568E-04 0.75895036034E-05 -.10878300472E-04 0.33199436220E-05 -.15873611767E-05
 0.20481151281E-06 -.10006106431E-06 0.40296808246E-06 -.25698333310E-06 0.64512685207E-06
 0.25316758689E-06 0.22654665595E-05 0.33066859496E-05 0.71738062734E-05 0.12221959062E-04
 0.14423231353E-04 0.17889547981E-04 0.11170186650E-04 0.23487308176E-04 0.14659538795E-04
 0.21984261061E-04 0.15057869091E-04 -.30967841649E-04 -.96839578931E-05 -.38935120847E-05
 -.93037161413E-05 0.15902467161E-05 -.15873611695E-05 -.86808488220E-07 0.65483928932E-06
 -.34296834861E-07 0.59595862237E-06 -.35426453314E-06 0.82100504539E-06 -.46630009309E-07
 0.20540088637E-05 0.14488180014E-05 0.40194516578E-05 0.52881953807E-05 0.56972604543E-05
 0.65408068463E-05 0.34390922998E-05 0.16700615780E-05 0.13395413556E-04 0.14343981079E-04
 -.41807125893E-05 -.12408234751E-04 0.21917042305E-05 0.71478613180E-05 -.20489058217E-05
 0.23228829625E-05 -.50818316299E-06 0.21175159962E-06 -.34296800299E-07 0.40535839052E-06
 -.21237481288E-06 0.41786866594E-06 -.23794664210E-06 0.58960465790E-06 -.42617156969E-07
 0.11878187794E-05 0.11114540252E-05 0.82483787191E-07 0.13795464417E-05 -.21305937281E-05
 0.19045680162E-05 0.15278575352E-05 -.75848917379E-05 -.70748561938E-05 -.48384826091E-05
 0.41857313613E-05 0.70531934235E-07 -.45159848810E-05 0.16464769806E-05 -.10725760235E-05
 0.10992445411E-05 0.65849979839E-06 0.59595864385E-06 -.21237480677E-06 0.40213651296E-06
 -.32300312005E-06 0.40213647639E-06 -.21237480699E-06 0.59595857866E-06 -.11872692562E-06
 0.30269320041E-07 0.16170477547E-05 -.16132688328E-06 0.39623889003E-05 -.70055727509E-06
 -.25543085632E-05 0.59660085364E-05 0.71999278935E-05 0.59660085215E-05 -.25543085482E-05
 -.70055724088E-06 0.39623888914E-05 -.16132686951E-06 0.16170477698E-05 0.30269359441E-07
 -.11872690533E-06 -.35426454790E-06 0.41786867967E-06 -.32300310424E-06 0.36424868807E-06
 -.29358145383E-06 0.29155089120E-06 -.24953002076E-06 0.40296808761E-06 0.71054397007E-06
 -.12558669976E-05 0.10630593454E-05 -.41676644428E-05 0.45436291590E-06 0.41874489965E-05
 -.49388387093E-05 -.70064054859E-05 -.65227162631E-05 0.12506600613E-05 0.14475972734E-05
 -.26628183645E-05 0.37515220149E-06 -.74281581310E-06 0.35551945259E-06 0.64512680238E-06
 0.82100509653E-06 -.23794660500E-06 0.40213647950E-06 -.29358148527E-06 0.28655256939E-06
 -.15791396031E-06 0.20667202804E-06 -.19176228631E-06 -.91140032224E-06 0.15799515831E-05
 -.15668690715E-05 0.49015896246E-05 0.32850177459E-06 -.59197592394E-05 0.42781269551E-05
 0.75955386338E-05 0.79089137154E-05 0.79834357786E-06 -.65083314014E-06 0.33111697220E-05
 0.13897977809E-05 0.19871253296E-05 0.93451768721E-06 0.54366501344E-07 -.46629948946E-07
 0.58960466448E-06 -.21237479275E-06 0.29155089796E-06 -.15791392515E-06 0.66418502306E-07
 0.24307459846E-07 0.81585838134E-07 0.14189338121E-05 -.18803330698E-05 0.25105531413E-05
 -.58863951812E-05 -.17637789644E-05 0.79091350119E-05 -.29469517395E-05 -.73359215134E-05
 -.87372574586E-05 -.24866066640E-06 0.39525956221E-05 0.12428891105E-05 0.23952815679E-05
 0.15091426645E-05 0.13647434244E-05 0.14624918925E-05 0.20540088467E-05 -.42617140488E-07
 0.59595858921E-06 -.24953001426E-06 0.20667196431E-06 0.24307411039E-07 -.15895708410E-06
 0.14509461840E-06 -.19368924694E-05 0.24812018704E-05 -.37890720449E-05 0.83071043745E-05
 0.54050712289E-05 -.15092488215E-04 -.57120767222E-05 0.16438057222E-04 0.20545896661E-04
 0.10812858442E-04 0.10550967933E-04 0.12174617533E-04 0.11941942147E-04 0.86390577914E-05
 0.59625136160E-05 0.20283686657E-05 0.14488180393E-05 0.11878188364E-05 -.11872688718E-06
 0.40296809522E-06 -.19176228341E-06 0.81585842776E-07 0.14509459673E-06 -.17110955868E-07
 0.22497358135E-05 -.19224143627E-05 0.99872165696E-05 0.27591886548E-05 0.71422222782E-05
 0.38387992509E-04 -.34453838854E-05 -.97660450991E-05 0.96996105435E-05 0.15636904169E-04
 0.40089731992E-04 0.36213616294E-04 0.29940091522E-04 0.18965152155E-04 0.10540132573E-04
 0.55571247312E-05 0.40194516923E-05 0.11114540540E-05 0.30269324309E-07 0.71054400870E-06
 -.91140034709E-06 0.14189337915E-05 -.19368924998E-05 0.22497358388E-05 -.40865837084E-05
 0.11081368041E-04 -.10091023188E-04 0.13477359332E-04 0.48910306296E-04 0.61001387078E-05
 -.24255042568E-04 0.44362531076E-04 0.11887551266E-03 0.11679782835E-03 0.12457488297E-03
 0.10755648939E-03 0.82029872998E-04 0.47485621682E-04 0.24402575162E-04 0.92099245755E-05
 0.52881953504E-05 0.82483796538E-07 0.16170477619E-05 -.12558669681E-05 0.15799516275E-05
 -.18803330543E-05 0.24812018857E-05 -.19224143717E-05 0.11081368054E-04 -.15477774978E-04
 -.17453071521E-06 0.20927127393E-04 -.69303158334E-05 0.88094642646E-04 0.12416311231E-03
 0.21024126345E-03 0.28490449962E-03 0.33688210704E-03 0.36597802591E-03 0.26992895628E-03
 0.17336324070E-03 0.83900923319E-04 0.38192102619E-04 0.12022784731E-04 0.56972604110E-05
 0.13795464317E-05 -.16132691056E-06 0.10630593531E-05 -.15668690943E-05 0.25105531262E-05
 -.37890720537E-05 0.99872165851E-05 -.10091023169E-04 -.17453072965E-06 0.98459662463E-05
 -.13537249158E-04 0.17527349307E-03 0.19323787636E-03 0.18879004782E-03 0.47519089056E-03
 0.73092747477E-03 0.86949185346E-03 0.79603695712E-03 0.55949429007E-03 0.30965627138E-03
 0.13935490619E-03 0.54391147699E-04 0.17011914811E-04 0.65408068873E-05 -.21305937359E-05
 0.39623888913E-05 -.41676644818E-05 0.49015896209E-05 -.58863952187E-05 0.83071043492E-05
 0.27591886659E-05 0.13477359352E-04 0.20927127388E-04 -.13537249178E-04 0.19397086050E-03
 0.21386507680E-03 0.22411897603E-03 0.85759239991E-03 0.16226747147E-02 0.20797873611E-02
 0.20513809544E-02 0.15374175930E-02 0.92318646903E-03 0.43909960534E-03 0.16726623000E-03
 0.56062638582E-04 0.13376807119E-04 0.34390924064E-05 0.19045680298E-05 -.70055728361E-06
 0.45436289101E-06 0.32850181264E-06 -.17637789068E-05 0.54050712747E-05 0.71422222750E-05
 0.48910306391E-04 -.69303157373E-05 0.17527349299E-03 0.21386507677E-03 0.27080633255E-03
 0.12012649331E-02 0.25401707334E-02 0.36514458519E-02 0.41457765989E-02 0.35772029360E-02
 0.23094301021E-02 0.11840959329E-02 0.48246665830E-03 0.18979049824E-03 0.54252274887E-04
 0.17086320638E-04 0.16700616181E-05 0.15278575264E-05 -.25543085616E-05 0.41874490132E-05
 -.59197592416E-05 0.79091350069E-05 -.15092488172E-04 0.38387992513E-04 0.61001387228E-05
 0.88094642666E-04 0.19323787634E-03 0.22411897605E-03 0.12012649331E-02 0.29050654197E-02
 0.47678154712E-02 0.62598514821E-02 0.62936364700E-02 0.47111176728E-02 0.26964967366E-02
 0.12118458690E-02 0.40454850758E-03 0.12915973662E-03 0.38277949553E-04 -.17846445024E-05
 0.13395413575E-04 -.75848917375E-05 0.59660085090E-05 -.49388387045E-05 0.42781269711E-05
 -.29469517337E-05 -.57120767424E-05 -.34453838705E-05 -.24255042547E-04 0.12416311229E-03
 0.18879004781E-03 0.85759239990E-03 0.25401707335E-02 0.47678154711E-02 0.72168677479E-02
 0.83826706656E-02 0.72445808527E-02 0.47233342468E-02 0.23814651687E-02 0.93959388662E-03
 0.25015794723E-03 0.96886148638E-04 0.56491236516E-04 -.94370091325E-06 0.14343981101E-04
 -.70748561901E-05 0.71999278917E-05 -.70064055187E-05 0.75955386188E-05 -.73359215054E-05
 0.16438057215E-04 -.97660450959E-05 0.44362531100E-04 0.21024126346E-03 0.47519089055E-03
 0.16226747147E-02 0.36514458519E-02 0.62598514821E-02 0.83826706657E-02 0.83636004096E-02
 0.62688627375E-02 0.35466042632E-02 0.16176761765E-02 0.59855356978E-03 0.13428258718E-03
 0.76901069022E-04 0.12929882526E-04 -.14244716101E-04 -.41807126052E-05 -.48384826155E-05
 0.59660085109E-05 -.65227162411E-05 0.79089137246E-05 -.87372574341E-05 0.20545896661E-04
 0.96996105388E-05 0.11887551265E-03 0.28490449959E-03 0.73092747478E-03 0.20797873612E-02
 0.41457765988E-02 0.62936364700E-02 0.72445808527E-02 0.62688627375E-02 0.40712380517E-02
 0.20848451439E-02 0.94804334855E-03 0.23531896374E-03 -.79054590447E-05 0.24726182672E-04
 -.37143224622E-04 -.17049250971E-04 -.12408234810E-04 0.41857313407E-05 -.25543085465E-05
 0.12506600531E-05 0.79834354364E-06 -.24866067284E-06 0.10812858435E-04 0.15636904165E-04
 0.11679782836E-03 0.33688210707E-03 0.86949185344E-03 0.20513809545E-02 0.35772029360E-02
 0.47111176728E-02 0.47233342468E-02 0.35466042632E-02 0.20848451439E-02 0.10742424266E-02
 0.33818238122E-03 -.52066096956E-04 0.54838610193E-04 0.49821003689E-04 0.59758867916E-05
 0.28510579558E-04 0.21917042197E-05 0.70531892068E-07 -.70055726775E-06 0.14475972540E-05
 -.65083332036E-06 0.39525956167E-05 0.10550967747E-04 0.40089731968E-04 0.12457488289E-03
 0.36597802585E-03 0.79603695700E-03 0.15374175929E-02 0.23094301024E-02 0.26964967366E-02
 0.23814651686E-02 0.16176761765E-02 0.94804334851E-03 0.33818238115E-03 -.46564862863E-04
 0.66084939760E-04 0.11894753924E-03 0.73091426582E-05 0.44760328878E-04 0.13379293805E-04
 0.71478612937E-05 -.45159848948E-05 0.39623888818E-05 -.26628183895E-05 0.33111697229E-05
 0.12428891022E-05 0.12174617576E-04 0.36213616274E-04 0.10755648937E-03 0.26992895624E-03
 0.55949429010E-03 0.92318646903E-03 0.11840959329E-02 0.12118458691E-02 0.93959388661E-03
 0.59855356977E-03 0.23531896372E-03 -.52066096931E-04 0.66084939789E-04 0.13078288724E-03
 0.56990936415E-06 0.19990663685E-04 0.18987204674E-04 0.57976338050E-05 -.20489058517E-05
 0.16464769946E-05 -.16132690269E-06 0.37515221144E-06 0.13897978396E-05 0.23952815832E-05
 0.11941942167E-04 0.29940091543E-04 0.82029873006E-04 0.17336324071E-03 0.30965627139E-03
 0.43909960536E-03 0.48246665819E-03 0.40454850760E-03 0.25015794723E-03 0.13428258712E-03
 -.79054590625E-05 0.54838610204E-04 0.11894753924E-03 0.56990935704E-06 0.10322502067E-04
 0.18674542495E-05 -.43012306480E-05 0.95686918608E-05 0.23228829127E-05 -.10725760035E-05
 0.16170477869E-05 -.74281582256E-06 0.19871253211E-05 0.15091426760E-05 0.86390577932E-05
 0.18965152137E-04 0.47485621705E-04 0.83900923312E-04 0.13935490619E-03 0.16726622995E-03
 0.18979049827E-03 0.12915973664E-03 0.96886148645E-04 0.76901069011E-04 0.24726182628E-04
 0.49821003683E-04 0.73091426103E-05 0.19990663716E-04 0.18674542779E-05 -.11246436116E-04
 0.11773934873E-04 -.69209016461E-06 -.50818318610E-06 0.10992445501E-05 0.30269332899E-07
 0.35551945122E-06 0.93451768328E-06 0.13647434184E-05 0.59625136153E-05 0.10540132580E-04
 0.24402575209E-04 0.38192102633E-04 0.54391147658E-04 0.56062638538E-04 0.54252274806E-04
 0.38277949551E-04 0.56491236537E-04 0.12929882547E-04 -.37143224602E-04 0.59758868023E-05
 0.44760328922E-04 0.18987204715E-04 -.43012306568E-05 0.11773934876E-04 -.18919162438E-05
 0.18210694925E-05 0.21175158506E-06 0.65849978139E-06 -.11872692727E-06 0.64512680588E-06
 0.54366483084E-07 0.14624918815E-05 0.20283686914E-05 0.55571247399E-05 0.92099245923E-05
 0.12022784731E-04 0.17011914796E-04 0.13376807141E-04 0.17086320675E-04 -.17846444586E-05
 -.94370090223E-06 -.14244716099E-04 -.17049250953E-04 0.28510579577E-04 0.13379293790E-04
 0.57976338417E-05 0.95686918310E-05 -.69209017800E-06 0.18210695015E-05 0.95042550354E-06
 0.90263861196E-06 0.12470056397E-05 -.42617126083E-07 0.93112466894E-06 -.46630017636E-07
 0.17945932822E-05 0.15250802504E-05 0.47987873953E-05 0.55541889849E-05 0.61399077176E-05
 0.70050336661E-05 0.26839096417E-05 0.33884935613E-05 0.42585599476E-05 -.93769969024E-05
 -.13667395196E-04 0.28116313232E-05 0.12174293718E-04 -.98329439310E-07 -.49610877311E-05
 0.38588679909E-05 0.66382386341E-06 0.29484659817E-05 0.23663040016E-05 0.12470056767E-05
 0.16679343137E-06 0.58960464855E-06 -.17480297345E-06 0.58960462636E-06 0.16679343899E-06
 0.12470056112E-05 0.90302484864E-06 0.12960536963E-05 0.32208603106E-05 0.82230198572E-06
 0.55980755353E-05 0.48661132391E-06 -.19805721778E-05 0.70004413038E-05 0.72424762841E-05
 0.70004413005E-05 -.19805721740E-05 0.48661137742E-06 0.55980755535E-05 0.82230200676E-06
 0.32208603133E-05 0.12960537164E-05 0.90302484978E-06 -.42617104932E-07 0.58960463703E-06
 -.23794662238E-06 0.41786869055E-06 -.21237480212E-06 0.40535838928E-06 -.34296811379E-07
 0.65849977712E-06 0.10992445273E-05 -.10725760181E-05 0.16464769913E-05 -.45159848925E-05
 0.70531932068E-07 0.41857313428E-05 -.48384825982E-05 -.70748561727E-05 -.75848917548E-05
 0.15278575468E-05 0.19045681494E-05 -.21305937084E-05 0.13795464407E-05 0.82483817082E-07
 0.11114540659E-05 0.11878187975E-05 0.93112475013E-06 -.17480295652E-06 0.41786870181E-06
 -.26342355103E-06 0.29155088067E-06 -.10151596105E-06 0.23119872663E-06 -.10006106389E-06
 -.90704202419E-06 0.17458791298E-05 -.17400841591E-05 0.53302757845E-05 0.82323260053E-06
 -.57165737938E-05 0.40566333375E-05 0.74119631620E-05 0.89543575024E-05 0.11797904959E-05
 -.32120714374E-06 0.37742104437E-05 0.17785601720E-05 0.24092257363E-05 0.12319418380E-05
 0.25316758703E-06 -.46629985748E-07 0.58960468226E-06 -.21237480042E-06 0.29155087672E-06
 -.15791397535E-06 0.66418505572E-07 0.24307463793E-07 0.81585839165E-07 0.14189337928E-05
 -.18803330682E-05 0.25105531456E-05 -.58863952149E-05 -.17637790397E-05 0.79091350022E-05
 -.29469517424E-05 -.73359215125E-05 -.87372574620E-05 -.24866065017E-06 0.39525957039E-05
 0.12428890746E-05 0.23952815759E-05 0.15091426648E-05 0.13647434095E-05 0.14624918835E-05
 0.17945932866E-05 0.16679345680E-06 0.40535843078E-06 -.10151592306E-06 0.66418501445E-07
 0.10666828235E-06 -.24182652563E-06 0.16284352357E-06 -.19085341720E-05 0.23296803523E-05
 -.34815478741E-05 0.69732980316E-05 0.38619143084E-05 -.96678940684E-05 0.32708022601E-05
 0.11292108586E-04 0.17358943096E-04 0.12084517511E-04 0.94327483526E-05 0.13061984594E-04
 0.11642498473E-04 0.91335567539E-05 0.56703177198E-05 0.23296448002E-05 0.15250803006E-05
 0.12470056667E-05 -.34296780186E-07 0.23119869966E-06 0.24307427793E-07 -.24182655390E-06
 0.49398345125E-06 -.45388018304E-06 0.25885923480E-05 -.30532619843E-05 0.50425791262E-05
 -.91548717440E-05 -.72490653649E-05 0.20423744924E-04 0.14447399853E-04 -.20531946515E-05
 0.37761205466E-05 0.29476482674E-04 0.42674753031E-04 0.42973582866E-04 0.33218534855E-04
 0.22259231177E-04 0.11478239194E-04 0.63320170373E-05 0.47987874239E-05 0.90302488470E-06
 0.65849975287E-06 -.10006104606E-06 0.81585828221E-07 0.16284351732E-06 -.45388010903E-06
 0.40766607345E-06 -.29341532319E-05 0.28071896329E-05 -.10582872553E-04 0.62271023493E-06
 0.24351352349E-05 -.30714294697E-04 0.32139780044E-04 0.84505384624E-04 0.11877306557E-03
 0.16235521612E-03 0.15952031650E-03 0.14443857754E-03 0.10371024387E-03 0.60933867457E-04
 0.29571261752E-04 0.11395645800E-04 0.55541890023E-05 0.12960537157E-05 0.10992445431E-05
 -.90704199895E-06 0.14189338139E-05 -.19085341478E-05 0.25885923667E-05 -.29341532501E-05
 0.54084291637E-05 -.11075605963E-04 0.15632968903E-04 -.44340041768E-05 -.30915433884E-04
 0.64049294221E-04 0.18079521226E-03 0.25675083850E-03 0.36496981312E-03 0.51567003726E-03
 0.52700702510E-03 0.41655592025E-03 0.25347707119E-03 0.12691448092E-03 0.51648159441E-04
 0.18706919633E-04 0.61399076677E-05 0.32208602909E-05 -.10725760105E-05 0.17458791404E-05
 -.18803330636E-05 0.23296803463E-05 -.30532620195E-05 0.28071896481E-05 -.11075605953E-04
 0.20592716961E-04 0.86950338712E-05 0.98731584269E-05 0.12154653983E-03 0.16603773970E-03
 0.46704093395E-03 0.95557840961E-03 0.14716572905E-02 0.17010372739E-02 0.14535114328E-02
 0.99773276515E-03 0.52762082445E-03 0.23237887117E-03 0.81950384174E-04 0.27746025918E-04
 0.70050336827E-05 0.82230197068E-06 0.16464769694E-05 -.17400841433E-05 0.25105531559E-05
 -.34815478640E-05 0.50425791642E-05 -.10582872557E-04 0.15632968874E-04 0.86950338659E-05
 0.25920985034E-04 0.15014531513E-03 0.17704320042E-03 0.80770330113E-03 0.20972908419E-02
 0.34893873217E-02 0.45755988190E-02 0.45463484556E-02 0.33873380581E-02 0.19316977965E-02
 0.87318342766E-03 0.32203775887E-03 0.10019855463E-03 0.27378718383E-04 0.26839096747E-05
 0.55980755276E-05 -.45159848902E-05 0.53302757641E-05 -.58863951937E-05 0.69732980238E-05
 -.91548717452E-05 0.62271024545E-06 -.44340041810E-05 0.98731584299E-05 0.15014531516E-03
 0.20412916960E-03 0.11059814160E-02 0.31957448145E-02 0.60386655997E-02 0.92834344714E-02
 0.10897646863E-01 0.93852576298E-02 0.60164547858E-02 0.29228269862E-02 0.11325116652E-02
 0.37274334211E-03 0.10298476293E-03 0.30549129727E-04 0.33884936322E-05 0.48661135083E-06
 0.70531919912E-07 0.82323262721E-06 -.17637788972E-05 0.38619143103E-05 -.72490652859E-05
 0.24351353258E-05 -.30915433896E-04 0.12154653983E-03 0.17704320043E-03 0.11059814160E-02
 0.36372116121E-02 0.79990969457E-02 0.14800200831E-01 0.20771630752E-01 0.20816321309E-01
 0.15021550040E-01 0.81060700076E-02 0.33727971397E-02 0.11458147442E-02 0.30859519206E-03
 0.78462299837E-04 0.15849831995E-04 0.42585599578E-05 -.19805721655E-05 0.41857313690E-05
 -.57165738071E-05 0.79091350237E-05 -.96678940534E-05 0.20423744945E-04 -.30714294698E-04
 0.64049294267E-04 0.16603773970E-03 0.80770330114E-03 0.31957448145E-02 0.79990969458E-02
 0.17455532955E-01 0.29190685336E-01 0.34713546257E-01 0.29191604861E-01 0.17709431349E-01
 0.80682623574E-02 0.29028852897E-02 0.90344488885E-03 0.23686196842E-03 0.54829840207E-04
 0.21551890413E-04 -.93769969018E-05 0.70004412881E-05 -.48384826151E-05 0.40566333196E-05
 -.29469517452E-05 0.32708022598E-05 0.14447399834E-04 0.32139780072E-04 0.18079521227E-03
 0.46704093393E-03 0.20972908419E-02 0.60386655997E-02 0.14800200831E-01 0.29190685336E-01
 0.41293423791E-01 0.41262970514E-01 0.29215043008E-01 0.15054250023E-01 0.59511035418E-02
 0.19192220580E-02 0.57994280509E-03 0.12183790473E-03 -.37274468992E-05 0.10217526408E-04
 -.13667395195E-04 0.72424762780E-05 -.70748561994E-05 0.74119631575E-05 -.73359214843E-05
 0.11292108593E-04 -.20531946025E-05 0.84505384669E-04 0.25675083851E-03 0.95557840957E-03
 0.34893873217E-02 0.92834344714E-02 0.20771630752E-01 0.34713546257E-01 0.41262970514E-01
 0.34703256219E-01 0.20886695779E-01 0.94075270029E-02 0.33177884961E-02 0.95861461682E-03
 0.28041284994E-03 0.30860859770E-04 0.85443330078E-05 0.17886145649E-04 0.28116312639E-05
 0.70004412942E-05 -.75848917573E-05 0.89543575054E-05 -.87372574503E-05 0.17358943095E-04
 0.37761205769E-05 0.11877306558E-03 0.36496981311E-03 0.14716572905E-02 0.45755988190E-02
 0.10897646863E-01 0.20816321309E-01 0.29191604861E-01 0.29215043008E-01 0.20886695779E-01
 0.10989616793E-01 0.44413201622E-02 0.13538214279E-02 0.43718922562E-03 0.18357658319E-03
 0.31864123780E-04 0.45906558922E-04 0.25054802411E-04 0.12174293667E-04 -.19805721943E-05
 0.15278575134E-05 0.11797904999E-05 -.24866070209E-06 0.12084517511E-04 0.29476482745E-04
 0.16235521608E-03 0.51567003725E-03 0.17010372738E-02 0.45463484556E-02 0.93852576297E-02
 0.15021550040E-01 0.17709431349E-01 0.15054250023E-01 0.94075270029E-02 0.44413201623E-02
 0.15540266768E-02 0.52889942184E-03 0.29653096175E-03 0.25719796582E-04 -.32242228322E-04
 -.46700422063E-05 -.24381267121E-04 -.98329467853E-07 0.48661134529E-06 0.19045680198E-05
 -.32120722883E-06 0.39525955773E-05 0.94327483200E-05 0.42674753130E-04 0.15952031654E-03
 0.52700702507E-03 0.14535114328E-02 0.33873380581E-02 0.60164547857E-02 0.81060700077E-02
 0.80682623574E-02 0.59511035419E-02 0.33177884962E-02 0.13538214279E-02 0.52889942194E-03
 0.31967512155E-03 0.24904401698E-04 -.98100390034E-04 -.13125082164E-04 -.45027404519E-04
 -.15493307795E-04 -.49610877675E-05 0.55980755608E-05 -.21305937296E-05 0.37742104364E-05
 0.12428890732E-05 0.13061984585E-04 0.42973582882E-04 0.14443857754E-03 0.41655592027E-03
 0.99773276514E-03 0.19316977965E-02 0.29228269862E-02 0.33727971397E-02 0.29028852897E-02
 0.19192220580E-02 0.95861461684E-03 0.43718922564E-03 0.29653096172E-03 0.24904401812E-04
 -.10783106126E-03 -.70726051788E-05 -.20615867265E-04 -.21458692851E-04 -.60565048896E-05
 0.38588679978E-05 0.82230196624E-06 0.13795464541E-05 0.17785601567E-05 0.23952815626E-05
 0.11642498503E-04 0.33218534856E-04 0.10371024383E-03 0.25347707122E-03 0.52762082442E-03
 0.87318342767E-03 0.11325116652E-02 0.11458147441E-02 0.90344488886E-03 0.57994280508E-03
 0.28041284987E-03 0.18357658319E-03 0.25719796568E-04 -.98100390133E-04 -.70726051469E-05
 -.11062291203E-04 -.21913489785E-05 0.33829971837E-05 -.73324972375E-05 0.66382383244E-06
 0.32208602893E-05 0.82483797133E-07 0.24092257333E-05 0.15091427035E-05 0.91335567271E-05
 0.22259231196E-04 0.60933867452E-04 0.12691448092E-03 0.23237887117E-03 0.32203775886E-03
 0.37274334207E-03 0.30859519202E-03 0.23686196845E-03 0.12183790472E-03 0.30860859785E-04
 0.31864123770E-04 -.32242228311E-04 -.13125082171E-04 -.20615867281E-04 -.21913489605E-05
 0.11589510017E-04 -.97031497373E-05 0.34705948667E-05 0.29484659951E-05 0.12960536939E-05
 0.11114540701E-05 0.12319418420E-05 0.13647434081E-05 0.56703176861E-05 0.11478239250E-04
 0.29571261742E-04 0.51648159423E-04 0.81950384188E-04 0.10019855464E-03 0.10298476294E-03
 0.78462299776E-04 0.54829840170E-04 -.37274468836E-05 0.85443329911E-05 0.45906558924E-04
 -.46700421876E-05 -.45027404564E-04 -.21458692855E-04 0.33829971767E-05 -.97031497604E-05
 0.44196155745E-05 0.19192263473E-05 0.23663039595E-05 0.90302484011E-06 0.11878188006E-05
 0.25316758497E-06 0.14624918913E-05 0.23296448070E-05 0.63320170247E-05 0.11395645821E-04
 0.18706919624E-04 0.27746025910E-04 0.27378718365E-04 0.30549129732E-04 0.15849831966E-04
 0.21551890437E-04 0.10217526410E-04 0.17886145666E-04 0.25054802430E-04 -.24381267113E-04
 -.15493307761E-04 -.60565048611E-05 -.73324972219E-05 0.34705949073E-05 0.19192263652E-05
 0.20023541756E-05 0.53614497851E-05 0.15250802301E-05 0.20540088404E-05 -.59033987019E-07
 0.20540088721E-05 0.15250802363E-05 0.53614498188E-05 0.60969899490E-05 0.95132910324E-05
 0.11390232628E-04 0.84235276555E-05 0.12095265845E-04 0.57023198037E-05 -.98565295695E-05
 0.20700685332E-05 0.23806287453E-04 0.20700685420E-05 -.98565295191E-05 0.57023198805E-05
 0.12095265833E-04 0.84235276648E-05 0.11390232638E-04 0.95132910449E-05 0.60969899365E-05
 0.15250802535E-05 0.17945932557E-05 -.46630016939E-07 0.93112467725E-06 -.42617170317E-07
 0.12470056477E-05 0.90263856956E-06 0.23663040008E-05 0.29484659562E-05 0.66382384334E-06
 0.38588680366E-05 -.49610877717E-05 -.98329435230E-07 0.12174293673E-04 0.28116313518E-05
 -.13667395171E-04 -.93769968908E-05 0.42585599879E-05 0.33884936234E-05 0.26839096874E-05
 0.70050336800E-05 0.61399077144E-05 0.55541889879E-05 0.47987874095E-05 0.20540088448E-05
 -.46630012978E-07 0.82100508535E-06 -.35426452436E-06 0.59595857500E-06 -.34296833923E-07
 0.65483927174E-06 0.21175159089E-06 -.50818317872E-06 0.23228829567E-05 -.20489058024E-05
 0.71478613034E-05 0.21917042438E-05 -.12408234783E-04 -.41807125830E-05 0.14343981101E-04
 0.13395413594E-04 0.16700615882E-05 0.34390924456E-05 0.65408068692E-05 0.56972604761E-05
 0.52881953872E-05 0.40194516810E-05 0.14488179973E-05 -.59033971452E-07 0.93112467199E-06
 -.35426453101E-06 0.48994208934E-06 -.24952998421E-06 0.23119869855E-06 0.33283727368E-07
 0.20481154556E-06 0.15746155255E-05 -.19968607515E-05 0.31088579988E-05 -.74274316211E-05
 -.33445361484E-05 0.13875179906E-04 0.60194075645E-05 -.12577434765E-04 -.11969148792E-04
 0.15143413972E-05 0.38442534498E-05 0.32662497358E-05 0.33756907627E-05 0.30598755799E-05
 0.18568673027E-05 0.22654664985E-05 0.20540088649E-05 -.42617129996E-07 0.59595863135E-06
 -.24953002187E-06 0.20667196008E-06 0.24307421775E-07 -.15895705054E-06 0.14509459120E-06
 -.19368924846E-05 0.24812018508E-05 -.37890720579E-05 0.83071043807E-05 0.54050712361E-05
 -.15092488235E-04 -.57120767281E-05 0.16438057218E-04 0.20545896674E-04 0.10812858463E-04
 0.10550967670E-04 0.12174617533E-04 0.11941942151E-04 0.86390578080E-05 0.59625136303E-05
 0.20283686653E-05 0.15250802596E-05 0.12470056418E-05 -.34296822794E-07 0.23119868882E-06
 0.24307416585E-07 -.24182654854E-06 0.49398339992E-06 -.45388018277E-06 0.25885923373E-05
 -.30532620006E-05 0.50425791099E-05 -.91548717429E-05 -.72490654172E-05 0.20423744944E-04
 0.14447399874E-04 -.20531946415E-05 0.37761205725E-05 0.29476482736E-04 0.42674753101E-04
 0.42973582881E-04 0.33218534862E-04 0.22259231184E-04 0.11478239219E-04 0.63320170367E-05
 0.53614498087E-05 0.90263860280E-06 0.65483929611E-06 0.33283756284E-07 -.15895704181E-06
 0.49398341281E-06 -.87909985869E-06 0.91892326789E-06 -.34598878551E-05 0.41837867023E-05
 -.63243631206E-05 0.13677496016E-04 0.18445448083E-04 -.13786584999E-04 0.10843862355E-04
 0.86974629451E-04 0.14278060108E-03 0.16773660197E-03 0.18186671718E-03 0.15887708104E-03
 0.11627163936E-03 0.66292300544E-04 0.32958248819E-04 0.12056358361E-04 0.60969899290E-05
 0.23663039990E-05 0.21175156266E-06 0.20481154858E-06 0.14509456896E-06 -.45388018112E-06
 0.91892326040E-06 -.97583977436E-06 0.41545529147E-05 -.35627805249E-05 0.14783684139E-04
 0.38302075326E-05 0.15885424963E-04 0.12069532590E-03 0.17183528861E-03 0.28620598882E-03
 0.49585068103E-03 0.65209219509E-03 0.67410738344E-03 0.52664237769E-03 0.32091826182E-03
 0.15847485866E-03 0.63748436493E-04 0.23136904119E-04 0.95132910884E-05 0.29484659790E-05
 -.50818318191E-06 0.15746155240E-05 -.19368924659E-05 0.25885923377E-05 -.34598878338E-05
 0.41545529487E-05 -.65188253620E-05 0.15324617393E-04 -.94396085322E-05 0.45657423346E-04
 0.17390220356E-03 0.29400226222E-03 0.69558818605E-03 0.14843373108E-02 0.22795395723E-02
 0.25565733893E-02 0.22104239462E-02 0.14657925639E-02 0.76959724314E-03 0.32425776602E-03
 0.11554811370E-03 0.35037598665E-04 0.11390232619E-04 0.66382387437E-06 0.23228829510E-05
 -.19968607249E-05 0.24812018305E-05 -.30532619992E-05 0.41837867358E-05 -.35627805194E-05
 0.15324617412E-04 -.12965880244E-04 0.43261397147E-04 0.17200486528E-03 0.45659201034E-03
 0.15650440555E-02 0.34613472707E-02 0.59997079709E-02 0.80430344067E-02 0.80487266371E-02
 0.60081874852E-02 0.33520853393E-02 0.14705951903E-02 0.52129661663E-03 0.15958263645E-03
 0.40352593536E-04 0.84235275753E-05 0.38588680178E-05 -.20489057999E-05 0.31088579854E-05
 -.37890720628E-05 0.50425791256E-05 -.63243631639E-05 0.14783684131E-04 -.94396085536E-05
 0.43261397147E-04 0.17674042956E-03 0.60955982686E-03 0.24100418338E-02 0.60205302344E-02
 0.12589554963E-01 0.20753305124E-01 0.24588121236E-01 0.20808932885E-01 0.12828269167E-01
 0.59865470596E-02 0.22068753409E-02 0.67944450472E-03 0.18081569019E-03 0.44929344237E-04
 0.12095265798E-04 -.49610877545E-05 0.71478613131E-05 -.74274316659E-05 0.83071043568E-05
 -.91548717148E-05 0.13677496081E-04 0.38302075500E-05 0.45657423329E-04 0.17200486526E-03
 0.60955982685E-03 0.27419505167E-02 0.80194300862E-02 0.20592074411E-01 0.41243590240E-01
 0.58874331688E-01 0.58802718948E-01 0.41191414531E-01 0.20866523469E-01 0.80768530162E-02
 0.25360276801E-02 0.66689385816E-03 0.16063764623E-03 0.27563344312E-04 0.57023199129E-05
 -.98329459321E-07 0.21917042716E-05 -.33445360177E-05 0.54050712413E-05 -.72490653040E-05
 0.18445448289E-04 0.15885424961E-04 0.17390220360E-03 0.45659201041E-03 0.24100418340E-02
 0.80194300861E-02 0.24427294128E-01 0.58883479470E-01 0.10268953599E+00 0.12430895942E+00
 0.10251782876E+00 0.58718463519E-01 0.24645215971E-01 0.80699131406E-02 0.21938053859E-02
 0.54230316832E-03 0.11769478496E-03 0.26300337491E-04 -.98565295348E-05 0.12174293697E-04
 -.12408234770E-04 0.13875179922E-04 -.15092488217E-04 0.20423744937E-04 -.13786585043E-04
 0.12069532590E-03 0.29400226221E-03 0.15650440555E-02 0.60205302344E-02 0.20592074411E-01
 0.58883479470E-01 0.12443930992E+00 0.18494784200E+00 0.18490324196E+00 0.12425996507E+00
 0.58685514016E-01 0.20885637082E-01 0.60262482732E-02 0.14292854241E-02 0.32720773425E-03
 0.49987086463E-04 0.13775877283E-04 0.20700685576E-05 0.28116313670E-05 -.41807125886E-05
 0.60194075825E-05 -.57120767143E-05 0.14447399865E-04 0.10843862353E-04 0.17183528861E-03
 0.69558818603E-03 0.34613472707E-02 0.12589554963E-01 0.41243590240E-01 0.10268953599E+00
 0.18494784200E+00 0.22697553777E+00 0.18495680436E+00 0.10244338100E+00 0.41173861272E-01
 0.12879461287E-01 0.33809191181E-02 0.70598630969E-03 0.17400102939E-03 0.53557664971E-04
 0.11705897775E-04 0.23806287497E-04 -.13667395181E-04 0.14343981075E-04 -.12577434752E-04
 0.16438057187E-04 -.20531946399E-05 0.86974629438E-04 0.28620598883E-03 0.14843373108E-02
 0.59997079708E-02 0.20753305124E-01 0.58874331688E-01 0.12430895942E+00 0.18490324196E+00
 0.18495680436E+00 0.12422377421E+00 0.58661256562E-01 0.20884906370E-01 0.60344798945E-02
 0.14903154537E-02 0.32417324224E-03 0.81302478957E-04 0.30233220130E-04 -.20376013942E-04
 0.20700685032E-05 -.93769968921E-05 0.13395413526E-04 -.11969148827E-04 0.20545896646E-04
 0.37761205653E-05 0.14278060106E-03 0.49585068102E-03 0.22795395723E-02 0.80430344067E-02
 0.24588121236E-01 0.58802718948E-01 0.10251782876E+00 0.12425996507E+00 0.10244338100E+00
 0.58661256562E-01 0.24672821978E-01 0.80954677097E-02 0.23243431669E-02 0.51545103210E-03
 0.35797022498E-04 0.18928710404E-05 -.35798372495E-04 -.29669869007E-04 -.98565295589E-05
 0.42585599605E-05 0.16700616012E-05 0.15143413475E-05 0.10812858450E-04 0.29476482700E-04
 0.16773660204E-03 0.65209219509E-03 0.25565733893E-02 0.80487266371E-02 0.20808932885E-01
 0.41191414531E-01 0.58718463519E-01 0.58685514016E-01 0.41173861272E-01 0.20884906370E-01
 0.80954677097E-02 0.26607416452E-02 0.68091069221E-03 0.11511274352E-04 0.28533738984E-04
 0.47974207520E-04 0.10667380638E-04 0.25643319530E-04 0.57023198713E-05 0.33884936275E-05
 0.34390924462E-05 0.38442534440E-05 0.10550967699E-04 0.42674753105E-04 0.18186671734E-03
 0.67410738348E-03 0.22104239462E-02 0.60081874852E-02 0.12828269167E-01 0.20866523469E-01
 0.24645215971E-01 0.20885637082E-01 0.12879461287E-01 0.60344798946E-02 0.23243431670E-02
 0.68091069227E-03 0.27432174647E-04 0.49478061896E-04 0.12447018847E-03 0.30136662783E-04
 0.54631212531E-04 0.22502107424E-04 0.12095265842E-04 0.26839096730E-05 0.65408068684E-05
 0.32662497321E-05 0.12174617573E-04 0.42973582863E-04 0.15887708110E-03 0.52664237769E-03
 0.14657925639E-02 0.33520853393E-02 0.59865470596E-02 0.80768530162E-02 0.80699131406E-02
 0.60262482732E-02 0.33809191181E-02 0.14903154537E-02 0.51545103207E-03 0.11511274352E-04
 0.49478061840E-04 0.13663702646E-03 0.27615720871E-04 0.31183149188E-04 0.32299483016E-04
 0.17304299027E-04 0.84235276219E-05 0.70050336737E-05 0.56972604467E-05 0.33756907707E-05
 0.11941942176E-04 0.33218534823E-04 0.11627163936E-03 0.32091826184E-03 0.76959724316E-03
 0.14705951903E-02 0.22068753408E-02 0.25360276802E-02 0.21938053859E-02 0.14292854241E-02
 0.70598630965E-03 0.32417324226E-03 0.35797022456E-04 0.28533738998E-04 0.12447018843E-03
 0.27615720857E-04 0.21954445347E-04 0.12088667151E-04 0.11359574369E-04 0.19342694853E-04
 0.11390232625E-04 0.61399077059E-05 0.52881953957E-05 0.30598755784E-05 0.86390578151E-05
 0.22259231183E-04 0.66292300514E-04 0.15847485863E-03 0.32425776600E-03 0.52129661662E-03
 0.67944450471E-03 0.66689385817E-03 0.54230316828E-03 0.32720773427E-03 0.17400102941E-03
 0.81302478938E-04 0.18928710830E-05 0.47974207501E-04 0.30136662800E-04 0.31183149138E-04
 0.12088667139E-04 0.27757268120E-05 0.25058917741E-04 0.12225728907E-04 0.95132910038E-05
 0.55541890048E-05 0.40194516825E-05 0.18568672930E-05 0.59625136148E-05 0.11478239218E-04
 0.32958248782E-04 0.63748436477E-04 0.11554811367E-03 0.15958263645E-03 0.18081569017E-03
 0.16063764626E-03 0.11769478494E-03 0.49987086467E-04 0.53557664969E-04 0.30233220101E-04
 -.35798372501E-04 0.10667380620E-04 0.54631212452E-04 0.32299483005E-04 0.11359574324E-04
 0.25058917766E-04 0.13401255876E-04 0.12559326542E-04 0.60969899588E-05 0.47987873935E-05
 0.14488180029E-05 0.22654664934E-05 0.20283686558E-05 0.63320170589E-05 0.12056358317E-04
 0.23136904116E-04 0.35037598612E-04 0.40352593517E-04 0.44929344253E-04 0.27563344330E-04
 0.26300337509E-04 0.13775877281E-04 0.11705897758E-04 -.20376013952E-04 -.29669869002E-04
 0.25643319553E-04 0.22502107357E-04 0.17304299023E-04 0.19342694870E-04 0.12225728910E-04
 0.12559326519E-04 0.11315649199E-04 0.12056358376E-04 0.63320170422E-05 0.20283686602E-05
 0.22654665082E-05 0.14488179673E-05 0.47987874083E-05 0.60969899438E-05 0.11315649193E-04
 0.12559326501E-04 0.12225728911E-04 0.19342694905E-04 0.17304299037E-04 0.22502107555E-04
 0.25643319494E-04 -.29669869029E-04 -.20376013943E-04 0.11705897783E-04 0.13775877280E-04
 0.26300337402E-04 0.27563344334E-04 0.44929344220E-04 0.40352593518E-04 0.35037598650E-04
 0.23136904147E-04 0.63320170188E-05 0.23296447687E-05 0.14624919261E-05 0.25316759733E-06
 0.11878187221E-05 0.90302485744E-06 0.23663039522E-05 0.20023541975E-05 0.19192263429E-05
 0.34705948812E-05 -.73324972011E-05 -.60565048880E-05 -.15493307760E-04 -.24381267143E-04
 0.25054802431E-04 0.17886145699E-04 0.10217526428E-04 0.21551890423E-04 0.15849832079E-04
 0.30549129732E-04 0.27378718373E-04 0.27746025921E-04 0.18706919625E-04 0.11395645805E-04
 0.20283686784E-05 0.14624918799E-05 0.54366530541E-07 0.64512679259E-06 -.11872694166E-06
 0.65849978308E-06 0.21175161515E-06 0.95042550104E-06 0.18210694897E-05 -.69209015921E-06
 0.95686918917E-05 0.57976338237E-05 0.13379293859E-04 0.28510579560E-04 -.17049250974E-04
 -.14244716083E-04 -.94370090606E-06 -.17846444827E-05 0.17086320620E-04 0.13376807092E-04
 0.17011914828E-04 0.12022784732E-04 0.92099245926E-05 0.55571247386E-05 0.22654665472E-05
 0.25316759936E-06 0.64512681401E-06 -.25698334268E-06 0.40296804377E-06 -.10006106026E-06
 0.20481148975E-06 -.86808456302E-07 -.15873611690E-05 0.15902467020E-05 -.93037161742E-05
 -.38935121190E-05 -.96839578965E-05 -.30967841680E-04 0.15057869097E-04 0.21984261053E-04
 0.14659538789E-04 0.23487308145E-04 0.11170186671E-04 0.17889547967E-04 0.14423231354E-04
 0.12221959054E-04 0.71738062462E-05 0.33066859372E-05 0.14488180142E-05 0.11878188149E-05
 -.11872689510E-06 0.40296808963E-06 -.19176226314E-06 0.81585845213E-07 0.14509462738E-06
 -.17110950091E-07 0.22497358432E-05 -.19224143738E-05 0.99872165864E-05 0.27591886839E-05
 0.71422222242E-05 0.38387992493E-04 -.34453838720E-05 -.97660451045E-05 0.96996105317E-05
 0.15636904149E-04 0.40089731980E-04 0.36213616288E-04 0.29940091532E-04 0.18965152178E-04
 0.10540132548E-04 0.55571247445E-05 0.47987873915E-05 0.90302486300E-06 0.65849977049E-06
 -.10006103879E-06 0.81585878513E-07 0.16284351450E-06 -.45388011082E-06 0.40766606445E-06
 -.29341532434E-05 0.28071896313E-05 -.10582872555E-04 0.62271024434E-06 0.24351352813E-05
 -.30714294677E-04 0.32139780049E-04 0.84505384613E-04 0.11877306558E-03 0.16235521607E-03
 0.15952031659E-03 0.14443857754E-03 0.10371024379E-03 0.60933867464E-04 0.29571261734E-04
 0.11395645802E-04 0.60969899451E-05 0.23663039964E-05 0.21175159385E-06 0.20481156180E-06
 0.14509459078E-06 -.45388016159E-06 0.91892332128E-06 -.97583977104E-06 0.41545529690E-05
 -.35627805186E-05 0.14783684160E-04 0.38302075383E-05 0.15885425092E-04 0.12069532591E-03
 0.17183528858E-03 0.28620598881E-03 0.49585068103E-03 0.65209219504E-03 0.67410738342E-03
 0.52664237765E-03 0.32091826183E-03 0.15847485866E-03 0.63748436468E-04 0.23136904119E-04
 0.11315649141E-04 0.20023541904E-05 0.95042546985E-06 -.86808469925E-07 -.17110971225E-07
 0.40766607947E-06 -.97583974179E-06 0.13020508908E-05 -.43034387194E-05 0.70028961579E-05
 -.90613159095E-05 0.34098799498E-04 0.13096615641E-03 0.26813823153E-03 0.86137184908E-03
 0.17466522497E-02 0.25725785835E-02 0.29554073281E-02 0.25335373671E-02 0.16791792343E-02
 0.87253140164E-03 0.36565179451E-03 0.12910763332E-03 0.38245563932E-04 0.12559326510E-04
 0.19192263617E-05 0.18210694829E-05 -.15873611661E-05 0.22497357895E-05 -.29341532425E-05
 0.41545529870E-05 -.43034387368E-05 0.11549342769E-04 -.16364480279E-05 0.81848806413E-04
 0.19855556424E-03 0.61381137939E-03 0.20134699420E-02 0.45299370869E-02 0.80029072912E-02
 0.10879287322E-01 0.10929538398E-01 0.80718045845E-02 0.44680989229E-02 0.19206217093E-02
 0.67297053852E-03 0.19920945371E-03 0.51855887938E-04 0.12225728849E-04 0.34705948928E-05
 -.69209017471E-06 0.15902466851E-05 -.19224143828E-05 0.28071896367E-05 -.35627804179E-05
 0.70028961605E-05 -.16364479912E-05 0.86326133001E-04 0.24436824646E-03 0.97533796152E-03
 0.34470332408E-02 0.91967634463E-02 0.20781278382E-01 0.34688995686E-01 0.41207200199E-01
 0.34654210512E-01 0.20853402014E-01 0.94113170344E-02 0.33520181365E-02 0.99424698307E-03
 0.25566283449E-03 0.60412761240E-04 0.19342694873E-04 -.73324972263E-05 0.95686919029E-05
 -.93037161855E-05 0.99872165625E-05 -.10582872560E-04 0.14783684158E-04 -.90613159272E-05
 0.81848806436E-04 0.24436824650E-03 0.11529556019E-02 0.45417614752E-02 0.14811890873E-01
 0.41256749165E-01 0.84999653087E-01 0.12425110126E+00 0.12426543561E+00 0.84786649809E-01
 0.41143466357E-01 0.15056524994E-01 0.44800682834E-02 0.11103423767E-02 0.26317559045E-03
 0.40959575212E-04 0.17304299010E-04 -.60565048933E-05 0.57976338273E-05 -.38935121078E-05
 0.27591886595E-05 0.62271023510E-06 0.38302075572E-05 0.34098799506E-04 0.19855556424E-03
 0.97533796149E-03 0.45417614752E-02 0.17453879388E-01 0.58822948895E-01 0.15138290644E+00
 0.28002450864E+00 0.34716903588E+00 0.28004755496E+00 0.15125558072E+00 0.58668696328E-01
 0.17679498878E-01 0.44959962477E-02 0.97202526619E-03 0.22212186649E-03 0.27951898923E-04
 0.22502107455E-04 -.15493307812E-04 0.13379293796E-04 -.96839578735E-05 0.71422222949E-05
 0.24351353292E-05 0.15885424995E-04 0.13096615639E-03 0.61381137959E-03 0.34470332408E-02
 0.14811890873E-01 0.58822948895E-01 0.18508737688E+00 0.43259225179E+00 0.68376228541E+00
 0.68383680741E+00 0.43274735676E+00 0.18492878087E+00 0.58706269924E-01 0.15006160989E-01
 0.34193769211E-02 0.62049412329E-03 0.15109205962E-03 -.43320988923E-05 0.25643319544E-04
 -.24381267117E-04 0.28510579555E-04 -.30967841681E-04 0.38387992555E-04 -.30714294692E-04
 0.12069532585E-03 0.26813823153E-03 0.20134699420E-02 0.91967634463E-02 0.41256749166E-01
 0.15138290644E+00 0.43259225179E+00 0.86803277173E+00 0.11102518215E+01 0.86828163316E+00
 0.43277990012E+00 0.15124392614E+00 0.41173237313E-01 0.93303272329E-02 0.19734509939E-02
 0.35371731051E-03 0.89551730253E-04 0.16101939774E-05 -.29669869011E-04 0.25054802420E-04
 -.17049250937E-04 0.15057869101E-04 -.34453838750E-05 0.32139780036E-04 0.17183528862E-03
 0.86137184907E-03 0.45299370870E-02 0.20781278382E-01 0.84999653087E-01 0.28002450864E+00
 0.68376228541E+00 0.11102518215E+01 0.11102262708E+01 0.68388258181E+00 0.28018900868E+00
 0.84767321710E-01 0.20757364674E-01 0.45283016063E-02 0.85933577382E-03 0.20272156138E-03
 -.38278544657E-04 0.35088259974E-04 -.20376013947E-04 0.17886145669E-04 -.14244716093E-04
 0.21984261029E-04 -.97660450784E-05 0.84505384643E-04 0.28620598881E-03 0.17466522497E-02
 0.80029072912E-02 0.34688995686E-01 0.12425110126E+00 0.34716903588E+00 0.68383680741E+00
 0.86828163316E+00 0.68388258181E+00 0.34744398161E+00 0.12420370221E+00 0.34629820435E-01
 0.80323353051E-02 0.16509054976E-02 0.32107665971E-03 0.34945777950E-04 -.35391733511E-05
 0.21992492484E-04 0.11705897767E-04 0.10217526397E-04 -.94370092506E-06 0.14659538779E-04
 0.96996105170E-05 0.11877306560E-03 0.49585068101E-03 0.25725785836E-02 0.10879287322E-01
 0.41207200199E-01 0.12426543561E+00 0.28004755496E+00 0.43274735676E+00 0.43277990012E+00
 0.28018900868E+00 0.12420370221E+00 0.41165453150E-01 0.10921222904E-01 0.24462983816E-02
 0.50517621753E-03 0.19281792210E-03 0.44623195063E-04 0.58726464542E-04 0.35088259981E-04
 0.13775877316E-04 0.21551890408E-04 -.17846444787E-05 0.23487308123E-04 0.15636904123E-04
 0.16235521608E-03 0.65209219509E-03 0.29554073281E-02 0.10929538398E-01 0.34654210512E-01
 0.84786649809E-01 0.15125558072E+00 0.18492878087E+00 0.15124392614E+00 0.84767321710E-01
 0.34629820435E-01 0.10921222904E-01 0.28345142823E-02 0.63402301390E-03 0.31444760032E-03
 0.36270209534E-04 -.15630840177E-04 -.14260382981E-04 0.16101939863E-05 0.26300337492E-04
 0.15849831982E-04 0.17086320632E-04 0.11170186633E-04 0.40089731943E-04 0.15952031653E-03
 0.67410738347E-03 0.25335373671E-02 0.80718045844E-02 0.20853402014E-01 0.41143466357E-01
 0.58668696328E-01 0.58706269924E-01 0.41173237313E-01 0.20757364674E-01 0.80323353052E-02
 0.24462983817E-02 0.63402301390E-03 0.32853464245E-03 0.31733527081E-04 -.10115827755E-03
 -.32782501812E-04 -.33773456093E-04 -.43320988640E-05 0.27563344308E-04 0.30549129711E-04
 0.13376807122E-04 0.17889547962E-04 0.36213616283E-04 0.14443857752E-03 0.52664237768E-03
 0.16791792343E-02 0.44680989229E-02 0.94113170343E-02 0.15056524994E-01 0.17679498878E-01
 0.15006160989E-01 0.93303272329E-02 0.45283016063E-02 0.16509054976E-02 0.50517621753E-03
 0.31444760032E-03 0.31733526924E-04 -.11306803998E-03 -.27027421291E-04 -.26102408986E-05
 -.74711317756E-06 0.27951898934E-04 0.44929344230E-04 0.27378718388E-04 0.17011914822E-04
 0.14423231377E-04 0.29940091545E-04 0.10371024379E-03 0.32091826183E-03 0.87253140160E-03
 0.19206217093E-02 0.33520181365E-02 0.44800682834E-02 0.44959962477E-02 0.34193769213E-02
 0.19734509939E-02 0.85933577385E-03 0.32107665971E-03 0.19281792213E-03 0.36270209520E-04
 -.10115827758E-03 -.27027421316E-04 0.10344388104E-04 0.33037337965E-04 0.49619001733E-04
 0.40959575226E-04 0.40352593523E-04 0.27746025939E-04 0.12022784709E-04 0.12221959047E-04
 0.18965152130E-04 0.60933867471E-04 0.15847485868E-03 0.36565179448E-03 0.67297053848E-03
 0.99424698307E-03 0.11103423767E-02 0.97202526617E-03 0.62049412324E-03 0.35371731050E-03
 0.20272156141E-03 0.34945777945E-04 0.44623195047E-04 -.15630840165E-04 -.32782501812E-04
 -.26102409192E-05 0.33037337949E-04 0.67110087670E-04 0.49548732310E-04 0.60412761247E-04
 0.35037598702E-04 0.18706919642E-04 0.92099245946E-05 0.71738062562E-05 0.10540132580E-04
 0.29571261755E-04 0.63748436432E-04 0.12910763329E-03 0.19920945369E-03 0.25566283446E-03
 0.26317559043E-03 0.22212186645E-03 0.15109205960E-03 0.89551730258E-04 -.38278544671E-04
 -.35391733617E-05 0.58726464538E-04 -.14260382992E-04 -.33773456183E-04 -.74711321173E-06
 0.49619001696E-04 0.49548732320E-04 0.66447341293E-04 0.51855887937E-04 0.23136904072E-04
 0.11395645807E-04 0.55571247580E-05 0.33066859248E-05 0.55571247436E-05 0.11395645835E-04
 0.23136904084E-04 0.38245563924E-04 0.51855887923E-04 0.60412761235E-04 0.40959575229E-04
 0.27951898916E-04 -.43320987639E-05 0.16101939741E-05 0.35088260009E-04 0.21992492452E-04
 0.35088259989E-04 0.16101939714E-05 -.43320988978E-05 0.27951898920E-04 0.40959575166E-04
 0.60412761239E-04 0.51855887910E-04 0.38245563924E-04 0.32958248788E-04 0.11478239224E-04
 0.59625136271E-05 0.18568672940E-05 0.40194516247E-05 0.55541890168E-05 0.95132910651E-05
 0.12559326525E-04 0.13401255854E-04 0.25058917767E-04 0.11359574355E-04 0.32299483023E-04
 0.54631212477E-04 0.10667380633E-04 -.35798372462E-04 0.30233220120E-04 0.53557664962E-04
 0.49987086444E-04 0.11769478480E-03 0.16063764623E-03 0.18081569015E-03 0.15958263644E-03
 0.11554811369E-03 0.63748436494E-04 0.11478239286E-04 0.56703176634E-05 0.13647434070E-05
 0.12319418431E-05 0.11114540493E-05 0.12960536932E-05 0.29484659711E-05 0.19192263677E-05
 0.44196155745E-05 -.97031497537E-05 0.33829971814E-05 -.21458692839E-04 -.45027404527E-04
 -.46700421908E-05 0.45906558980E-04 0.85443329984E-05 -.37274469167E-05 0.54829840184E-04
 0.78462299908E-04 0.10298476295E-03 0.10019855463E-03 0.81950384192E-04 0.51648159450E-04
 0.29571261753E-04 0.59625136026E-05 0.13647434048E-05 0.93451769934E-06 0.35551944913E-06
 0.30269308678E-07 0.10992445610E-05 -.50818318426E-06 0.18210694810E-05 -.18919162313E-05
 0.11773934893E-04 -.43012306504E-05 0.18987204729E-04 0.44760328903E-04 0.59758867950E-05
 -.37143224601E-04 0.12929882524E-04 0.56491236520E-04 0.38277949535E-04 0.54252274963E-04
 0.56062638536E-04 0.54391147694E-04 0.38192102624E-04 0.24402575230E-04 0.10540132584E-04
 0.18568672611E-05 0.12319418257E-05 0.35551947215E-06 -.14712203304E-06 0.71054398283E-06
 -.90704199868E-06 0.15746155515E-05 -.15873611474E-05 0.33199436160E-05 -.10878300486E-04
 0.75895035742E-05 -.14910293588E-04 -.42905300346E-04 0.15292920025E-05 0.50301624309E-04
 0.15047948037E-04 -.10565625768E-04 0.34139301453E-04 0.43697654657E-04 0.47669571108E-04
 0.34533972756E-04 0.24417304368E-04 0.12309726772E-04 0.71738062582E-05 0.40194516700E-05
 0.11114540558E-05 0.30269327445E-07 0.71054400605E-06 -.91140037057E-06 0.14189337902E-05
 -.19368925111E-05 0.22497358201E-05 -.40865837227E-05 0.11081368041E-04 -.10091023178E-04
 0.13477359336E-04 0.48910306379E-04 0.61001387045E-05 -.24255042572E-04 0.44362531054E-04
 0.11887551270E-03 0.11679782833E-03 0.12457488296E-03 0.10755648941E-03 0.82029873004E-04
 0.47485621695E-04 0.24402575196E-04 0.92099245936E-05 0.55541890064E-05 0.12960536975E-05
 0.10992445525E-05 -.90704198466E-06 0.14189337406E-05 -.19085341269E-05 0.25885923368E-05
 -.29341532396E-05 0.54084291604E-05 -.11075605959E-04 0.15632968912E-04 -.44340041989E-05
 -.30915433948E-04 0.64049294251E-04 0.18079521224E-03 0.25675083848E-03 0.36496981308E-03
 0.51567003723E-03 0.52700702511E-03 0.41655592026E-03 0.25347707122E-03 0.12691448091E-03
 0.51648159439E-04 0.18706919615E-04 0.95132910590E-05 0.29484659950E-05 -.50818315660E-06
 0.15746155392E-05 -.19368924687E-05 0.25885923794E-05 -.34598878326E-05 0.41545529415E-05
 -.65188253506E-05 0.15324617385E-04 -.94396085681E-05 0.45657423331E-04 0.17390220355E-03
 0.29400226224E-03 0.69558818601E-03 0.14843373108E-02 0.22795395723E-02 0.25565733893E-02
 0.22104239464E-02 0.14657925639E-02 0.76959724313E-03 0.32425776602E-03 0.11554811372E-03
 0.35037598687E-04 0.12559326482E-04 0.19192263726E-05 0.18210694820E-05 -.15873611650E-05
 0.22497358313E-05 -.29341532463E-05 0.41545529669E-05 -.43034387170E-05 0.11549342785E-04
 -.16364480292E-05 0.81848806412E-04 0.19855556421E-03 0.61381137957E-03 0.20134699420E-02
 0.45299370870E-02 0.80029072912E-02 0.10879287322E-01 0.10929538398E-01 0.80718045844E-02
 0.44680989229E-02 0.19206217093E-02 0.67297053851E-03 0.19920945370E-03 0.51855887951E-04
 0.13401255847E-04 0.44196155770E-05 -.18919162604E-05 0.33199435800E-05 -.40865837179E-05
 0.54084291493E-05 -.65188252929E-05 0.11549342763E-04 0.35377295841E-06 0.89915378512E-04
 0.23927397039E-03 0.11371789595E-02 0.39848917245E-02 0.10855842679E-01 0.24581784577E-01
 0.41235302630E-01 0.49222380310E-01 0.41179826611E-01 0.24650216699E-01 0.10980070748E-01
 0.38700208416E-02 0.11289549240E-02 0.28912631962E-03 0.66447341285E-04 0.25058917748E-04
 -.97031497641E-05 0.11773934900E-04 -.10878300482E-04 0.11081368023E-04 -.11075605951E-04
 0.15324617412E-04 -.16364480210E-05 0.89915378552E-04 0.27428423619E-03 0.15110850759E-02
 0.59617863737E-02 0.20747887277E-01 0.58912923481E-01 0.12426939892E+00 0.18487825497E+00
 0.18487435437E+00 0.12420323074E+00 0.58650615492E-01 0.20854909101E-01 0.60045263518E-02
 0.14461695987E-02 0.33679202233E-03 0.49548732312E-04 0.11359574339E-04 0.33829971695E-05
 -.43012306653E-05 0.75895035601E-05 -.10091023205E-04 0.15632968861E-04 -.94396085414E-05
 0.81848806399E-04 0.23927397040E-03 0.15110850759E-02 0.68417930067E-02 0.29187774883E-01
 0.10263955666E+00 0.28004134095E+00 0.54213640063E+00 0.68394312268E+00 0.54233757640E+00
 0.28018958807E+00 0.10243132087E+00 0.29162869698E-01 0.69526332774E-02 0.14626599316E-02
 0.29791358388E-03 0.49619001721E-04 0.32299483020E-04 -.21458692856E-04 0.18987204718E-04
 -.14910293570E-04 0.13477359346E-04 -.44340041858E-05 0.45657423344E-04 0.19855556422E-03
 0.11371789595E-02 0.59617863736E-02 0.29187774883E-01 0.12438662656E+00 0.43260483777E+00
 0.11100704387E+01 0.18601686743E+01 0.18602399935E+01 0.11101196091E+01 0.43278271663E+00
 0.12424069291E+00 0.29154831017E-01 0.60256223970E-02 0.10770945561E-02 0.23568107163E-03
 -.74711319151E-06 0.54631212518E-04 -.45027404530E-04 0.44760328919E-04 -.42905300354E-04
 0.48910306390E-04 -.30915433888E-04 0.17390220363E-03 0.61381137956E-03 0.39848917246E-02
 0.20747887277E-01 0.10263955666E+00 0.43260483777E+00 0.14307074939E+01 0.32401108265E+01
 0.43517195510E+01 0.32400065496E+01 0.14307562930E+01 0.43275064576E+00 0.10251159693E+00
 0.20758983730E-01 0.39607801962E-02 0.60539832989E-03 0.18798524137E-03 -.33773456112E-04
 0.10667380675E-04 -.46700421812E-05 0.59758867942E-05 0.15292920207E-05 0.61001386908E-05
 0.64049294216E-04 0.29400226225E-03 0.20134699420E-02 0.10855842679E-01 0.58912923481E-01
 0.28004134095E+00 0.11100704387E+01 0.32401108265E+01 0.59261971491E+01 0.59261051484E+01
 0.32399215450E+01 0.11101275314E+01 0.28005253029E+00 0.58809093208E-01 0.10898778724E-01
 0.19625395556E-02 0.28105166756E-03 0.65466758044E-04 -.14260382979E-04 -.35798372479E-04
 0.45906558937E-04 -.37143224627E-04 0.50301624337E-04 -.24255042549E-04 0.18079521225E-03
 0.69558818601E-03 0.45299370869E-02 0.24581784577E-01 0.12426939892E+00 0.54213640063E+00
 0.18601686743E+01 0.43517195510E+01 0.59261051484E+01 0.43515644254E+01 0.18600351092E+01
 0.54233343650E+00 0.12428304327E+00 0.24627184304E-01 0.45645627910E-02 0.63939310244E-03
 0.19492894940E-03 -.30070876038E-05 0.58726464526E-04 0.30233220125E-04 0.85443329800E-05
 0.12929882551E-04 0.15047948078E-04 0.44362531112E-04 0.25675083849E-03 0.14843373109E-02
 0.80029072912E-02 0.41235302630E-01 0.18487825497E+00 0.68394312268E+00 0.18602399935E+01
 0.32400065496E+01 0.32399215450E+01 0.18600351092E+01 0.68390481757E+00 0.18487584667E+00
 0.41225412302E-01 0.80469678585E-02 0.15070550628E-02 0.27509670946E-03 0.67101509866E-04
 0.34032835227E-04 -.35391733476E-05 0.53557664911E-04 -.37274469106E-05 0.56491236513E-04
 -.10565625753E-04 0.11887551269E-03 0.36496981309E-03 0.22795395723E-02 0.10879287322E-01
 0.49222380310E-01 0.18487435437E+00 0.54233757640E+00 0.11101196091E+01 0.14307562930E+01
 0.11101275314E+01 0.54233343650E+00 0.18487584668E+00 0.49231313014E-01 0.10877461950E-01
 0.23865451693E-02 0.38986833177E-03 0.28940180632E-04 -.49646279361E-04 -.30070876413E-05
 -.38278544658E-04 0.49987086442E-04 0.54829840190E-04 0.38277949569E-04 0.34139301431E-04
 0.11679782831E-03 0.51567003723E-03 0.25565733893E-02 0.10929538398E-01 0.41179826611E-01
 0.12420323074E+00 0.28018958807E+00 0.43278271663E+00 0.43275064576E+00 0.28005253029E+00
 0.12428304327E+00 0.41225412302E-01 0.10877461950E-01 0.26917189723E-02 0.52871708597E-03
 -.37003275160E-04 -.84584969473E-05 0.85592284137E-04 0.65466758029E-04 0.89551730271E-04
 0.11769478495E-03 0.78462299854E-04 0.54252274853E-04 0.43697654648E-04 0.12457488287E-03
 0.52700702506E-03 0.22104239462E-02 0.80718045844E-02 0.24650216699E-01 0.58650615492E-01
 0.10243132087E+00 0.12424069291E+00 0.10251159693E+00 0.58809093208E-01 0.24627184304E-01
 0.80469678586E-02 0.23865451693E-02 0.52871708593E-03 -.20055901182E-04 0.21040239908E-04
 0.19899200205E-03 0.13511183735E-03 0.18798524135E-03 0.15109205957E-03 0.16063764618E-03
 0.10298476296E-03 0.56062638536E-04 0.47669571144E-04 0.10755648940E-03 0.41655592027E-03
 0.14657925639E-02 0.44680989229E-02 0.10980070748E-01 0.20854909101E-01 0.29162869698E-01
 0.29154831017E-01 0.20758983730E-01 0.10898778724E-01 0.45645627910E-02 0.15070550628E-02
 0.38986833178E-03 -.37003275157E-04 0.21040239988E-04 0.21906996800E-03 0.15548617722E-03
 0.20354048421E-03 0.23568107166E-03 0.22212186644E-03 0.18081569021E-03 0.10019855465E-03
 0.54391147692E-04 0.34533972773E-04 0.82029873021E-04 0.25347707123E-03 0.76959724312E-03
 0.19206217093E-02 0.38700208416E-02 0.60045263518E-02 0.69526332774E-02 0.60256223970E-02
 0.39607801962E-02 0.19625395555E-02 0.63939310246E-03 0.27509670949E-03 0.28940180611E-04
 -.84584969500E-05 0.19899200205E-03 0.15548617722E-03 0.20912612382E-03 0.25781366942E-03
 0.29791358387E-03 0.26317559042E-03 0.15958263642E-03 0.81950384201E-04 0.38192102603E-04
 0.24417304344E-04 0.47485621701E-04 0.12691448091E-03 0.32425776601E-03 0.67297053849E-03
 0.11289549240E-02 0.14461695987E-02 0.14626599316E-02 0.10770945560E-02 0.60539832983E-03
 0.28105166757E-03 0.19492894941E-03 0.67101509848E-04 -.49646279365E-04 0.85592284156E-04
 0.13511183732E-03 0.20354048421E-03 0.25781366943E-03 0.31906586837E-03 0.33679202233E-03
 0.25566283447E-03 0.11554811369E-03 0.51648159442E-04 0.24402575225E-04 0.12309726770E-04
 0.24402575206E-04 0.51648159450E-04 0.11554811365E-03 0.19920945370E-03 0.28912631963E-03
 0.33679202233E-03 0.29791358389E-03 0.23568107165E-03 0.18798524137E-03 0.65466758030E-04
 -.30070876531E-05 0.34032835213E-04 -.30070876263E-05 0.65466758035E-04 0.18798524142E-03
 0.23568107163E-03 0.29791358386E-03 0.33679202230E-03 0.28912631960E-03 0.19920945369E-03
 0.63748436468E-04 0.29571261748E-04 0.10540132557E-04 0.71738062693E-05 0.92099245690E-05
 0.18706919639E-04 0.35037598719E-04 0.51855887930E-04 0.66447341274E-04 0.49548732332E-04
 0.49619001741E-04 -.74711320038E-06 -.33773456079E-04 -.14260383009E-04 0.58726464544E-04
 -.35391733492E-05 -.38278544660E-04 0.89551730260E-04 0.15109205957E-03 0.22212186645E-03
 0.26317559040E-03 0.25566283445E-03 0.19920945371E-03 0.12910763331E-03 0.66292300455E-04
 0.22259231195E-04 0.86390577886E-05 0.30598755706E-05 0.52881953522E-05 0.61399077001E-05
 0.11390232681E-04 0.12225728887E-04 0.25058917763E-04 0.27757267977E-05 0.12088667150E-04
 0.31183149166E-04 0.30136662880E-04 0.47974207539E-04 0.18928710631E-05 0.81302478954E-04
 0.17400102937E-03 0.32720773425E-03 0.54230316830E-03 0.66689385816E-03 0.67944450471E-03
 0.52129661663E-03 0.32425776604E-03 0.15847485864E-03 0.22259231145E-04 0.91335567291E-05
 0.15091426656E-05 0.24092257190E-05 0.82483799099E-07 0.32208602950E-05 0.66382386123E-06
 0.34705948822E-05 -.97031497707E-05 0.11589510008E-04 -.21913489456E-05 -.20615867274E-04
 -.13125082242E-04 -.32242228329E-04 0.31864123773E-04 0.30860859781E-04 0.12183790471E-03
 0.23686196846E-03 0.30859519205E-03 0.37274334209E-03 0.32203775891E-03 0.23237887116E-03
 0.12691448089E-03 0.60933867475E-04 0.86390577747E-05 0.15091426760E-05 0.19871252926E-05
 -.74281583676E-06 0.16170477735E-05 -.10725760292E-05 0.23228829517E-05 -.69209018113E-06
 0.11773934903E-04 -.11246436131E-04 0.18674541903E-05 0.19990663701E-04 0.73091426887E-05
 0.49821003668E-04 0.24726182650E-04 0.76901068996E-04 0.96886148630E-04 0.12915973663E-03
 0.18979049833E-03 0.16726623001E-03 0.13935490620E-03 0.83900923332E-04 0.47485621704E-04
 0.18965152137E-04 0.30598755816E-05 0.24092257179E-05 -.74281582870E-06 0.13777976519E-05
 -.12558669675E-05 0.17458791343E-05 -.19968607709E-05 0.15902466991E-05 -.10878300473E-04
 0.13724934348E-04 0.68771787760E-06 -.16131634056E-04 0.10873914700E-04 -.34363958140E-04
 0.71232866855E-05 0.16655969778E-04 0.73860992441E-04 0.12526826512E-03 0.11186783278E-03
 0.12118334693E-03 0.83660551622E-04 0.54995599835E-04 0.24417304375E-04 0.12221959049E-04
 0.52881953207E-05 0.82483782740E-07 0.16170477728E-05 -.12558669612E-05 0.15799515613E-05
 -.18803330748E-05 0.24812018471E-05 -.19224143842E-05 0.11081368043E-04 -.15477774961E-04
 -.17453068392E-06 0.20927127408E-04 -.69303158712E-05 0.88094642667E-04 0.12416311229E-03
 0.21024126343E-03 0.28490449960E-03 0.33688210703E-03 0.36597802593E-03 0.26992895629E-03
 0.17336324071E-03 0.83900923307E-04 0.38192102617E-04 0.12022784738E-04 0.61399077103E-05
 0.32208603085E-05 -.10725760093E-05 0.17458791521E-05 -.18803330891E-05 0.23296803654E-05
 -.30532620150E-05 0.28071896623E-05 -.11075605947E-04 0.20592716968E-04 0.86950338826E-05
 0.98731583961E-05 0.12154653971E-03 0.16603773974E-03 0.46704093393E-03 0.95557840959E-03
 0.14716572904E-02 0.17010372738E-02 0.14535114328E-02 0.99773276515E-03 0.52762082442E-03
 0.23237887115E-03 0.81950384172E-04 0.27746025934E-04 0.11390232635E-04 0.66382387836E-06
 0.23228829460E-05 -.19968607317E-05 0.24812018397E-05 -.30532619611E-05 0.41837867392E-05
 -.35627804992E-05 0.15324617396E-04 -.12965880247E-04 0.43261397147E-04 0.17200486525E-03
 0.45659201042E-03 0.15650440555E-02 0.34613472707E-02 0.59997079708E-02 0.80430344066E-02
 0.80487266370E-02 0.60081874853E-02 0.33520853393E-02 0.14705951903E-02 0.52129661662E-03
 0.15958263644E-03 0.40352593530E-04 0.12225728883E-04 0.34705948991E-05 -.69209019065E-06
 0.15902466893E-05 -.19224143698E-05 0.28071896384E-05 -.35627804702E-05 0.70028961716E-05
 -.16364480190E-05 0.86326132999E-04 0.24436824646E-03 0.97533796150E-03 0.34470332408E-02
 0.91967634463E-02 0.20781278382E-01 0.34688995686E-01 0.41207200199E-01 0.34654210512E-01
 0.20853402014E-01 0.94113170344E-02 0.33520181365E-02 0.99424698307E-03 0.25566283450E-03
 0.60412761271E-04 0.25058917758E-04 -.97031497521E-05 0.11773934869E-04 -.10878300499E-04
 0.11081368021E-04 -.11075605943E-04 0.15324617439E-04 -.16364480144E-05 0.89915378536E-04
 0.27428423619E-03 0.15110850759E-02 0.59617863737E-02 0.20747887277E-01 0.58912923481E-01
 0.12426939892E+00 0.18487825497E+00 0.18487435437E+00 0.12420323074E+00 0.58650615492E-01
 0.20854909101E-01 0.60045263518E-02 0.14461695987E-02 0.33679202229E-03 0.49548732311E-04
 0.27757268453E-05 0.11589510007E-04 -.11246436149E-04 0.13724934291E-04 -.15477774973E-04
 0.20592716928E-04 -.12965880279E-04 0.86326132979E-04 0.27428423621E-03 0.17832091200E-02
 0.79872877087E-02 0.34745745873E-01 0.12426311003E+00 0.34701683666E+00 0.68387276022E+00
 0.86838005698E+00 0.68391579974E+00 0.34743606129E+00 0.12422015164E+00 0.34633644600E-01
 0.80501868602E-02 0.16943806386E-02 0.31906586837E-03 0.67110087682E-04 0.12088667118E-04
 -.21913489600E-05 0.18674542169E-05 0.68771788246E-06 -.17453072806E-06 0.86950338562E-05
 0.43261397141E-04 0.24436824646E-03 0.15110850759E-02 0.79872877087E-02 0.41292103334E-01
 0.18486971738E+00 0.68376087467E+00 0.18603055054E+01 0.32401083550E+01 0.32399678055E+01
 0.18600243983E+01 0.68388811730E+00 0.18493219981E+00 0.41217609231E-01 0.80409398046E-02
 0.14641731616E-02 0.25781366944E-03 0.33037337954E-04 0.31183149149E-04 -.20615867286E-04
 0.19990663691E-04 -.16131634032E-04 0.20927127358E-04 0.98731584554E-05 0.17200486530E-03
 0.97533796150E-03 0.59617863736E-02 0.34745745873E-01 0.18486971738E+00 0.86822570246E+00
 0.32400281209E+01 0.81990526783E+01 0.11553310958E+02 0.81990583601E+01 0.32399204970E+01
 0.86828349284E+00 0.18489183947E+00 0.34647416922E-01 0.60082452810E-02 0.95343584104E-03
 0.20354048421E-03 -.26102409056E-05 0.30136662755E-04 -.13125082175E-04 0.73091426390E-05
 0.10873914807E-04 -.69303157608E-05 0.12154653985E-03 0.45659201047E-03 0.34470332408E-02
 0.20747887277E-01 0.12426311003E+00 0.68376087467E+00 0.32400281209E+01 0.11553428231E+02
 0.24553737549E+02 0.24553577772E+02 0.11553380298E+02 0.32400073356E+01 0.68382871615E+00
 0.12429422465E+00 0.20745153339E-01 0.34978826231E-02 0.41993249092E-03 0.13511183736E-03
 -.32782501829E-04 0.47974207537E-04 -.32242228311E-04 0.49821003678E-04 -.34363958174E-04
 0.88094642623E-04 0.16603773970E-03 0.15650440555E-02 0.91967634463E-02 0.58912923481E-01
 0.34701683666E+00 0.18603055054E+01 0.81990526783E+01 0.24553737549E+02 0.37388092677E+02
 0.24553819569E+02 0.81990582044E+01 0.18602317624E+01 0.34716192151E+00 0.58858507823E-01
 0.92247206038E-02 0.15557821997E-02 0.19506092243E-03 0.85592284140E-04 -.15630840188E-04
 0.18928710699E-05 0.31864123779E-04 0.24726182624E-04 0.71232866808E-05 0.12416311231E-03
 0.46704093395E-03 0.34613472707E-02 0.20781278382E-01 0.12426939892E+00 0.68387276022E+00
 0.32401083550E+01 0.11553310958E+02 0.24553577772E+02 0.24553819569E+02 0.11553499573E+02
 0.32399581830E+01 0.68394909514E+00 0.12423610848E+00 0.20705111628E-01 0.34788938289E-02
 0.48730041231E-03 0.15068643496E-03 -.49646279379E-04 0.44623195081E-04 0.81302478945E-04
 0.30860859766E-04 0.76901069014E-04 0.16655969808E-04 0.21024126344E-03 0.95557840958E-03
 0.59997079708E-02 0.34688995686E-01 0.18487825497E+00 0.86838005698E+00 0.32399678055E+01
 0.81990583601E+01 0.11553380298E+02 0.81990582044E+01 0.32399581830E+01 0.86839240411E+00
 0.18487968550E+00 0.34670454826E-01 0.60075220100E-02 0.90899249234E-03 0.19294724579E-03
 -.21683660240E-04 0.67101509881E-04 0.34945777945E-04 0.17400102944E-03 0.12183790473E-03
 0.96886148640E-04 0.73860992420E-04 0.28490449959E-03 0.14716572904E-02 0.80430344067E-02
 0.41207200199E-01 0.18487435437E+00 0.68391579974E+00 0.18600243983E+01 0.32399204970E+01
 0.32400073356E+01 0.18602317624E+01 0.68394909514E+00 0.18487968550E+00 0.41227705405E-01
 0.80217624045E-02 0.13769745996E-02 0.23542999332E-03 0.17928292398E-03 0.15068643498E-03
 0.19492894939E-03 0.20272156141E-03 0.32720773427E-03 0.23686196844E-03 0.12915973666E-03
 0.12526826513E-03 0.33688210703E-03 0.17010372738E-02 0.80487266370E-02 0.34654210512E-01
 0.12420323074E+00 0.34743606129E+00 0.68388811730E+00 0.86828349284E+00 0.68382871615E+00
 0.34716192151E+00 0.12423610848E+00 0.34670454826E-01 0.80217624045E-02 0.16287329071E-02
 0.27246630588E-03 0.32139419513E-03 0.17123795430E-03 0.19506092243E-03 0.28105166756E-03
 0.35371731053E-03 0.54230316832E-03 0.30859519205E-03 0.18979049827E-03 0.11186783279E-03
 0.36597802586E-03 0.14535114328E-02 0.60081874852E-02 0.20853402014E-01 0.58650615492E-01
 0.12422015164E+00 0.18493219981E+00 0.18489183947E+00 0.12429422465E+00 0.58858507823E-01
 0.20705111629E-01 0.60075220101E-02 0.13769745997E-02 0.27246630589E-03 0.34106244424E-03
 0.16814939319E-03 0.17459359881E-03 0.41993249100E-03 0.60539832984E-03 0.62049412329E-03
 0.66689385810E-03 0.37274334210E-03 0.16726622999E-03 0.12118334695E-03 0.26992895629E-03
 0.99773276515E-03 0.33520853393E-02 0.94113170344E-02 0.20854909101E-01 0.34633644600E-01
 0.41217609231E-01 0.34647416922E-01 0.20745153339E-01 0.92247206038E-02 0.34788938290E-02
 0.90899249237E-03 0.23542999331E-03 0.32139419515E-03 0.16814939312E-03 0.18909829497E-03
 0.58318448049E-03 0.95343584102E-03 0.10770945561E-02 0.97202526617E-03 0.67944450470E-03
 0.32203775889E-03 0.13935490619E-03 0.83660551586E-04 0.17336324077E-03 0.52762082444E-03
 0.14705951903E-02 0.33520181365E-02 0.60045263518E-02 0.80501868602E-02 0.80409398046E-02
 0.60082452810E-02 0.34978826231E-02 0.15557821997E-02 0.48730041229E-03 0.19294724581E-03
 0.17928292397E-03 0.17123795433E-03 0.17459359873E-03 0.58318448043E-03 0.11114933430E-02
 0.14641731616E-02 0.14626599315E-02 0.11103423767E-02 0.52129661662E-03 0.23237887118E-03
 0.83900923343E-04 0.54995599862E-04 0.83900923326E-04 0.23237887118E-03 0.52129661660E-03
 0.99424698306E-03 0.14461695987E-02 0.16943806386E-02 0.14641731616E-02 0.95343584100E-03
 0.41993249096E-03 0.19506092245E-03 0.15068643499E-03 -.21683660228E-04 0.15068643496E-03
 0.19506092245E-03 0.41993249091E-03 0.95343584101E-03 0.14641731616E-02 0.16943806386E-02
 0.14461695987E-02 0.99424698308E-03 0.32425776602E-03 0.12691448091E-03 0.47485621716E-04
 0.24417304348E-04 0.38192102616E-04 0.81950384202E-04 0.15958263641E-03 0.25566283446E-03
 0.33679202232E-03 0.31906586835E-03 0.25781366944E-03 0.20354048419E-03 0.13511183734E-03
 0.85592284118E-04 -.49646279366E-04 0.67101509830E-04 0.19492894941E-03 0.28105166757E-03
 0.60539832987E-03 0.10770945561E-02 0.14626599315E-02 0.14461695987E-02 0.11289549240E-02
 0.67297053849E-03 0.15847485863E-03 0.60933867459E-04 0.18965152145E-04 0.12221959047E-04
 0.12022784732E-04 0.27746025932E-04 0.40352593499E-04 0.60412761244E-04 0.49548732291E-04
 0.67110087677E-04 0.33037337990E-04 -.26102409051E-05 -.32782501751E-04 -.15630840175E-04
 0.44623195050E-04 0.34945777941E-04 0.20272156138E-03 0.35371731051E-03 0.62049412324E-03
 0.97202526616E-03 0.11103423767E-02 0.99424698306E-03 0.67297053849E-03 0.36565179450E-03
 0.11627163939E-03 0.33218534854E-04 0.11941942156E-04 0.33756907627E-05 0.56972604146E-05
 0.70050336667E-05 0.84235276405E-05 0.19342694843E-04 0.11359574358E-04 0.12088667146E-04
 0.21954445364E-04 0.27615720905E-04 0.12447018851E-03 0.28533739018E-04 0.35797022448E-04
 0.32417324226E-03 0.70598630964E-03 0.14292854241E-02 0.21938053859E-02 0.25360276801E-02
 0.22068753409E-02 0.14705951904E-02 0.76959724311E-03 0.32091826183E-03 0.33218534836E-04
 0.11642498512E-04 0.23952815866E-05 0.17785601321E-05 0.13795464370E-05 0.82230194436E-06
 0.38588680110E-05 -.73324972364E-05 0.33829971815E-05 -.21913489654E-05 -.11062291225E-04
 -.70726051339E-05 -.98100390087E-04 0.25719796562E-04 0.18357658316E-03 0.28041284989E-03
 0.57994280510E-03 0.90344488887E-03 0.11458147442E-02 0.11325116652E-02 0.87318342767E-03
 0.52762082441E-03 0.25347707121E-03 0.10371024381E-03 0.11941942152E-04 0.23952815678E-05
 0.13897977763E-05 0.37515220438E-06 -.16132688518E-06 0.16464769578E-05 -.20489058789E-05
 0.95686918758E-05 -.43012306575E-05 0.18674542458E-05 0.10322502077E-04 0.56990935741E-06
 0.11894753920E-03 0.54838610179E-04 -.79054590354E-05 0.13428258716E-03 0.25015794722E-03
 0.40454850760E-03 0.48246665822E-03 0.43909960532E-03 0.30965627140E-03 0.17336324074E-03
 0.82029872970E-04 0.29940091501E-04 0.33756907266E-05 0.17785601420E-05 0.37515218583E-06
 -.26426564000E-06 0.10630593204E-05 -.17400841568E-05 0.31088579578E-05 -.93037161871E-05
 0.75895035633E-05 0.68771788220E-06 -.56100991416E-05 0.20364255938E-04 -.98723653524E-04
 -.23556930187E-05 0.18240601455E-03 0.21953941026E-03 0.32135397303E-03 0.36144345838E-03
 0.33355830754E-03 0.25453681470E-03 0.15973946208E-03 0.83660551597E-04 0.34533972768E-04
 0.14423231358E-04 0.56972604426E-05 0.13795464128E-05 -.16132689372E-06 0.10630593457E-05
 -.15668690821E-05 0.25105531269E-05 -.37890720795E-05 0.99872165812E-05 -.10091023176E-04
 -.17453071968E-06 0.98459662278E-05 -.13537249168E-04 0.17527349300E-03 0.19323787635E-03
 0.18879004779E-03 0.47519089057E-03 0.73092747477E-03 0.86949185345E-03 0.79603695700E-03
 0.55949429010E-03 0.30965627133E-03 0.13935490618E-03 0.54391147666E-04 0.17011914823E-04
 0.70050336800E-05 0.82230196487E-06 0.16464769688E-05 -.17400841406E-05 0.25105531260E-05
 -.34815478507E-05 0.50425791516E-05 -.10582872536E-04 0.15632968900E-04 0.86950338884E-05
 0.25920985029E-04 0.15014531511E-03 0.17704320048E-03 0.80770330115E-03 0.20972908419E-02
 0.34893873217E-02 0.45755988190E-02 0.45463484557E-02 0.33873380581E-02 0.19316977965E-02
 0.87318342767E-03 0.32203775886E-03 0.10019855462E-03 0.27378718384E-04 0.84235276001E-05
 0.38588680210E-05 -.20489058024E-05 0.31088579914E-05 -.37890720492E-05 0.50425791416E-05
 -.63243631515E-05 0.14783684138E-04 -.94396085531E-05 0.43261397137E-04 0.17674042955E-03
 0.60955982686E-03 0.24100418340E-02 0.60205302345E-02 0.12589554963E-01 0.20753305124E-01
 0.24588121236E-01 0.20808932885E-01 0.12828269167E-01 0.59865470596E-02 0.22068753409E-02
 0.67944450471E-03 0.18081569017E-03 0.44929344263E-04 0.19342694883E-04 -.73324972132E-05
 0.95686918592E-05 -.93037162003E-05 0.99872165750E-05 -.10582872534E-04 0.14783684175E-04
 -.90613159241E-05 0.81848806402E-04 0.24436824647E-03 0.11529556019E-02 0.45417614752E-02
 0.14811890873E-01 0.41256749166E-01 0.84999653087E-01 0.12425110126E+00 0.12426543561E+00
 0.84786649809E-01 0.41143466357E-01 0.15056524994E-01 0.44800682834E-02 0.11103423767E-02
 0.26317559042E-03 0.40959575221E-04 0.11359574330E-04 0.33829971857E-05 -.43012306519E-05
 0.75895035551E-05 -.10091023169E-04 0.15632968892E-04 -.94396084975E-05 0.81848806413E-04
 0.23927397041E-03 0.15110850759E-02 0.68417930067E-02 0.29187774883E-01 0.10263955666E+00
 0.28004134095E+00 0.54213640063E+00 0.68394312268E+00 0.54233757640E+00 0.28018958807E+00
 0.10243132087E+00 0.29162869698E-01 0.69526332774E-02 0.14626599316E-02 0.29791358388E-03
 0.49619001729E-04 0.12088667124E-04 -.21913489619E-05 0.18674542331E-05 0.68771790580E-06
 -.17453072792E-06 0.86950338597E-05 0.43261397125E-04 0.24436824648E-03 0.15110850759E-02
 0.79872877087E-02 0.41292103334E-01 0.18486971738E+00 0.68376087467E+00 0.18603055054E+01
 0.32401083550E+01 0.32399678055E+01 0.18600243983E+01 0.68388811730E+00 0.18493219981E+00
 0.41217609231E-01 0.80409398046E-02 0.14641731616E-02 0.25781366943E-03 0.33037337960E-04
 0.21954445345E-04 -.11062291229E-04 0.10322502082E-04 -.56100991644E-05 0.98459662732E-05
 0.25920985020E-04 0.17674042955E-03 0.11529556019E-02 0.68417930066E-02 0.41292103334E-01
 0.22680309449E+00 0.11102802188E+01 0.43517509839E+01 0.11553400639E+02 0.16630426214E+02
 0.11553497833E+02 0.43515647504E+01 0.11102267528E+01 0.22696246501E+00 0.41221056691E-01
 0.69320195553E-02 0.11114933431E-02 0.20912612381E-03 0.10344388135E-04 0.27615720875E-04
 -.70726051319E-05 0.56990936445E-06 0.20364255924E-04 -.13537249168E-04 0.15014531515E-03
 0.60955982689E-03 0.45417614752E-02 0.29187774883E-01 0.18486971738E+00 0.11102802188E+01
 0.59261960894E+01 0.24553537613E+02 0.59206795710E+02 0.59206942586E+02 0.24553819276E+02
 0.59261058379E+01 0.11102440158E+01 0.18493351889E+00 0.29146738583E-01 0.45656590657E-02
 0.58318448045E-03 0.15548617727E-03 -.27027421290E-04 0.12447018849E-03 -.98100390105E-04
 0.11894753919E-03 -.98723653402E-04 0.17527349298E-03 0.17704320044E-03 0.24100418340E-02
 0.14811890873E-01 0.10263955666E+00 0.68376087467E+00 0.43517509839E+01 0.24553537613E+02
 0.98768900813E+02 0.17741547760E+03 0.98768795029E+02 0.24553578678E+02 0.43517162701E+01
 0.68376764404E+00 0.10268542777E+00 0.14750070744E-01 0.24189105430E-02 0.17459359881E-03
 0.19899200203E-03 -.10115827756E-03 0.28533738969E-04 0.25719796567E-04 0.54838610171E-04
 -.23556930621E-05 0.19323787636E-03 0.80770330115E-03 0.60205302344E-02 0.41256749166E-01
 0.28004134095E+00 0.18603055054E+01 0.11553400639E+02 0.59206795710E+02 0.17741547760E+03
 0.17741558612E+03 0.59206943417E+02 0.11553309943E+02 0.18601775622E+01 0.28002597178E+00
 0.41245178273E-01 0.60583466726E-02 0.80249885659E-03 0.17123795430E-03 -.84584969274E-05
 0.36270209526E-04 0.35797022471E-04 0.18357658317E-03 -.79054590719E-05 0.18240601455E-03
 0.18879004776E-03 0.20972908420E-02 0.12589554963E-01 0.84999653087E-01 0.54213640063E+00
 0.32401083550E+01 0.16630426214E+02 0.59206942586E+02 0.98768795029E+02 0.59206943417E+02
 0.16630423039E+02 0.32401187258E+01 0.54212627934E+00 0.85012018992E-01 0.12634445817E-01
 0.20941810560E-02 0.14013243003E-03 0.17928292397E-03 0.28940180641E-04 0.19281792209E-03
 0.32417324225E-03 0.28041284992E-03 0.13428258710E-03 0.21953941022E-03 0.47519089054E-03
 0.34893873217E-02 0.20753305124E-01 0.12425110126E+00 0.68394312268E+00 0.32399678055E+01
 0.11553497833E+02 0.24553819276E+02 0.24553578678E+02 0.11553309943E+02 0.32401187258E+01
 0.68385742957E+00 0.12426886887E+00 0.20800973567E-01 0.34525600877E-02 0.54796177033E-03
 0.23601649785E-03 0.19294724579E-03 0.27509670949E-03 0.32107665971E-03 0.70598630967E-03
 0.57994280508E-03 0.25015794724E-03 0.32135397304E-03 0.73092747473E-03 0.45755988190E-02
 0.24588121236E-01 0.12426543561E+00 0.54233757640E+00 0.18600243983E+01 0.43515647504E+01
 0.59261058379E+01 0.43517162701E+01 0.18601775622E+01 0.54212627934E+00 0.12426886887E+00
 0.24590696025E-01 0.45150350944E-02 0.86489916528E-03 0.36349295602E-03 0.14013243001E-03
 0.48730041227E-03 0.63939310246E-03 0.85933577387E-03 0.14292854241E-02 0.90344488884E-03
 0.40454850759E-03 0.36144345838E-03 0.86949185345E-03 0.45463484556E-02 0.20808932885E-01
 0.84786649809E-01 0.28018958807E+00 0.68388811730E+00 0.11102267528E+01 0.11102440158E+01
 0.68376764404E+00 0.28002597178E+00 0.85012018992E-01 0.20800973567E-01 0.45150350944E-02
 0.10496723919E-02 0.37422212618E-03 0.22668749436E-03 0.80249885658E-03 0.15557821997E-02
 0.19625395556E-02 0.19734509939E-02 0.21938053859E-02 0.11458147442E-02 0.48246665829E-03
 0.33355830751E-03 0.79603695702E-03 0.33873380581E-02 0.12828269167E-01 0.41143466357E-01
 0.10243132087E+00 0.18493219981E+00 0.22696246501E+00 0.18493351889E+00 0.10268542777E+00
 0.41245178273E-01 0.12634445817E-01 0.34525600877E-02 0.86489916541E-03 0.37422212626E-03
 0.24869194639E-03 0.11519638965E-02 0.24189105430E-02 0.34978826230E-02 0.39607801961E-02
 0.34193769211E-02 0.25360276802E-02 0.11325116652E-02 0.43909960536E-03 0.25453681470E-03
 0.55949429010E-03 0.19316977965E-02 0.59865470596E-02 0.15056524994E-01 0.29162869698E-01
 0.41217609231E-01 0.41221056691E-01 0.29146738583E-01 0.14750070744E-01 0.60583466726E-02
 0.20941810561E-02 0.54796177034E-03 0.36349295604E-03 0.22668749435E-03 0.11519638964E-02
 0.27792285887E-02 0.45656590657E-02 0.60082452810E-02 0.60256223970E-02 0.44959962477E-02
 0.22068753409E-02 0.87318342767E-03 0.30965627138E-03 0.15973946206E-03 0.30965627139E-03
 0.87318342767E-03 0.22068753409E-02 0.44800682834E-02 0.69526332774E-02 0.80409398046E-02
 0.69320195553E-02 0.45656590657E-02 0.24189105430E-02 0.80249885661E-03 0.14013243003E-03
 0.23601649782E-03 0.14013243003E-03 0.80249885662E-03 0.24189105429E-02 0.45656590657E-02
 0.69320195553E-02 0.80409398046E-02 0.69526332774E-02 0.44800682834E-02 0.14705951903E-02
 0.52762082445E-03 0.17336324072E-03 0.83660551599E-04 0.13935490619E-03 0.32203775887E-03
 0.67944450475E-03 0.11103423767E-02 0.14626599316E-02 0.14641731615E-02 0.11114933431E-02
 0.58318448043E-03 0.17459359876E-03 0.17123795433E-03 0.17928292398E-03 0.19294724580E-03
 0.48730041225E-03 0.15557821997E-02 0.34978826230E-02 0.60082452810E-02 0.80409398046E-02
 0.80501868602E-02 0.60045263518E-02 0.33520181365E-02 0.76959724313E-03 0.25347707122E-03
 0.82029872998E-04 0.34533972793E-04 0.54391147660E-04 0.10019855462E-03 0.18081569016E-03
 0.26317559039E-03 0.29791358385E-03 0.25781366943E-03 0.20912612382E-03 0.15548617723E-03
 0.19899200204E-03 -.84584969287E-05 0.28940180606E-04 0.27509670948E-03 0.63939310248E-03
 0.19625395556E-02 0.39607801961E-02 0.60256223970E-02 0.69526332774E-02 0.60045263518E-02
 0.38700208416E-02 0.19206217093E-02 0.32091826185E-03 0.10371024380E-03 0.29940091557E-04
 0.14423231371E-04 0.17011914783E-04 0.27378718367E-04 0.44929344252E-04 0.40959575195E-04
 0.49619001731E-04 0.33037337972E-04 0.10344388132E-04 -.27027421263E-04 -.10115827753E-03
 0.36270209549E-04 0.19281792207E-03 0.32107665970E-03 0.85933577383E-03 0.19734509939E-02
 0.34193769211E-02 0.44959962476E-02 0.44800682834E-02 0.33520181365E-02 0.19206217093E-02
 0.87253140160E-03 0.15887708106E-03 0.42973582856E-04 0.12174617526E-04 0.32662497535E-05
 0.65408068621E-05 0.26839096714E-05 0.12095265838E-04 0.17304299002E-04 0.32299483039E-04
 0.31183149189E-04 0.27615720859E-04 0.13663702646E-03 0.49478061764E-04 0.11511274376E-04
 0.51545103207E-03 0.14903154537E-02 0.33809191181E-02 0.60262482732E-02 0.80699131406E-02
 0.80768530162E-02 0.59865470596E-02 0.33520853393E-02 0.14657925639E-02 0.52664237769E-03
 0.42973582883E-04 0.13061984567E-04 0.12428890682E-05 0.37742104350E-05 -.21305937329E-05
 0.55980755213E-05 -.49610877602E-05 -.60565048874E-05 -.21458692872E-04 -.20615867273E-04
 -.70726051233E-05 -.10783106131E-03 0.24904401614E-04 0.29653096176E-03 0.43718922562E-03
 0.95861461685E-03 0.19192220580E-02 0.29028852897E-02 0.33727971396E-02 0.29228269862E-02
 0.19316977965E-02 0.99773276516E-03 0.41655592025E-03 0.14443857754E-03 0.12174617568E-04
 0.12428890721E-05 0.33111697204E-05 -.26628183945E-05 0.39623888468E-05 -.45159849345E-05
 0.71478612864E-05 0.57976337909E-05 0.18987204715E-04 0.19990663701E-04 0.56990935715E-06
 0.13078288720E-03 0.66084939710E-04 -.52066096942E-04 0.23531896375E-03 0.59855356977E-03
 0.93959388661E-03 0.12118458690E-02 0.11840959329E-02 0.92318646903E-03 0.55949429007E-03
 0.26992895627E-03 0.10755648940E-03 0.36213616276E-04 0.32662497307E-05 0.37742104149E-05
 -.26628183992E-05 0.36691839344E-05 -.41676644973E-05 0.53302757434E-05 -.74274316683E-05
 -.38935121330E-05 -.14910293609E-04 -.16131634031E-04 0.20364255963E-04 -.10878578584E-03
 0.85195483827E-05 0.29782267790E-03 0.30791848031E-03 0.40545553258E-03 0.61733414255E-03
 0.70857450694E-03 0.65617894024E-03 0.45173144439E-03 0.25453681469E-03 0.12118334696E-03
 0.47669571115E-04 0.17889547963E-04 0.65408068619E-05 -.21305937468E-05 0.39623889196E-05
 -.41676644778E-05 0.49015895703E-05 -.58863952264E-05 0.83071043861E-05 0.27591886598E-05
 0.13477359338E-04 0.20927127385E-04 -.13537249140E-04 0.19397086045E-03 0.21386507681E-03
 0.22411897606E-03 0.85759239986E-03 0.16226747148E-02 0.20797873611E-02 0.20513809545E-02
 0.15374175929E-02 0.92318646904E-03 0.43909960531E-03 0.16726623001E-03 0.56062638511E-04
 0.13376807125E-04 0.26839096643E-05 0.55980755473E-05 -.45159849026E-05 0.53302757795E-05
 -.58863952162E-05 0.69732980369E-05 -.91548717283E-05 0.62271024459E-06 -.44340041945E-05
 0.98731584266E-05 0.15014531514E-03 0.20412916962E-03 0.11059814161E-02 0.31957448145E-02
 0.60386655997E-02 0.92834344714E-02 0.10897646863E-01 0.93852576297E-02 0.60164547857E-02
 0.29228269862E-02 0.11325116652E-02 0.37274334210E-03 0.10298476295E-03 0.30549129730E-04
 0.12095265792E-04 -.49610877492E-05 0.71478612808E-05 -.74274316639E-05 0.83071043325E-05
 -.91548717044E-05 0.13677496080E-04 0.38302075414E-05 0.45657423330E-04 0.17200486526E-03
 0.60955982687E-03 0.27419505166E-02 0.80194300860E-02 0.20592074411E-01 0.41243590240E-01
 0.58874331688E-01 0.58802718948E-01 0.41191414531E-01 0.20866523468E-01 0.80768530162E-02
 0.25360276801E-02 0.66689385815E-03 0.16063764624E-03 0.27563344329E-04 0.17304299039E-04
 -.60565048793E-05 0.57976338319E-05 -.38935121080E-05 0.27591886624E-05 0.62271024603E-06
 0.38302075143E-05 0.34098799502E-04 0.19855556422E-03 0.97533796149E-03 0.45417614752E-02
 0.17453879388E-01 0.58822948895E-01 0.15138290644E+00 0.28002450864E+00 0.34716903588E+00
 0.28004755496E+00 0.15125558072E+00 0.58668696328E-01 0.17679498878E-01 0.44959962477E-02
 0.97202526619E-03 0.22212186648E-03 0.27951898928E-04 0.32299483020E-04 -.21458692860E-04
 0.18987204696E-04 -.14910293570E-04 0.13477359355E-04 -.44340041860E-05 0.45657423352E-04
 0.19855556422E-03 0.11371789595E-02 0.59617863737E-02 0.29187774883E-01 0.12438662656E+00
 0.43260483777E+00 0.11100704387E+01 0.18601686743E+01 0.18602399935E+01 0.11101196091E+01
 0.43278271663E+00 0.12424069291E+00 0.29154831017E-01 0.60256223970E-02 0.10770945561E-02
 0.23568107164E-03 -.74711318915E-06 0.31183149167E-04 -.20615867303E-04 0.19990663674E-04
 -.16131634028E-04 0.20927127409E-04 0.98731584448E-05 0.17200486531E-03 0.97533796152E-03
 0.59617863737E-02 0.34745745873E-01 0.18486971738E+00 0.86822570246E+00 0.32400281209E+01
 0.81990526783E+01 0.11553310958E+02 0.81990583601E+01 0.32399204970E+01 0.86828349284E+00
 0.18489183947E+00 0.34647416922E-01 0.60082452810E-02 0.95343584103E-03 0.20354048421E-03
 -.26102409114E-05 0.27615720897E-04 -.70726051710E-05 0.56990932495E-06 0.20364255928E-04
 -.13537249166E-04 0.15014531514E-03 0.60955982690E-03 0.45417614752E-02 0.29187774883E-01
 0.18486971738E+00 0.11102802188E+01 0.59261960894E+01 0.24553537613E+02 0.59206795710E+02
 0.59206942586E+02 0.24553819276E+02 0.59261058379E+01 0.11102440158E+01 0.18493351889E+00
 0.29146738583E-01 0.45656590657E-02 0.58318448044E-03 0.15548617725E-03 -.27027421279E-04
 0.13663702644E-03 -.10783106136E-03 0.13078288725E-03 -.10878578582E-03 0.19397086048E-03
 0.20412916961E-03 0.27419505166E-02 0.17453879388E-01 0.12438662656E+00 0.86822570246E+00
 0.59261960894E+01 0.37388138355E+02 0.17741567791E+03 0.35813729483E+03 0.17741558423E+03
 0.37388095094E+02 0.59261927172E+01 0.86803774267E+00 0.12443185619E+00 0.17407619497E-01
 0.27792285887E-02 0.18909829500E-03 0.21906996804E-03 -.11306803999E-03 0.49478061928E-04
 0.24904401634E-04 0.66084939680E-04 0.85195482329E-05 0.21386507677E-03 0.11059814161E-02
 0.80194300862E-02 0.58822948895E-01 0.43260483777E+00 0.32400281209E+01 0.24553537613E+02
 0.17741567791E+03 0.90780603669E+03 0.90780598717E+03 0.17741548004E+03 0.24553734291E+02
 0.32401156573E+01 0.43258073062E+00 0.58870133415E-01 0.79963837866E-02 0.11519638964E-02
 0.16814939309E-03 0.21040239852E-04 0.31733526958E-04 0.11511274375E-04 0.29653096174E-03
 -.52066096986E-04 0.29782267788E-03 0.22411897608E-03 0.31957448145E-02 0.20592074411E-01
 0.15138290644E+00 0.11100704387E+01 0.81990526783E+01 0.59206795710E+02 0.35813729483E+03
 0.90780598717E+03 0.35813729507E+03 0.59206792694E+02 0.81990555855E+01 0.11100591973E+01
 0.15138262612E+00 0.20589710759E-01 0.31536348740E-02 0.22668749441E-03 0.32139419505E-03
 -.37003275167E-04 0.31444760030E-03 0.51545103208E-03 0.43718922563E-03 0.23531896371E-03
 0.30791848028E-03 0.85759239991E-03 0.60386655997E-02 0.41243590240E-01 0.28002450864E+00
 0.18601686743E+01 0.11553310958E+02 0.59206942586E+02 0.17741558423E+03 0.17741548004E+03
 0.59206792694E+02 0.11553406239E+02 0.18602940268E+01 0.28005709264E+00 0.41251127343E-01
 0.59881659827E-02 0.86619547063E-03 0.36349295602E-03 0.23542999330E-03 0.38986833178E-03
 0.50517621755E-03 0.14903154536E-02 0.95861461683E-03 0.59855356981E-03 0.40545553257E-03
 0.16226747148E-02 0.92834344714E-02 0.58874331688E-01 0.34716903588E+00 0.18602399935E+01
 0.81990583601E+01 0.24553819276E+02 0.37388095094E+02 0.24553734291E+02 0.81990555855E+01
 0.18602940268E+01 0.34703768636E+00 0.58920973388E-01 0.92063834371E-02 0.16843251288E-02
 0.32876879345E-03 0.54796177028E-03 0.90899249238E-03 0.15070550628E-02 0.16509054976E-02
 0.33809191181E-02 0.19192220580E-02 0.93959388662E-03 0.61733414256E-03 0.20797873612E-02
 0.10897646863E-01 0.58802718948E-01 0.28004755496E+00 0.11101196091E+01 0.32399204970E+01
 0.59261058379E+01 0.59261927172E+01 0.32401156573E+01 0.11100591973E+01 0.28005709264E+00
 0.58920973388E-01 0.10881709298E-01 0.21621527652E-02 0.46901709398E-03 0.86619547060E-03
 0.20941810561E-02 0.34788938290E-02 0.45645627910E-02 0.45283016064E-02 0.60262482733E-02
 0.29028852897E-02 0.12118458690E-02 0.70857450695E-03 0.20513809545E-02 0.93852576297E-02
 0.41191414531E-01 0.15125558072E+00 0.43278271663E+00 0.86828349284E+00 0.11102440158E+01
 0.86803774267E+00 0.43258073062E+00 0.15138262612E+00 0.41251127342E-01 0.92063834371E-02
 0.21621527652E-02 0.46993775630E-03 0.12203447248E-02 0.31536348740E-02 0.60583466726E-02
 0.92247206038E-02 0.10898778724E-01 0.93303272329E-02 0.80699131406E-02 0.33727971397E-02
 0.11840959329E-02 0.65617894025E-03 0.15374175929E-02 0.60164547857E-02 0.20866523469E-01
 0.58668696328E-01 0.12424069291E+00 0.18489183947E+00 0.18493351889E+00 0.12443185619E+00
 0.58870133414E-01 0.20589710759E-01 0.59881659825E-02 0.16843251288E-02 0.46901709398E-03
 0.12203447250E-02 0.36113686685E-02 0.79963837866E-02 0.14750070744E-01 0.20745153339E-01
 0.20758983730E-01 0.15006160989E-01 0.80768530162E-02 0.29228269862E-02 0.92318646904E-03
 0.45173144438E-03 0.92318646906E-03 0.29228269862E-02 0.80768530162E-02 0.17679498878E-01
 0.29154831017E-01 0.34647416922E-01 0.29146738583E-01 0.17407619497E-01 0.79963837866E-02
 0.31536348740E-02 0.86619547067E-03 0.32876879346E-03 0.86619547061E-03 0.31536348740E-02
 0.79963837866E-02 0.17407619497E-01 0.29146738583E-01 0.34647416922E-01 0.29154831017E-01
 0.17679498878E-01 0.59865470596E-02 0.19316977965E-02 0.55949429008E-03 0.25453681471E-03
 0.43909960535E-03 0.11325116652E-02 0.25360276802E-02 0.44959962477E-02 0.60256223970E-02
 0.60082452810E-02 0.45656590657E-02 0.27792285886E-02 0.11519638965E-02 0.22668749440E-03
 0.36349295604E-03 0.54796177032E-03 0.20941810561E-02 0.60583466726E-02 0.14750070744E-01
 0.29146738583E-01 0.41221056691E-01 0.41217609231E-01 0.29162869698E-01 0.15056524994E-01
 0.33520853393E-02 0.99773276515E-03 0.26992895628E-03 0.12118334695E-03 0.16726622999E-03
 0.37274334208E-03 0.66689385817E-03 0.97202526616E-03 0.10770945561E-02 0.95343584105E-03
 0.58318448043E-03 0.18909829496E-03 0.16814939320E-03 0.32139419508E-03 0.23542999331E-03
 0.90899249235E-03 0.34788938290E-02 0.92247206038E-02 0.20745153339E-01 0.34647416922E-01
 0.41217609231E-01 0.34633644600E-01 0.20854909101E-01 0.94113170344E-02 0.14657925639E-02
 0.41655592027E-03 0.10755648942E-03 0.47669571155E-04 0.56062638477E-04 0.10298476292E-03
 0.16063764620E-03 0.22212186645E-03 0.23568107165E-03 0.20354048421E-03 0.15548617722E-03
 0.21906996803E-03 0.21040239936E-04 -.37003275202E-04 0.38986833175E-03 0.15070550628E-02
 0.45645627910E-02 0.10898778724E-01 0.20758983730E-01 0.29154831017E-01 0.29162869698E-01
 0.20854909101E-01 0.10980070748E-01 0.44680989228E-02 0.52664237770E-03 0.14443857754E-03
 0.36213616289E-04 0.17889547948E-04 0.13376807090E-04 0.30549129712E-04 0.27563344347E-04
 0.27951898916E-04 -.74711317509E-06 -.26102409159E-05 -.27027421280E-04 -.11306803996E-03
 0.31733527002E-04 0.31444760031E-03 0.50517621751E-03 0.16509054976E-02 0.45283016063E-02
 0.93303272329E-02 0.15006160989E-01 0.17679498878E-01 0.15056524994E-01 0.94113170344E-02
 0.44680989229E-02 0.16791792343E-02 0.18186671727E-03 0.42674753080E-04 0.10550967688E-04
 0.38442534408E-05 0.34390924216E-05 0.33884936060E-05 0.57023198960E-05 0.22502107415E-04
 0.54631212532E-04 0.30136662794E-04 0.12447018846E-03 0.49478061955E-04 0.27432174328E-04
 0.68091069231E-03 0.23243431670E-02 0.60344798946E-02 0.12879461287E-01 0.20885637082E-01
 0.24645215971E-01 0.20866523469E-01 0.12828269167E-01 0.60081874852E-02 0.22104239461E-02
 0.67410738345E-03 0.42674753059E-04 0.94327482887E-05 0.39525956163E-05 -.32120720058E-06
 0.19045680259E-05 0.48661133082E-06 -.98329455631E-07 -.15493307786E-04 -.45027404516E-04
 -.13125082149E-04 -.98100390104E-04 0.24904401676E-04 0.31967512130E-03 0.52889942198E-03
 0.13538214279E-02 0.33177884961E-02 0.59511035419E-02 0.80682623574E-02 0.81060700076E-02
 0.60164547857E-02 0.33873380581E-02 0.14535114328E-02 0.52700702504E-03 0.15952031652E-03
 0.10550967664E-04 0.39525956051E-05 -.65083330740E-06 0.14475972323E-05 -.70055727116E-06
 0.70531889102E-07 0.21917042464E-05 0.13379293792E-04 0.44760328899E-04 0.73091426720E-05
 0.11894753924E-03 0.66084939661E-04 -.46564862792E-04 0.33818238115E-03 0.94804334850E-03
 0.16176761765E-02 0.23814651687E-02 0.26964967366E-02 0.23094301023E-02 0.15374175929E-02
 0.79603695698E-03 0.36597802585E-03 0.12457488287E-03 0.40089731972E-04 0.38442534225E-05
 -.32120723807E-06 0.14475972669E-05 -.84684432627E-06 0.45436288756E-06 0.82323258211E-06
 -.33445360376E-05 -.96839579040E-05 -.42905300330E-04 0.10873914834E-04 -.98723653390E-04
 0.85195482407E-05 0.32038011511E-03 0.32867744638E-03 0.48241330762E-03 0.95380654237E-03
 0.12704988535E-02 0.13010553766E-02 0.10608000491E-02 0.65617894023E-03 0.33355830751E-03
 0.11186783277E-03 0.43697654624E-04 0.11170186619E-04 0.34390924610E-05 0.19045680207E-05
 -.70055727993E-06 0.45436288926E-06 0.32850177769E-06 -.17637789058E-05 0.54050712241E-05
 0.71422222721E-05 0.48910306379E-04 -.69303157444E-05 0.17527349298E-03 0.21386507674E-03
 0.27080633277E-03 0.12012649331E-02 0.25401707334E-02 0.36514458519E-02 0.41457765989E-02
 0.35772029360E-02 0.23094301022E-02 0.11840959330E-02 0.48246665831E-03 0.18979049826E-03
 0.54252274844E-04 0.17086320637E-04 0.33884935982E-05 0.48661134838E-06 0.70531916915E-07
 0.82323261478E-06 -.17637789061E-05 0.38619143299E-05 -.72490652926E-05 0.24351353255E-05
 -.30915433895E-04 0.12154653981E-03 0.17704320045E-03 0.11059814161E-02 0.36372116118E-02
 0.79990969457E-02 0.14800200830E-01 0.20771630752E-01 0.20816321309E-01 0.15021550040E-01
 0.81060700077E-02 0.33727971397E-02 0.11458147443E-02 0.30859519205E-03 0.78462299835E-04
 0.15849831999E-04 0.57023199122E-05 -.98329467554E-07 0.21917042578E-05 -.33445360241E-05
 0.54050712367E-05 -.72490653183E-05 0.18445448220E-04 0.15885424957E-04 0.17390220360E-03
 0.45659201039E-03 0.24100418340E-02 0.80194300861E-02 0.24427294127E-01 0.58883479470E-01
 0.10268953599E+00 0.12430895942E+00 0.10251782876E+00 0.58718463519E-01 0.24645215971E-01
 0.80699131406E-02 0.21938053859E-02 0.54230316832E-03 0.11769478497E-03 0.26300337496E-04
 0.22502107452E-04 -.15493307791E-04 0.13379293817E-04 -.96839578902E-05 0.71422222467E-05
 0.24351353132E-05 0.15885424953E-04 0.13096615637E-03 0.61381137956E-03 0.34470332409E-02
 0.14811890873E-01 0.58822948895E-01 0.18508737688E+00 0.43259225179E+00 0.68376228541E+00
 0.68383680741E+00 0.43274735676E+00 0.18492878087E+00 0.58706269924E-01 0.15006160989E-01
 0.34193769211E-02 0.62049412331E-03 0.15109205961E-03 -.43320988823E-05 0.54631212524E-04
 -.45027404530E-04 0.44760328895E-04 -.42905300351E-04 0.48910306380E-04 -.30915433914E-04
 0.17390220359E-03 0.61381137957E-03 0.39848917246E-02 0.20747887277E-01 0.10263955666E+00
 0.43260483777E+00 0.14307074939E+01 0.32401108265E+01 0.43517195510E+01 0.32400065496E+01
 0.14307562930E+01 0.43275064576E+00 0.10251159693E+00 0.20758983730E-01 0.39607801962E-02
 0.60539832990E-03 0.18798524139E-03 -.33773456100E-04 0.30136662778E-04 -.13125082200E-04
 0.73091426558E-05 0.10873914806E-04 -.69303157127E-05 0.12154653983E-03 0.45659201040E-03
 0.34470332408E-02 0.20747887277E-01 0.12426311003E+00 0.68376087467E+00 0.32400281209E+01
 0.11553428231E+02 0.24553737549E+02 0.24553577772E+02 0.11553380298E+02 0.32400073356E+01
 0.68382871615E+00 0.12429422465E+00 0.20745153339E-01 0.34978826230E-02 0.41993249093E-03
 0.13511183732E-03 -.32782501812E-04 0.12447018851E-03 -.98100390112E-04 0.11894753920E-03
 -.98723653398E-04 0.17527349295E-03 0.17704320043E-03 0.24100418340E-02 0.14811890873E-01
 0.10263955666E+00 0.68376087467E+00 0.43517509839E+01 0.24553537613E+02 0.98768900813E+02
 0.17741547760E+03 0.98768795029E+02 0.24553578678E+02 0.43517162701E+01 0.68376764404E+00
 0.10268542777E+00 0.14750070744E-01 0.24189105430E-02 0.17459359881E-03 0.19899200202E-03
 -.10115827757E-03 0.49478061910E-04 0.24904401629E-04 0.66084939707E-04 0.85195482353E-05
 0.21386507681E-03 0.11059814161E-02 0.80194300862E-02 0.58822948895E-01 0.43260483777E+00
 0.32400281209E+01 0.24553537613E+02 0.17741567791E+03 0.90780603669E+03 0.90780598717E+03
 0.17741548004E+03 0.24553734291E+02 0.32401156573E+01 0.43258073062E+00 0.58870133415E-01
 0.79963837866E-02 0.11519638964E-02 0.16814939310E-03 0.21040239857E-04 0.31733526977E-04
 0.27432174412E-04 0.31967512132E-03 -.46564862954E-04 0.32038011498E-03 0.27080633269E-03
 0.36372116118E-02 0.24427294128E-01 0.18508737688E+00 0.14307074939E+01 0.11553428231E+02
 0.98768900813E+02 0.90780603669E+03 0.94953071983E+04 0.90780603711E+03 0.98768897512E+02
 0.11553432381E+02 0.14307005147E+01 0.18510015173E+00 0.24440378126E-01 0.36113686684E-02
 0.24869194625E-03 0.34106244392E-03 -.20055901245E-04 0.32853464228E-03 0.68091069226E-03
 0.52889942196E-03 0.33818238110E-03 0.32867744638E-03 0.12012649331E-02 0.79990969458E-02
 0.58883479470E-01 0.43259225179E+00 0.32401108265E+01 0.24553737549E+02 0.17741547760E+03
 0.90780598717E+03 0.90780603711E+03 0.17741567717E+03 0.24553541743E+02 0.32400243269E+01
 0.43261965575E+00 0.58825532097E-01 0.80337904309E-02 0.12203447249E-02 0.37422212617E-03
 0.27246630587E-03 0.52871708588E-03 0.63402301386E-03 0.23243431670E-02 0.13538214279E-02
 0.94804334850E-03 0.48241330763E-03 0.25401707335E-02 0.14800200831E-01 0.10268953599E+00
 0.68376228541E+00 0.43517195510E+01 0.24553577772E+02 0.98768795029E+02 0.17741548004E+03
 0.98768897512E+02 0.24553541743E+02 0.43517442584E+01 0.68377644882E+00 0.10262952109E+00
 0.14857590913E-01 0.25818900287E-02 0.46901709400E-03 0.86489916538E-03 0.13769745997E-02
 0.23865451693E-02 0.24462983817E-02 0.60344798945E-02 0.33177884961E-02 0.16176761765E-02
 0.95380654234E-03 0.36514458519E-02 0.20771630752E-01 0.12430895942E+00 0.68383680741E+00
 0.32400065496E+01 0.11553380298E+02 0.24553578678E+02 0.24553734291E+02 0.11553432381E+02
 0.32400243269E+01 0.68377644882E+00 0.12424965421E+00 0.20791502939E-01 0.36181069814E-02
 0.91324305472E-03 0.16843251288E-02 0.34525600877E-02 0.60075220101E-02 0.80469678586E-02
 0.80323353052E-02 0.12879461287E-01 0.59511035419E-02 0.23814651687E-02 0.12704988535E-02
 0.41457765989E-02 0.20816321309E-01 0.10251782876E+00 0.43274735676E+00 0.14307562930E+01
 0.32400073356E+01 0.43517162701E+01 0.32401156573E+01 0.14307005147E+01 0.43261965575E+00
 0.10262952109E+00 0.20791502939E-01 0.41608111491E-02 0.12234178364E-02 0.25818900286E-02
 0.59881659825E-02 0.12634445817E-01 0.20705111629E-01 0.24627184304E-01 0.20757364674E-01
 0.20885637082E-01 0.80682623574E-02 0.26964967367E-02 0.13010553766E-02 0.35772029360E-02
 0.15021550040E-01 0.58718463519E-01 0.18492878087E+00 0.43275064576E+00 0.68382871615E+00
 0.68376764404E+00 0.43258073062E+00 0.18510015173E+00 0.58825532097E-01 0.14857590914E-01
 0.36181069814E-02 0.12234178364E-02 0.28711220797E-02 0.80337904308E-02 0.20589710759E-01
 0.41245178273E-01 0.58858507823E-01 0.58809093208E-01 0.41173237313E-01 0.24645215971E-01
 0.81060700077E-02 0.23094301023E-02 0.10608000491E-02 0.23094301023E-02 0.81060700076E-02
 0.24645215971E-01 0.58706269924E-01 0.10251159693E+00 0.12429422465E+00 0.10268542777E+00
 0.58870133414E-01 0.24440378126E-01 0.80337904309E-02 0.25818900287E-02 0.91324305479E-03
 0.25818900287E-02 0.80337904309E-02 0.24440378126E-01 0.58870133414E-01 0.10268542777E+00
 0.12429422465E+00 0.10251159693E+00 0.58706269924E-01 0.20866523469E-01 0.60164547857E-02
 0.15374175930E-02 0.65617894022E-03 0.11840959330E-02 0.33727971397E-02 0.80699131407E-02
 0.15006160989E-01 0.20758983730E-01 0.20745153339E-01 0.14750070744E-01 0.79963837866E-02
 0.36113686684E-02 0.12203447249E-02 0.46901709397E-03 0.16843251288E-02 0.59881659826E-02
 0.20589710759E-01 0.58870133414E-01 0.12443185619E+00 0.18493351889E+00 0.18489183947E+00
 0.12424069291E+00 0.58668696328E-01 0.12828269167E-01 0.33873380581E-02 0.79603695698E-03
 0.33355830750E-03 0.48246665830E-03 0.11458147442E-02 0.21938053859E-02 0.34193769211E-02
 0.39607801961E-02 0.34978826230E-02 0.24189105430E-02 0.11519638964E-02 0.24869194635E-03
 0.37422212614E-03 0.86489916538E-03 0.34525600877E-02 0.12634445817E-01 0.41245178273E-01
 0.10268542777E+00 0.18493351889E+00 0.22696246501E+00 0.18493219981E+00 0.10243132087E+00
 0.41143466357E-01 0.60081874852E-02 0.14535114328E-02 0.36597802587E-03 0.11186783276E-03
 0.18979049825E-03 0.30859519203E-03 0.54230316833E-03 0.62049412329E-03 0.60539832991E-03
 0.41993249099E-03 0.17459359880E-03 0.16814939311E-03 0.34106244403E-03 0.27246630586E-03
 0.13769745997E-02 0.60075220101E-02 0.20705111629E-01 0.58858507823E-01 0.12429422465E+00
 0.18489183947E+00 0.18493219981E+00 0.12422015164E+00 0.58650615492E-01 0.20853402014E-01
 0.22104239461E-02 0.52700702506E-03 0.12457488289E-03 0.43697654639E-04 0.54252274852E-04
 0.78462299838E-04 0.11769478502E-03 0.15109205959E-03 0.18798524136E-03 0.13511183734E-03
 0.19899200204E-03 0.21040239888E-04 -.20055901104E-04 0.52871708587E-03 0.23865451693E-02
 0.80469678586E-02 0.24627184304E-01 0.58809093208E-01 0.10251159693E+00 0.12424069291E+00
 0.10243132087E+00 0.58650615492E-01 0.24650216699E-01 0.80718045844E-02 0.67410738346E-03
 0.15952031651E-03 0.40089731937E-04 0.11170186616E-04 0.17086320628E-04 0.15849831996E-04
 0.26300337506E-04 -.43320988733E-05 -.33773456103E-04 -.32782501835E-04 -.10115827754E-03
 0.31733526996E-04 0.32853464222E-03 0.63402301387E-03 0.24462983817E-02 0.80323353052E-02
 0.20757364674E-01 0.41173237313E-01 0.58706269924E-01 0.58668696328E-01 0.41143466357E-01
 0.20853402014E-01 0.80718045844E-02 0.25335373671E-02 0.16773660201E-03 0.29476482715E-04
 0.10812858476E-04 0.15143413744E-05 0.16700615995E-05 0.42585599796E-05 -.98565295369E-05
 0.25643319522E-04 0.10667380651E-04 0.47974207531E-04 0.28533738997E-04 0.11511274372E-04
 0.68091069215E-03 0.26607416452E-02 0.80954677097E-02 0.20884906370E-01 0.41173861272E-01
 0.58685514016E-01 0.58718463520E-01 0.41191414531E-01 0.20808932885E-01 0.80487266371E-02
 0.25565733893E-02 0.65209219508E-03 0.29476482720E-04 0.12084517513E-04 -.24866067123E-06
 0.11797904938E-05 0.15278574910E-05 -.19805721946E-05 0.12174293684E-04 -.24381267128E-04
 -.46700422102E-05 -.32242228321E-04 0.25719796590E-04 0.29653096175E-03 0.52889942200E-03
 0.15540266768E-02 0.44413201623E-02 0.94075270029E-02 0.15054250023E-01 0.17709431349E-01
 0.15021550040E-01 0.93852576297E-02 0.45463484556E-02 0.17010372739E-02 0.51567003722E-03
 0.16235521609E-03 0.10812858450E-04 -.24866068728E-06 0.79834354411E-06 0.12506600748E-05
 -.25543085792E-05 0.41857313695E-05 -.12408234795E-04 0.28510579596E-04 0.59758867791E-05
 0.49821003696E-04 0.54838610217E-04 -.52066096986E-04 0.33818238118E-03 0.10742424265E-02
 0.20848451439E-02 0.35466042632E-02 0.47233342468E-02 0.47111176728E-02 0.35772029358E-02
 0.20513809544E-02 0.86949185340E-03 0.33688210704E-03 0.11679782830E-03 0.15636904156E-04
 0.15143413805E-05 0.11797905184E-05 0.12506600418E-05 -.25015312318E-05 0.41874490083E-05
 -.57165738034E-05 0.13875179935E-04 -.30967841660E-04 0.15292920010E-05 -.34363958146E-04
 -.23556930176E-05 0.29782267788E-03 0.32867744649E-03 0.54345798088E-03 0.12634909405E-02
 0.19402708610E-02 0.21945117890E-02 0.19368080561E-02 0.13010553766E-02 0.70857450692E-03
 0.36144345838E-03 0.12526826511E-03 0.34139301421E-04 0.23487308158E-04 0.16700616105E-05
 0.15278575150E-05 -.25543085743E-05 0.41874490081E-05 -.59197592758E-05 0.79091350005E-05
 -.15092488199E-04 0.38387992516E-04 0.61001387168E-05 0.88094642649E-04 0.19323787634E-03
 0.22411897609E-03 0.12012649331E-02 0.29050654197E-02 0.47678154712E-02 0.62598514821E-02
 0.62936364701E-02 0.47111176728E-02 0.26964967367E-02 0.12118458691E-02 0.40454850761E-03
 0.12915973663E-03 0.38277949540E-04 -.17846444881E-05 0.42585599336E-05 -.19805721806E-05
 0.41857313644E-05 -.57165737974E-05 0.79091349986E-05 -.96678940402E-05 0.20423744894E-04
 -.30714294698E-04 0.64049294238E-04 0.16603773969E-03 0.80770330118E-03 0.31957448145E-02
 0.79990969458E-02 0.17455532955E-01 0.29190685336E-01 0.34713546257E-01 0.29191604861E-01
 0.17709431349E-01 0.80682623573E-02 0.29028852898E-02 0.90344488889E-03 0.23686196843E-03
 0.54829840189E-04 0.21551890406E-04 -.98565295460E-05 0.12174293663E-04 -.12408234790E-04
 0.13875179916E-04 -.15092488220E-04 0.20423744947E-04 -.13786585035E-04 0.12069532590E-03
 0.29400226223E-03 0.15650440555E-02 0.60205302344E-02 0.20592074411E-01 0.58883479470E-01
 0.12443930992E+00 0.18494784200E+00 0.18490324196E+00 0.12425996507E+00 0.58685514016E-01
 0.20885637083E-01 0.60262482733E-02 0.14292854241E-02 0.32720773423E-03 0.49987086474E-04
 0.13775877285E-04 0.25643319573E-04 -.24381267131E-04 0.28510579576E-04 -.30967841698E-04
 0.38387992535E-04 -.30714294712E-04 0.12069532588E-03 0.26813823150E-03 0.20134699420E-02
 0.91967634463E-02 0.41256749165E-01 0.15138290644E+00 0.43259225179E+00 0.86803277173E+00
 0.11102518215E+01 0.86828163316E+00 0.43277990012E+00 0.15124392614E+00 0.41173237313E-01
 0.93303272329E-02 0.19734509939E-02 0.35371731052E-03 0.89551730234E-04 0.16101939814E-05
 0.10667380666E-04 -.46700422021E-05 0.59758868335E-05 0.15292920219E-05 0.61001387169E-05
 0.64049294215E-04 0.29400226223E-03 0.20134699420E-02 0.10855842679E-01 0.58912923481E-01
 0.28004134095E+00 0.11100704387E+01 0.32401108265E+01 0.59261971491E+01 0.59261051484E+01
 0.32399215450E+01 0.11101275314E+01 0.28005253029E+00 0.58809093208E-01 0.10898778724E-01
 0.19625395556E-02 0.28105166756E-03 0.65466758029E-04 -.14260382999E-04 0.47974207510E-04
 -.32242228320E-04 0.49821003679E-04 -.34363958151E-04 0.88094642621E-04 0.16603773970E-03
 0.15650440555E-02 0.91967634463E-02 0.58912923481E-01 0.34701683666E+00 0.18603055054E+01
 0.81990526783E+01 0.24553737549E+02 0.37388092677E+02 0.24553819569E+02 0.81990582044E+01
 0.18602317624E+01 0.34716192151E+00 0.58858507823E-01 0.92247206038E-02 0.15557821996E-02
 0.19506092242E-03 0.85592284139E-04 -.15630840188E-04 0.28533739005E-04 0.25719796576E-04
 0.54838610206E-04 -.23556930287E-05 0.19323787634E-03 0.80770330114E-03 0.60205302345E-02
 0.41256749165E-01 0.28004134095E+00 0.18603055054E+01 0.11553400639E+02 0.59206795710E+02
 0.17741547760E+03 0.17741558612E+03 0.59206943417E+02 0.11553309943E+02 0.18601775622E+01
 0.28002597178E+00 0.41245178273E-01 0.60583466726E-02 0.80249885659E-03 0.17123795427E-03
 -.84584969776E-05 0.36270209526E-04 0.11511274363E-04 0.29653096174E-03 -.52066096965E-04
 0.29782267787E-03 0.22411897608E-03 0.31957448145E-02 0.20592074411E-01 0.15138290644E+00
 0.11100704387E+01 0.81990526783E+01 0.59206795710E+02 0.35813729483E+03 0.90780598717E+03
 0.35813729507E+03 0.59206792694E+02 0.81990555855E+01 0.11100591973E+01 0.15138262612E+00
 0.20589710759E-01 0.31536348740E-02 0.22668749439E-03 0.32139419506E-03 -.37003275183E-04
 0.31444760029E-03 0.68091069227E-03 0.52889942193E-03 0.33818238111E-03 0.32867744638E-03
 0.12012649331E-02 0.79990969458E-02 0.58883479470E-01 0.43259225179E+00 0.32401108265E+01
 0.24553737549E+02 0.17741547760E+03 0.90780598717E+03 0.90780603711E+03 0.17741567717E+03
 0.24553541743E+02 0.32400243269E+01 0.43261965575E+00 0.58825532097E-01 0.80337904310E-02
 0.12203447249E-02 0.37422212614E-03 0.27246630587E-03 0.52871708589E-03 0.63402301387E-03
 0.26607416452E-02 0.15540266768E-02 0.10742424265E-02 0.54345798090E-03 0.29050654198E-02
 0.17455532955E-01 0.12443930992E+00 0.86803277173E+00 0.59261971491E+01 0.37388092677E+02
 0.17741558612E+03 0.35813729507E+03 0.17741567717E+03 0.37388139550E+02 0.59261917196E+01
 0.86823280687E+00 0.12437715989E+00 0.17487811394E-01 0.28711220797E-02 0.46993775631E-03
 0.10496723919E-02 0.16287329071E-02 0.26917189723E-02 0.28345142822E-02 0.80954677097E-02
 0.44413201623E-02 0.20848451439E-02 0.12634909405E-02 0.47678154711E-02 0.29190685336E-01
 0.18494784200E+00 0.11102518215E+01 0.59261051484E+01 0.24553819569E+02 0.59206943417E+02
 0.59206792694E+02 0.24553541743E+02 0.59261917196E+01 0.11102919261E+01 0.18486778938E+00
 0.29269836064E-01 0.47397274348E-02 0.12234178365E-02 0.21621527652E-02 0.45150350944E-02
 0.80217624045E-02 0.10877461950E-01 0.10921222904E-01 0.20884906370E-01 0.94075270029E-02
 0.35466042632E-02 0.19402708610E-02 0.62598514821E-02 0.34713546257E-01 0.18490324196E+00
 0.86828163316E+00 0.32399215450E+01 0.81990582044E+01 0.11553309943E+02 0.81990555855E+01
 0.32400243269E+01 0.86823280687E+00 0.18486778938E+00 0.34832335430E-01 0.62057367514E-02
 0.19508507260E-02 0.36181069815E-02 0.92063834371E-02 0.20800973567E-01 0.34670454826E-01
 0.41225412302E-01 0.34629820435E-01 0.41173861272E-01 0.15054250023E-01 0.47233342468E-02
 0.21945117890E-02 0.62936364700E-02 0.29191604861E-01 0.12425996507E+00 0.43277990012E+00
 0.11101275314E+01 0.18602317624E+01 0.18601775622E+01 0.11100591973E+01 0.43261965575E+00
 0.12437715989E+00 0.29269836064E-01 0.62057367515E-02 0.22903725080E-02 0.47397274347E-02
 0.14857590914E-01 0.41251127343E-01 0.85012018992E-01 0.12423610848E+00 0.12428304327E+00
 0.84767321710E-01 0.58685514016E-01 0.17709431349E-01 0.47111176728E-02 0.19368080561E-02
 0.47111176729E-02 0.17709431349E-01 0.58685514016E-01 0.15124392614E+00 0.28005253029E+00
 0.34716192151E+00 0.28002597178E+00 0.15138262612E+00 0.58825532097E-01 0.17487811394E-01
 0.47397274348E-02 0.19508507260E-02 0.47397274348E-02 0.17487811394E-01 0.58825532097E-01
 0.15138262612E+00 0.28002597178E+00 0.34716192151E+00 0.28005253029E+00 0.15124392614E+00
 0.58718463519E-01 0.15021550040E-01 0.35772029360E-02 0.13010553766E-02 0.26964967367E-02
 0.80682623574E-02 0.20885637082E-01 0.41173237313E-01 0.58809093208E-01 0.58858507823E-01
 0.41245178273E-01 0.20589710759E-01 0.80337904307E-02 0.28711220797E-02 0.12234178365E-02
 0.36181069814E-02 0.14857590913E-01 0.58825532097E-01 0.18510015173E+00 0.43258073062E+00
 0.68376764404E+00 0.68382871615E+00 0.43275064576E+00 0.18492878087E+00 0.41191414531E-01
 0.93852576297E-02 0.20513809544E-02 0.70857450693E-03 0.12118458690E-02 0.29028852897E-02
 0.60262482733E-02 0.93303272329E-02 0.10898778724E-01 0.92247206038E-02 0.60583466726E-02
 0.31536348740E-02 0.12203447249E-02 0.46993775630E-03 0.21621527652E-02 0.92063834371E-02
 0.41251127343E-01 0.15138262612E+00 0.43258073062E+00 0.86803774267E+00 0.11102440158E+01
 0.86828349284E+00 0.43278271663E+00 0.15125558072E+00 0.20808932885E-01 0.45463484556E-02
 0.86949185343E-03 0.36144345839E-03 0.40454850755E-03 0.90344488885E-03 0.14292854241E-02
 0.19734509939E-02 0.19625395556E-02 0.15557821997E-02 0.80249885657E-03 0.22668749440E-03
 0.37422212618E-03 0.10496723918E-02 0.45150350944E-02 0.20800973567E-01 0.85012018992E-01
 0.28002597178E+00 0.68376764404E+00 0.11102440158E+01 0.11102267528E+01 0.68388811730E+00
 0.28018958807E+00 0.84786649809E-01 0.80487266371E-02 0.17010372738E-02 0.33688210704E-03
 0.12526826512E-03 0.12915973662E-03 0.23686196843E-03 0.32720773427E-03 0.35371731052E-03
 0.28105166757E-03 0.19506092243E-03 0.17123795428E-03 0.32139419509E-03 0.27246630604E-03
 0.16287329071E-02 0.80217624045E-02 0.34670454826E-01 0.12423610848E+00 0.34716192151E+00
 0.68382871615E+00 0.86828349284E+00 0.68388811730E+00 0.34743606129E+00 0.12420323074E+00
 0.34654210512E-01 0.25565733893E-02 0.51567003723E-03 0.11679782832E-03 0.34139301418E-04
 0.38277949528E-04 0.54829840183E-04 0.49987086460E-04 0.89551730264E-04 0.65466758042E-04
 0.85592284136E-04 -.84584969407E-05 -.37003275160E-04 0.52871708587E-03 0.26917189722E-02
 0.10877461950E-01 0.41225412302E-01 0.12428304327E+00 0.28005253029E+00 0.43275064576E+00
 0.43278271663E+00 0.28018958807E+00 0.12420323074E+00 0.41179826611E-01 0.10929538398E-01
 0.65209219509E-03 0.16235521609E-03 0.15636904151E-04 0.23487308112E-04 -.17846444670E-05
 0.21551890405E-04 0.13775877291E-04 0.16101939619E-05 -.14260382975E-04 -.15630840198E-04
 0.36270209521E-04 0.31444760031E-03 0.63402301382E-03 0.28345142822E-02 0.10921222904E-01
 0.34629820435E-01 0.84767321710E-01 0.15124392614E+00 0.18492878087E+00 0.15125558072E+00
 0.84786649809E-01 0.34654210512E-01 0.10929538398E-01 0.29554073281E-02 0.14278060109E-03
 0.37761205708E-05 0.20545896662E-04 -.11969148793E-04 0.13395413564E-04 -.93769969076E-05
 0.20700685255E-05 -.29669869003E-04 -.35798372501E-04 0.18928710472E-05 0.35797022473E-04
 0.51545103208E-03 0.23243431670E-02 0.80954677097E-02 0.24672821978E-01 0.58661256562E-01
 0.10244338100E+00 0.12425996507E+00 0.10251782876E+00 0.58802718948E-01 0.24588121236E-01
 0.80430344067E-02 0.22795395723E-02 0.49585068104E-03 0.37761205732E-05 0.17358943093E-04
 -.87372574363E-05 0.89543575189E-05 -.75848917598E-05 0.70004412781E-05 0.28116312792E-05
 0.25054802427E-04 0.45906558915E-04 0.31864123802E-04 0.18357658318E-03 0.43718922566E-03
 0.13538214279E-02 0.44413201623E-02 0.10989616793E-01 0.20886695779E-01 0.29215043008E-01
 0.29191604861E-01 0.20816321309E-01 0.10897646863E-01 0.45755988190E-02 0.14716572904E-02
 0.36496981309E-03 0.11877306559E-03 0.20545896657E-04 -.87372574270E-05 0.79089136943E-05
 -.65227162264E-05 0.59660084885E-05 -.48384826175E-05 -.41807125897E-05 -.17049250953E-04
 -.37143224604E-04 0.24726182663E-04 -.79054590409E-05 0.23531896373E-03 0.94804334853E-03
 0.20848451440E-02 0.40712380517E-02 0.62688627375E-02 0.72445808527E-02 0.62936364700E-02
 0.41457765988E-02 0.20797873611E-02 0.73092747473E-03 0.28490449960E-03 0.11887551267E-03
 0.96996105464E-05 -.11969148849E-04 0.89543575168E-05 -.65227162366E-05 0.56523189177E-05
 -.49388387572E-05 0.40566333224E-05 0.60194075830E-05 0.15057869078E-04 0.50301624313E-04
 0.71232866822E-05 0.18240601458E-03 0.30791848031E-03 0.48241330760E-03 0.12634909405E-02
 0.22328527284E-02 0.29173491658E-02 0.29181199352E-02 0.21945117890E-02 0.12704988535E-02
 0.61733414255E-03 0.32135397305E-03 0.73860992437E-04 -.10565625777E-04 0.14659538799E-04
 0.13395413570E-04 -.75848917527E-05 0.59660085051E-05 -.49388387285E-05 0.42781269263E-05
 -.29469517391E-05 -.57120767504E-05 -.34453838746E-05 -.24255042540E-04 0.12416311229E-03
 0.18879004781E-03 0.85759239991E-03 0.25401707334E-02 0.47678154712E-02 0.72168677479E-02
 0.83826706657E-02 0.72445808527E-02 0.47233342468E-02 0.23814651687E-02 0.93959388662E-03
 0.25015794724E-03 0.96886148654E-04 0.56491236508E-04 -.94370091816E-06 -.93769969085E-05
 0.70004412776E-05 -.48384826389E-05 0.40566333230E-05 -.29469516846E-05 0.32708022740E-05
 0.14447399830E-04 0.32139780058E-04 0.18079521225E-03 0.46704093393E-03 0.20972908420E-02
 0.60386655997E-02 0.14800200831E-01 0.29190685336E-01 0.41293423791E-01 0.41262970514E-01
 0.29215043008E-01 0.15054250023E-01 0.59511035419E-02 0.19192220580E-02 0.57994280508E-03
 0.12183790473E-03 -.37274469018E-05 0.10217526389E-04 0.20700685389E-05 0.28116313308E-05
 -.41807125950E-05 0.60194075650E-05 -.57120767343E-05 0.14447399859E-04 0.10843862327E-04
 0.17183528861E-03 0.69558818604E-03 0.34613472707E-02 0.12589554963E-01 0.41243590240E-01
 0.10268953599E+00 0.18494784200E+00 0.22697553777E+00 0.18495680436E+00 0.10244338100E+00
 0.41173861272E-01 0.12879461287E-01 0.33809191181E-02 0.70598630969E-03 0.17400102937E-03
 0.53557664983E-04 0.11705897765E-04 -.29669869045E-04 0.25054802395E-04 -.17049250935E-04
 0.15057869101E-04 -.34453838692E-05 0.32139780039E-04 0.17183528861E-03 0.86137184907E-03
 0.45299370870E-02 0.20781278382E-01 0.84999653087E-01 0.28002450864E+00 0.68376228541E+00
 0.11102518215E+01 0.11102262708E+01 0.68388258181E+00 0.28018900868E+00 0.84767321710E-01
 0.20757364674E-01 0.45283016063E-02 0.85933577382E-03 0.20272156137E-03 -.38278544667E-04
 0.35088259987E-04 -.35798372493E-04 0.45906558935E-04 -.37143224618E-04 0.50301624325E-04
 -.24255042554E-04 0.18079521226E-03 0.69558818602E-03 0.45299370869E-02 0.24581784577E-01
 0.12426939892E+00 0.54213640063E+00 0.18601686743E+01 0.43517195510E+01 0.59261051484E+01
 0.43515644254E+01 0.18600351092E+01 0.54233343650E+00 0.12428304327E+00 0.24627184304E-01
 0.45645627910E-02 0.63939310243E-03 0.19492894938E-03 -.30070876379E-05 0.58726464527E-04
 0.18928710586E-05 0.31864123770E-04 0.24726182650E-04 0.71232866908E-05 0.12416311233E-03
 0.46704093393E-03 0.34613472707E-02 0.20781278382E-01 0.12426939892E+00 0.68387276022E+00
 0.32401083550E+01 0.11553310958E+02 0.24553577772E+02 0.24553819569E+02 0.11553499573E+02
 0.32399581830E+01 0.68394909514E+00 0.12423610848E+00 0.20705111628E-01 0.34788938289E-02
 0.48730041224E-03 0.15068643497E-03 -.49646279409E-04 0.44623195082E-04 0.35797022467E-04
 0.18357658318E-03 -.79054590499E-05 0.18240601456E-03 0.18879004778E-03 0.20972908420E-02
 0.12589554963E-01 0.84999653087E-01 0.54213640063E+00 0.32401083550E+01 0.16630426214E+02
 0.59206942586E+02 0.98768795029E+02 0.59206943417E+02 0.16630423039E+02 0.32401187258E+01
 0.54212627934E+00 0.85012018992E-01 0.12634445817E-01 0.20941810561E-02 0.14013243002E-03
 0.17928292396E-03 0.28940180620E-04 0.19281792207E-03 0.51545103207E-03 0.43718922562E-03
 0.23531896373E-03 0.30791848028E-03 0.85759239988E-03 0.60386655997E-02 0.41243590240E-01
 0.28002450864E+00 0.18601686743E+01 0.11553310958E+02 0.59206942586E+02 0.17741558423E+03
 0.17741548004E+03 0.59206792694E+02 0.11553406239E+02 0.18602940268E+01 0.28005709264E+00
 0.41251127343E-01 0.59881659825E-02 0.86619547066E-03 0.36349295604E-03 0.23542999329E-03
 0.38986833176E-03 0.50517621754E-03 0.23243431670E-02 0.13538214279E-02 0.94804334849E-03
 0.48241330762E-03 0.25401707335E-02 0.14800200831E-01 0.10268953599E+00 0.68376228541E+00
 0.43517195510E+01 0.24553577772E+02 0.98768795029E+02 0.17741548004E+03 0.98768897512E+02
 0.24553541743E+02 0.43517442584E+01 0.68377644882E+00 0.10262952109E+00 0.14857590913E-01
 0.25818900286E-02 0.46901709398E-03 0.86489916537E-03 0.13769745996E-02 0.23865451693E-02
 0.24462983817E-02 0.80954677097E-02 0.44413201623E-02 0.20848451440E-02 0.12634909405E-02
 0.47678154711E-02 0.29190685336E-01 0.18494784200E+00 0.11102518215E+01 0.59261051484E+01
 0.24553819569E+02 0.59206943417E+02 0.59206792694E+02 0.24553541743E+02 0.59261917196E+01
 0.11102919261E+01 0.18486778938E+00 0.29269836064E-01 0.47397274348E-02 0.12234178364E-02
 0.21621527652E-02 0.45150350944E-02 0.80217624045E-02 0.10877461950E-01 0.10921222904E-01
 0.24672821978E-01 0.10989616793E-01 0.40712380517E-02 0.22328527285E-02 0.72168677479E-02
 0.41293423791E-01 0.22697553777E+00 0.11102262708E+01 0.43515644254E+01 0.11553499573E+02
 0.16630423039E+02 0.11553406239E+02 0.43517442584E+01 0.11102919261E+01 0.22680316172E+00
 0.41382312294E-01 0.70806648406E-02 0.22903725080E-02 0.41608111491E-02 0.10881709298E-01
 0.24590696025E-01 0.41227705405E-01 0.49231313014E-01 0.41165453150E-01 0.58661256562E-01
 0.20886695779E-01 0.62688627375E-02 0.29173491658E-02 0.83826706656E-02 0.41262970514E-01
 0.18495680436E+00 0.68388258181E+00 0.18600351092E+01 0.32399581830E+01 0.32401187258E+01
 0.18602940268E+01 0.68377644882E+00 0.18486778938E+00 0.41382312294E-01 0.82612076962E-02
 0.30224931550E-02 0.62057367514E-02 0.20791502939E-01 0.58920973388E-01 0.12426886887E+00
 0.18487968550E+00 0.18487584667E+00 0.12420370221E+00 0.10244338100E+00 0.29215043008E-01
 0.72445808527E-02 0.29181199353E-02 0.72445808527E-02 0.29215043008E-01 0.10244338100E+00
 0.28018900868E+00 0.54233343650E+00 0.68394909514E+00 0.54212627934E+00 0.28005709264E+00
 0.10262952109E+00 0.29269836064E-01 0.70806648405E-02 0.30224931550E-02 0.70806648405E-02
 0.29269836064E-01 0.10262952109E+00 0.28005709264E+00 0.54212627934E+00 0.68394909514E+00
 0.54233343650E+00 0.28018900868E+00 0.12425996507E+00 0.29191604861E-01 0.62936364700E-02
 0.21945117889E-02 0.47233342468E-02 0.15054250023E-01 0.41173861272E-01 0.84767321710E-01
 0.12428304327E+00 0.12423610848E+00 0.85012018993E-01 0.41251127343E-01 0.14857590913E-01
 0.47397274348E-02 0.22903725080E-02 0.62057367514E-02 0.29269836064E-01 0.12437715989E+00
 0.43261965575E+00 0.11100591973E+01 0.18601775622E+01 0.18602317624E+01 0.11101275314E+01
 0.43277990012E+00 0.10251782876E+00 0.20816321309E-01 0.41457765989E-02 0.12704988535E-02
 0.23814651687E-02 0.59511035419E-02 0.12879461287E-01 0.20757364674E-01 0.24627184304E-01
 0.20705111629E-01 0.12634445817E-01 0.59881659825E-02 0.25818900287E-02 0.12234178364E-02
 0.41608111491E-02 0.20791502939E-01 0.10262952109E+00 0.43261965575E+00 0.14307005147E+01
 0.32401156573E+01 0.43517162701E+01 0.32400073356E+01 0.14307562930E+01 0.43274735676E+00
 0.58802718948E-01 0.10897646863E-01 0.20797873611E-02 0.61733414254E-03 0.93959388665E-03
 0.19192220580E-02 0.33809191181E-02 0.45283016064E-02 0.45645627910E-02 0.34788938290E-02
 0.20941810561E-02 0.86619547063E-03 0.46901709404E-03 0.21621527652E-02 0.10881709298E-01
 0.58920973388E-01 0.28005709264E+00 0.11100591973E+01 0.32401156573E+01 0.59261927172E+01
 0.59261058379E+01 0.32399204970E+01 0.11101196091E+01 0.28004755496E+00 0.24588121236E-01
 0.45755988190E-02 0.73092747476E-03 0.32135397303E-03 0.25015794721E-03 0.57994280508E-03
 0.70598630966E-03 0.85933577384E-03 0.63939310249E-03 0.48730041227E-03 0.14013243006E-03
 0.36349295603E-03 0.86489916540E-03 0.45150350944E-02 0.24590696025E-01 0.12426886887E+00
 0.54212627934E+00 0.18601775622E+01 0.43517162701E+01 0.59261058379E+01 0.43515647504E+01
 0.18600243983E+01 0.54233757640E+00 0.12426543561E+00 0.80430344066E-02 0.14716572904E-02
 0.28490449959E-03 0.73860992419E-04 0.96886148641E-04 0.12183790473E-03 0.17400102934E-03
 0.20272156138E-03 0.19492894938E-03 0.15068643500E-03 0.17928292396E-03 0.23542999333E-03
 0.13769745995E-02 0.80217624045E-02 0.41227705405E-01 0.18487968550E+00 0.68394909514E+00
 0.18602317624E+01 0.32400073356E+01 0.32399204970E+01 0.18600243983E+01 0.68391579974E+00
 0.18487435437E+00 0.41207200199E-01 0.22795395722E-02 0.36496981310E-03 0.11887551264E-03
 -.10565625780E-04 0.56491236518E-04 -.37274469202E-05 0.53557664856E-04 -.38278544664E-04
 -.30070876539E-05 -.49646279361E-04 0.28940180621E-04 0.38986833178E-03 0.23865451693E-02
 0.10877461950E-01 0.49231313014E-01 0.18487584668E+00 0.54233343650E+00 0.11101275314E+01
 0.14307562930E+01 0.11101196091E+01 0.54233757640E+00 0.18487435437E+00 0.49222380310E-01
 0.10879287322E-01 0.49585068098E-03 0.11877306558E-03 0.96996105295E-05 0.14659538775E-04
 -.94370089671E-06 0.10217526403E-04 0.11705897698E-04 0.35088259990E-04 0.58726464545E-04
 0.44623195056E-04 0.19281792207E-03 0.50517621753E-03 0.24462983817E-02 0.10921222904E-01
 0.41165453150E-01 0.12420370221E+00 0.28018900868E+00 0.43277990012E+00 0.43274735676E+00
 0.28004755496E+00 0.12426543561E+00 0.41207200199E-01 0.10879287322E-01 0.25725785835E-02
 0.86974629416E-04 -.20531946388E-05 0.16438057183E-04 -.12577434754E-04 0.14343981063E-04
 -.13667395191E-04 0.23806287468E-04 -.20376013949E-04 0.30233220110E-04 0.81302478955E-04
 0.32417324228E-03 0.14903154537E-02 0.60344798947E-02 0.20884906370E-01 0.58661256562E-01
 0.12422377421E+00 0.18495680436E+00 0.18490324196E+00 0.12430895942E+00 0.58874331688E-01
 0.20753305124E-01 0.59997079709E-02 0.14843373109E-02 0.28620598884E-03 -.20531946476E-05
 0.11292108576E-04 -.73359215183E-05 0.74119631541E-05 -.70748562024E-05 0.72424762718E-05
 -.13667395177E-04 0.17886145663E-04 0.85443330224E-05 0.30860859787E-04 0.28041284990E-03
 0.95861461684E-03 0.33177884962E-02 0.94075270030E-02 0.20886695779E-01 0.34703256219E-01
 0.41262970514E-01 0.34713546257E-01 0.20771630752E-01 0.92834344714E-02 0.34893873217E-02
 0.95557840956E-03 0.25675083848E-03 0.84505384660E-04 0.16438057195E-04 -.73359215273E-05
 0.75955385961E-05 -.70064055086E-05 0.71999278512E-05 -.70748561556E-05 0.14343981123E-04
 -.14244716092E-04 0.12929882565E-04 0.76901069000E-04 0.13428258715E-03 0.59855356978E-03
 0.16176761765E-02 0.35466042632E-02 0.62688627375E-02 0.83636004096E-02 0.83826706656E-02
 0.62598514821E-02 0.36514458519E-02 0.16226747147E-02 0.47519089056E-03 0.21024126347E-03
 0.44362531105E-04 -.97660450931E-05 -.12577434737E-04 0.74119631417E-05 -.70064055197E-05
 0.67843884003E-05 -.70064055024E-05 0.74119631481E-05 -.12577434748E-04 0.21984261048E-04
 0.15047948045E-04 0.16655969828E-04 0.21953941023E-03 0.40545553255E-03 0.95380654234E-03
 0.19402708610E-02 0.29173491658E-02 0.33819768889E-02 0.29173491658E-02 0.19402708609E-02
 0.95380654232E-03 0.40545553258E-03 0.21953941023E-03 0.16655969827E-04 0.15047948091E-04
 0.21984261050E-04 0.14343981067E-04 -.70748561674E-05 0.71999278731E-05 -.70064055183E-05
 0.75955385976E-05 -.73359215267E-05 0.16438057174E-04 -.97660451035E-05 0.44362531124E-04
 0.21024126346E-03 0.47519089058E-03 0.16226747148E-02 0.36514458519E-02 0.62598514821E-02
 0.83826706657E-02 0.83636004096E-02 0.62688627375E-02 0.35466042632E-02 0.16176761765E-02
 0.59855356978E-03 0.13428258717E-03 0.76901069030E-04 0.12929882540E-04 -.14244716084E-04
 -.13667395243E-04 0.72424762687E-05 -.70748562014E-05 0.74119631313E-05 -.73359215092E-05
 0.11292108572E-04 -.20531946554E-05 0.84505384654E-04 0.25675083850E-03 0.95557840959E-03
 0.34893873217E-02 0.92834344714E-02 0.20771630752E-01 0.34713546257E-01 0.41262970514E-01
 0.34703256219E-01 0.20886695779E-01 0.94075270030E-02 0.33177884962E-02 0.95861461683E-03
 0.28041284994E-03 0.30860859771E-04 0.85443329933E-05 0.17886145668E-04 0.23806287455E-04
 -.13667395185E-04 0.14343981076E-04 -.12577434753E-04 0.16438057179E-04 -.20531946476E-05
 0.86974629395E-04 0.28620598884E-03 0.14843373109E-02 0.59997079709E-02 0.20753305124E-01
 0.58874331688E-01 0.12430895942E+00 0.18490324196E+00 0.18495680436E+00 0.12422377421E+00
 0.58661256562E-01 0.20884906370E-01 0.60344798946E-02 0.14903154537E-02 0.32417324230E-03
 0.81302478960E-04 0.30233220109E-04 -.20376013945E-04 -.20376013915E-04 0.17886145668E-04
 -.14244716076E-04 0.21984261032E-04 -.97660451234E-05 0.84505384650E-04 0.28620598880E-03
 0.17466522497E-02 0.80029072912E-02 0.34688995686E-01 0.12425110126E+00 0.34716903588E+00
 0.68383680741E+00 0.86828163316E+00 0.68388258181E+00 0.34744398161E+00 0.12420370221E+00
 0.34629820435E-01 0.80323353051E-02 0.16509054975E-02 0.32107665969E-03 0.34945777939E-04
 -.35391733508E-05 0.21992492499E-04 0.30233220152E-04 0.85443330166E-05 0.12929882552E-04
 0.15047948065E-04 0.44362531127E-04 0.25675083848E-03 0.14843373109E-02 0.80029072912E-02
 0.41235302630E-01 0.18487825497E+00 0.68394312268E+00 0.18602399935E+01 0.32400065496E+01
 0.32399215450E+01 0.18600351092E+01 0.68390481757E+00 0.18487584668E+00 0.41225412302E-01
 0.80469678585E-02 0.15070550627E-02 0.27509670946E-03 0.67101509853E-04 0.34032835216E-04
 -.35391733516E-05 0.81302478925E-04 0.30860859756E-04 0.76901069029E-04 0.16655969814E-04
 0.21024126345E-03 0.95557840957E-03 0.59997079709E-02 0.34688995686E-01 0.18487825497E+00
 0.86838005698E+00 0.32399678055E+01 0.81990583601E+01 0.11553380298E+02 0.81990582044E+01
 0.32399581830E+01 0.86839240411E+00 0.18487968550E+00 0.34670454826E-01 0.60075220100E-02
 0.90899249232E-03 0.19294724580E-03 -.21683660227E-04 0.67101509881E-04 0.34945777937E-04
 0.32417324226E-03 0.28041284991E-03 0.13428258713E-03 0.21953941022E-03 0.47519089061E-03
 0.34893873217E-02 0.20753305124E-01 0.12425110126E+00 0.68394312268E+00 0.32399678055E+01
 0.11553497833E+02 0.24553819276E+02 0.24553578678E+02 0.11553309943E+02 0.32401187258E+01
 0.68385742957E+00 0.12426886887E+00 0.20800973567E-01 0.34525600878E-02 0.54796177031E-03
 0.23601649781E-03 0.19294724579E-03 0.27509670946E-03 0.32107665970E-03 0.14903154537E-02
 0.95861461682E-03 0.59855356978E-03 0.40545553256E-03 0.16226747148E-02 0.92834344714E-02
 0.58874331688E-01 0.34716903588E+00 0.18602399935E+01 0.81990583601E+01 0.24553819276E+02
 0.37388095094E+02 0.24553734291E+02 0.81990555855E+01 0.18602940268E+01 0.34703768636E+00
 0.58920973388E-01 0.92063834371E-02 0.16843251288E-02 0.32876879350E-03 0.54796177030E-03
 0.90899249236E-03 0.15070550628E-02 0.16509054976E-02 0.60344798945E-02 0.33177884961E-02
 0.16176761765E-02 0.95380654233E-03 0.36514458519E-02 0.20771630752E-01 0.12430895942E+00
 0.68383680741E+00 0.32400065496E+01 0.11553380298E+02 0.24553578678E+02 0.24553734291E+02
 0.11553432381E+02 0.32400243269E+01 0.68377644882E+00 0.12424965421E+00 0.20791502939E-01
 0.36181069814E-02 0.91324305473E-03 0.16843251289E-02 0.34525600877E-02 0.60075220101E-02
 0.80469678586E-02 0.80323353052E-02 0.20884906370E-01 0.94075270029E-02 0.35466042632E-02
 0.19402708610E-02 0.62598514821E-02 0.34713546257E-01 0.18490324196E+00 0.86828163316E+00
 0.32399215450E+01 0.81990582044E+01 0.11553309943E+02 0.81990555855E+01 0.32400243269E+01
 0.86823280687E+00 0.18486778938E+00 0.34832335430E-01 0.62057367514E-02 0.19508507260E-02
 0.36181069815E-02 0.92063834371E-02 0.20800973567E-01 0.34670454826E-01 0.41225412302E-01
 0.34629820435E-01 0.58661256562E-01 0.20886695779E-01 0.62688627375E-02 0.29173491658E-02
 0.83826706656E-02 0.41262970514E-01 0.18495680436E+00 0.68388258181E+00 0.18600351092E+01
 0.32399581830E+01 0.32401187258E+01 0.18602940268E+01 0.68377644882E+00 0.18486778938E+00
 0.41382312294E-01 0.82612076962E-02 0.30224931549E-02 0.62057367514E-02 0.20791502939E-01
 0.58920973388E-01 0.12426886887E+00 0.18487968550E+00 0.18487584667E+00 0.12420370221E+00
 0.12422377421E+00 0.34703256219E-01 0.83636004097E-02 0.33819768889E-02 0.83636004096E-02
 0.34703256219E-01 0.12422377421E+00 0.34744398161E+00 0.68390481757E+00 0.86839240411E+00
 0.68385742957E+00 0.34703768636E+00 0.12424965421E+00 0.34832335430E-01 0.82612076962E-02
 0.35667561598E-02 0.82612076962E-02 0.34832335430E-01 0.12424965421E+00 0.34703768636E+00
 0.68385742957E+00 0.86839240411E+00 0.68390481757E+00 0.34744398161E+00 0.18495680436E+00
 0.41262970514E-01 0.83826706656E-02 0.29173491658E-02 0.62688627375E-02 0.20886695779E-01
 0.58661256562E-01 0.12420370221E+00 0.18487584667E+00 0.18487968550E+00 0.12426886887E+00
 0.58920973388E-01 0.20791502939E-01 0.62057367515E-02 0.30224931550E-02 0.82612076962E-02
 0.41382312294E-01 0.18486778938E+00 0.68377644882E+00 0.18602940268E+01 0.32401187258E+01
 0.32399581830E+01 0.18600351092E+01 0.68388258181E+00 0.18490324196E+00 0.34713546257E-01
 0.62598514821E-02 0.19402708609E-02 0.35466042632E-02 0.94075270030E-02 0.20884906370E-01
 0.34629820435E-01 0.41225412302E-01 0.34670454826E-01 0.20800973567E-01 0.92063834371E-02
 0.36181069813E-02 0.19508507260E-02 0.62057367514E-02 0.34832335430E-01 0.18486778938E+00
 0.86823280687E+00 0.32400243269E+01 0.81990555855E+01 0.11553309943E+02 0.81990582044E+01
 0.32399215450E+01 0.86828163316E+00 0.12430895942E+00 0.20771630752E-01 0.36514458519E-02
 0.95380654234E-03 0.16176761764E-02 0.33177884961E-02 0.60344798946E-02 0.80323353051E-02
 0.80469678585E-02 0.60075220101E-02 0.34525600877E-02 0.16843251289E-02 0.91324305480E-03
 0.36181069814E-02 0.20791502939E-01 0.12424965421E+00 0.68377644882E+00 0.32400243269E+01
 0.11553432381E+02 0.24553734291E+02 0.24553578678E+02 0.11553380298E+02 0.32400065496E+01
 0.68383680741E+00 0.58874331688E-01 0.92834344714E-02 0.16226747147E-02 0.40545553255E-03
 0.59855356978E-03 0.95861461683E-03 0.14903154536E-02 0.16509054976E-02 0.15070550628E-02
 0.90899249238E-03 0.54796177033E-03 0.32876879348E-03 0.16843251288E-02 0.92063834371E-02
 0.58920973388E-01 0.34703768636E+00 0.18602940268E+01 0.81990555855E+01 0.24553734291E+02
 0.37388095094E+02 0.24553819276E+02 0.81990583601E+01 0.18602399935E+01 0.34716903588E+00
 0.20753305124E-01 0.34893873217E-02 0.47519089059E-03 0.21953941022E-03 0.13428258709E-03
 0.28041284990E-03 0.32417324226E-03 0.32107665970E-03 0.27509670948E-03 0.19294724578E-03
 0.23601649781E-03 0.54796177035E-03 0.34525600876E-02 0.20800973567E-01 0.12426886887E+00
 0.68385742957E+00 0.32401187258E+01 0.11553309943E+02 0.24553578678E+02 0.24553819276E+02
 0.11553497833E+02 0.32399678055E+01 0.68394312268E+00 0.12425110126E+00 0.59997079709E-02
 0.95557840958E-03 0.21024126347E-03 0.16655969827E-04 0.76901069063E-04 0.30860859739E-04
 0.81302478877E-04 0.34945777955E-04 0.67101509862E-04 -.21683660228E-04 0.19294724580E-03
 0.90899249236E-03 0.60075220100E-02 0.34670454826E-01 0.18487968550E+00 0.86839240411E+00
 0.32399581830E+01 0.81990582044E+01 0.11553380298E+02 0.81990583601E+01 0.32399678055E+01
 0.86838005698E+00 0.18487825497E+00 0.34688995686E-01 0.14843373108E-02 0.25675083849E-03
 0.44362531075E-04 0.15047948059E-04 0.12929882551E-04 0.85443330056E-05 0.30233220111E-04
 -.35391733511E-05 0.34032835224E-04 0.67101509824E-04 0.27509670948E-03 0.15070550628E-02
 0.80469678586E-02 0.41225412302E-01 0.18487584667E+00 0.68390481757E+00 0.18600351092E+01
 0.32399215450E+01 0.32400065496E+01 0.18602399935E+01 0.68394312268E+00 0.18487825497E+00
 0.41235302630E-01 0.80029072912E-02 0.28620598877E-03 0.84505384652E-04 -.97660451291E-05
 0.21984261025E-04 -.14244716071E-04 0.17886145663E-04 -.20376013922E-04 0.21992492494E-04
 -.35391733606E-05 0.34945777942E-04 0.32107665973E-03 0.16509054976E-02 0.80323353051E-02
 0.34629820435E-01 0.12420370221E+00 0.34744398161E+00 0.68388258181E+00 0.86828163316E+00
 0.68383680741E+00 0.34716903588E+00 0.12425110126E+00 0.34688995686E-01 0.80029072912E-02
 0.17466522497E-02 0.10843862369E-04 0.14447399865E-04 -.57120767139E-05 0.60194075657E-05
 -.41807125914E-05 0.28116313342E-05 0.20700685205E-05 0.11705897759E-04 0.53557664958E-04
 0.17400102938E-03 0.70598630967E-03 0.33809191181E-02 0.12879461287E-01 0.41173861272E-01
 0.10244338100E+00 0.18495680436E+00 0.22697553777E+00 0.18494784200E+00 0.10268953599E+00
 0.41243590240E-01 0.12589554963E-01 0.34613472707E-02 0.69558818606E-03 0.17183528862E-03
 0.14447399839E-04 0.32708022593E-05 -.29469517353E-05 0.40566333214E-05 -.48384826150E-05
 0.70004412774E-05 -.93769969108E-05 0.10217526416E-04 -.37274469137E-05 0.12183790473E-03
 0.57994280510E-03 0.19192220580E-02 0.59511035419E-02 0.15054250023E-01 0.29215043008E-01
 0.41262970514E-01 0.41293423791E-01 0.29190685336E-01 0.14800200830E-01 0.60386655997E-02
 0.20972908419E-02 0.46704093393E-03 0.18079521227E-03 0.32139780072E-04 -.57120767498E-05
 -.29469517432E-05 0.42781269536E-05 -.49388387317E-05 0.59660085161E-05 -.75848917457E-05
 0.13395413570E-04 -.94370091462E-06 0.56491236515E-04 0.96886148632E-04 0.25015794721E-03
 0.93959388661E-03 0.23814651687E-02 0.47233342468E-02 0.72445808527E-02 0.83826706657E-02
 0.72168677480E-02 0.47678154712E-02 0.25401707335E-02 0.85759239992E-03 0.18879004779E-03
 0.12416311230E-03 -.24255042530E-04 -.34453838718E-05 0.60194075323E-05 0.40566333213E-05
 -.49388387370E-05 0.56523189077E-05 -.65227162259E-05 0.89543575063E-05 -.11969148854E-04
 0.14659538786E-04 -.10565625769E-04 0.73860992433E-04 0.32135397304E-03 0.61733414253E-03
 0.12704988535E-02 0.21945117890E-02 0.29181199352E-02 0.29173491658E-02 0.22328527284E-02
 0.12634909405E-02 0.48241330756E-03 0.30791848036E-03 0.18240601458E-03 0.71232866844E-05
 0.50301624359E-04 0.15057869087E-04 -.41807125930E-05 -.48384826274E-05 0.59660085044E-05
 -.65227162370E-05 0.79089137193E-05 -.87372574309E-05 0.20545896628E-04 0.96996105311E-05
 0.11887551267E-03 0.28490449962E-03 0.73092747478E-03 0.20797873611E-02 0.41457765990E-02
 0.62936364700E-02 0.72445808527E-02 0.62688627375E-02 0.40712380517E-02 0.20848451439E-02
 0.94804334847E-03 0.23531896374E-03 -.79054590160E-05 0.24726182657E-04 -.37143224603E-04
 -.17049250942E-04 0.28116312978E-05 0.70004412858E-05 -.75848917347E-05 0.89543575123E-05
 -.87372574392E-05 0.17358943072E-04 0.37761205712E-05 0.11877306558E-03 0.36496981312E-03
 0.14716572905E-02 0.45755988190E-02 0.10897646863E-01 0.20816321310E-01 0.29191604861E-01
 0.29215043008E-01 0.20886695779E-01 0.10989616793E-01 0.44413201623E-02 0.13538214279E-02
 0.43718922563E-03 0.18357658314E-03 0.31864123782E-04 0.45906558925E-04 0.25054802436E-04
 0.20700685130E-05 -.93769969248E-05 0.13395413575E-04 -.11969148789E-04 0.20545896677E-04
 0.37761205488E-05 0.14278060105E-03 0.49585068104E-03 0.22795395723E-02 0.80430344067E-02
 0.24588121236E-01 0.58802718948E-01 0.10251782876E+00 0.12425996507E+00 0.10244338100E+00
 0.58661256562E-01 0.24672821978E-01 0.80954677097E-02 0.23243431670E-02 0.51545103205E-03
 0.35797022440E-04 0.18928710560E-05 -.35798372499E-04 -.29669868998E-04 0.11705897738E-04
 0.10217526407E-04 -.94370089803E-06 0.14659538777E-04 0.96996105010E-05 0.11877306559E-03
 0.49585068099E-03 0.25725785835E-02 0.10879287322E-01 0.41207200199E-01 0.12426543561E+00
 0.28004755496E+00 0.43274735676E+00 0.43277990012E+00 0.28018900868E+00 0.12420370221E+00
 0.41165453150E-01 0.10921222904E-01 0.24462983816E-02 0.50517621750E-03 0.19281792209E-03
 0.44623195064E-04 0.58726464542E-04 0.35088259997E-04 0.53557664927E-04 -.37274469215E-05
 0.56491236506E-04 -.10565625766E-04 0.11887551266E-03 0.36496981311E-03 0.22795395722E-02
 0.10879287322E-01 0.49222380310E-01 0.18487435437E+00 0.54233757640E+00 0.11101196091E+01
 0.14307562930E+01 0.11101275314E+01 0.54233343650E+00 0.18487584668E+00 0.49231313014E-01
 0.10877461950E-01 0.23865451693E-02 0.38986833174E-03 0.28940180634E-04 -.49646279348E-04
 -.30070876587E-05 -.38278544664E-04 0.17400102941E-03 0.12183790473E-03 0.96886148652E-04
 0.73860992437E-04 0.28490449960E-03 0.14716572905E-02 0.80430344066E-02 0.41207200199E-01
 0.18487435437E+00 0.68391579974E+00 0.18600243983E+01 0.32399204970E+01 0.32400073356E+01
 0.18602317624E+01 0.68394909514E+00 0.18487968550E+00 0.41227705405E-01 0.80217624045E-02
 0.13769745995E-02 0.23542999330E-03 0.17928292395E-03 0.15068643501E-03 0.19492894938E-03
 0.20272156138E-03 0.70598630968E-03 0.57994280508E-03 0.25015794725E-03 0.32135397305E-03
 0.73092747474E-03 0.45755988190E-02 0.24588121236E-01 0.12426543561E+00 0.54233757640E+00
 0.18600243983E+01 0.43515647504E+01 0.59261058379E+01 0.43517162701E+01 0.18601775622E+01
 0.54212627934E+00 0.12426886887E+00 0.24590696025E-01 0.45150350944E-02 0.86489916537E-03
 0.36349295602E-03 0.14013243005E-03 0.48730041227E-03 0.63939310247E-03 0.85933577385E-03
 0.33809191181E-02 0.19192220580E-02 0.93959388660E-03 0.61733414256E-03 0.20797873612E-02
 0.10897646863E-01 0.58802718948E-01 0.28004755496E+00 0.11101196091E+01 0.32399204970E+01
 0.59261058379E+01 0.59261927172E+01 0.32401156573E+01 0.11100591973E+01 0.28005709264E+00
 0.58920973388E-01 0.10881709298E-01 0.21621527652E-02 0.46901709394E-03 0.86619547065E-03
 0.20941810561E-02 0.34788938290E-02 0.45645627910E-02 0.45283016064E-02 0.12879461287E-01
 0.59511035419E-02 0.23814651687E-02 0.12704988535E-02 0.41457765990E-02 0.20816321309E-01
 0.10251782876E+00 0.43274735676E+00 0.14307562930E+01 0.32400073356E+01 0.43517162701E+01
 0.32401156573E+01 0.14307005147E+01 0.43261965575E+00 0.10262952109E+00 0.20791502939E-01
 0.41608111491E-02 0.12234178364E-02 0.25818900288E-02 0.59881659825E-02 0.12634445817E-01
 0.20705111629E-01 0.24627184304E-01 0.20757364674E-01 0.41173861272E-01 0.15054250023E-01
 0.47233342468E-02 0.21945117889E-02 0.62936364701E-02 0.29191604861E-01 0.12425996507E+00
 0.43277990012E+00 0.11101275314E+01 0.18602317624E+01 0.18601775622E+01 0.11100591973E+01
 0.43261965575E+00 0.12437715989E+00 0.29269836064E-01 0.62057367514E-02 0.22903725080E-02
 0.47397274348E-02 0.14857590914E-01 0.41251127343E-01 0.85012018992E-01 0.12423610848E+00
 0.12428304327E+00 0.84767321710E-01 0.10244338100E+00 0.29215043008E-01 0.72445808527E-02
 0.29181199353E-02 0.72445808527E-02 0.29215043008E-01 0.10244338100E+00 0.28018900868E+00
 0.54233343650E+00 0.68394909514E+00 0.54212627934E+00 0.28005709264E+00 0.10262952109E+00
 0.29269836064E-01 0.70806648405E-02 0.30224931549E-02 0.70806648405E-02 0.29269836064E-01
 0.10262952109E+00 0.28005709264E+00 0.54212627934E+00 0.68394909514E+00 0.54233343650E+00
 0.28018900868E+00 0.18495680436E+00 0.41262970514E-01 0.83826706657E-02 0.29173491658E-02
 0.62688627375E-02 0.20886695779E-01 0.58661256562E-01 0.12420370221E+00 0.18487584667E+00
 0.18487968550E+00 0.12426886887E+00 0.58920973388E-01 0.20791502939E-01 0.62057367515E-02
 0.30224931549E-02 0.82612076962E-02 0.41382312294E-01 0.18486778938E+00 0.68377644882E+00
 0.18602940268E+01 0.32401187258E+01 0.32399581830E+01 0.18600351092E+01 0.68388258181E+00
 0.22697553777E+00 0.41293423791E-01 0.72168677479E-02 0.22328527285E-02 0.40712380517E-02
 0.10989616793E-01 0.24672821978E-01 0.41165453150E-01 0.49231313014E-01 0.41227705405E-01
 0.24590696025E-01 0.10881709298E-01 0.41608111489E-02 0.22903725080E-02 0.70806648406E-02
 0.41382312294E-01 0.22680316172E+00 0.11102919261E+01 0.43517442584E+01 0.11553406239E+02
 0.16630423039E+02 0.11553499573E+02 0.43515644254E+01 0.11102262708E+01 0.18494784200E+00
 0.29190685336E-01 0.47678154711E-02 0.12634909405E-02 0.20848451439E-02 0.44413201623E-02
 0.80954677097E-02 0.10921222904E-01 0.10877461950E-01 0.80217624045E-02 0.45150350944E-02
 0.21621527652E-02 0.12234178364E-02 0.47397274348E-02 0.29269836064E-01 0.18486778938E+00
 0.11102919261E+01 0.59261917196E+01 0.24553541743E+02 0.59206792694E+02 0.59206943417E+02
 0.24553819569E+02 0.59261051484E+01 0.11102518215E+01 0.10268953599E+00 0.14800200831E-01
 0.25401707334E-02 0.48241330762E-03 0.94804334852E-03 0.13538214279E-02 0.23243431669E-02
 0.24462983817E-02 0.23865451693E-02 0.13769745997E-02 0.86489916537E-03 0.46901709397E-03
 0.25818900287E-02 0.14857590913E-01 0.10262952109E+00 0.68377644882E+00 0.43517442584E+01
 0.24553541743E+02 0.98768897512E+02 0.17741548004E+03 0.98768795029E+02 0.24553577772E+02
 0.43517195510E+01 0.68376228541E+00 0.41243590240E-01 0.60386655997E-02 0.85759239989E-03
 0.30791848031E-03 0.23531896371E-03 0.43718922564E-03 0.51545103204E-03 0.50517621753E-03
 0.38986833175E-03 0.23542999328E-03 0.36349295598E-03 0.86619547064E-03 0.59881659825E-02
 0.41251127343E-01 0.28005709264E+00 0.18602940268E+01 0.11553406239E+02 0.59206792694E+02
 0.17741548004E+03 0.17741558423E+03 0.59206942586E+02 0.11553310958E+02 0.18601686743E+01
 0.28002450864E+00 0.12589554963E-01 0.20972908420E-02 0.18879004780E-03 0.18240601456E-03
 -.79054590364E-05 0.18357658317E-03 0.35797022445E-04 0.19281792210E-03 0.28940180623E-04
 0.17928292393E-03 0.14013243003E-03 0.20941810561E-02 0.12634445817E-01 0.85012018992E-01
 0.54212627934E+00 0.32401187258E+01 0.16630423039E+02 0.59206943417E+02 0.98768795029E+02
 0.59206942586E+02 0.16630426214E+02 0.32401083550E+01 0.54213640063E+00 0.84999653087E-01
 0.34613472707E-02 0.46704093395E-03 0.12416311228E-03 0.71232866940E-05 0.24726182629E-04
 0.31864123787E-04 0.18928710344E-05 0.44623195094E-04 -.49646279367E-04 0.15068643495E-03
 0.48730041227E-03 0.34788938290E-02 0.20705111629E-01 0.12423610848E+00 0.68394909514E+00
 0.32399581830E+01 0.11553499573E+02 0.24553819569E+02 0.24553577772E+02 0.11553310958E+02
 0.32401083550E+01 0.68387276022E+00 0.12426939892E+00 0.20781278382E-01 0.69558818604E-03
 0.18079521226E-03 -.24255042542E-04 0.50301624312E-04 -.37143224595E-04 0.45906558931E-04
 -.35798372488E-04 0.58726464520E-04 -.30070876460E-05 0.19492894938E-03 0.63939310245E-03
 0.45645627910E-02 0.24627184304E-01 0.12428304327E+00 0.54233343650E+00 0.18600351092E+01
 0.43515644254E+01 0.59261051484E+01 0.43517195510E+01 0.18601686743E+01 0.54213640063E+00
 0.12426939892E+00 0.24581784577E-01 0.45299370870E-02 0.17183528865E-03 0.32139780058E-04
 -.34453838713E-05 0.15057869080E-04 -.17049250937E-04 0.25054802412E-04 -.29669869057E-04
 0.35088259977E-04 -.38278544659E-04 0.20272156139E-03 0.85933577386E-03 0.45283016063E-02
 0.20757364674E-01 0.84767321710E-01 0.28018900868E+00 0.68388258181E+00 0.11102262708E+01
 0.11102518215E+01 0.68376228541E+00 0.28002450864E+00 0.84999653087E-01 0.20781278382E-01
 0.45299370870E-02 0.86137184906E-03 -.13786585025E-04 0.20423744958E-04 -.15092488246E-04
 0.13875179905E-04 -.12408234794E-04 0.12174293674E-04 -.98565296079E-05 0.13775877285E-04
 0.49987086487E-04 0.32720773423E-03 0.14292854241E-02 0.60262482733E-02 0.20885637083E-01
 0.58685514016E-01 0.12425996507E+00 0.18490324196E+00 0.18494784200E+00 0.12443930992E+00
 0.58883479470E-01 0.20592074411E-01 0.60205302344E-02 0.15650440555E-02 0.29400226222E-03
 0.12069532591E-03 0.20423744914E-04 -.96678940531E-05 0.79091350021E-05 -.57165738045E-05
 0.41857312958E-05 -.19805721805E-05 0.42585599169E-05 0.21551890415E-04 0.54829840173E-04
 0.23686196842E-03 0.90344488883E-03 0.29028852897E-02 0.80682623575E-02 0.17709431349E-01
 0.29191604861E-01 0.34713546257E-01 0.29190685336E-01 0.17455532955E-01 0.79990969458E-02
 0.31957448145E-02 0.80770330116E-03 0.16603773970E-03 0.64049294257E-04 -.30714294695E-04
 -.15092488181E-04 0.79091350142E-05 -.59197592348E-05 0.41874490063E-05 -.25543085975E-05
 0.15278575209E-05 0.16700615853E-05 -.17846444788E-05 0.38277949534E-04 0.12915973662E-03
 0.40454850757E-03 0.12118458691E-02 0.26964967367E-02 0.47111176728E-02 0.62936364700E-02
 0.62598514821E-02 0.47678154711E-02 0.29050654197E-02 0.12012649331E-02 0.22411897612E-03
 0.19323787635E-03 0.88094642655E-04 0.61001387394E-05 0.38387992528E-04 0.13875179893E-04
 -.57165737766E-05 0.41874489929E-05 -.25015312440E-05 0.12506600441E-05 0.11797905129E-05
 0.15143413662E-05 0.23487308133E-04 0.34139301424E-04 0.12526826512E-03 0.36144345839E-03
 0.70857450692E-03 0.13010553765E-02 0.19368080561E-02 0.21945117890E-02 0.19402708610E-02
 0.12634909405E-02 0.54345798090E-03 0.32867744649E-03 0.29782267792E-03 -.23556930524E-05
 -.34363958157E-04 0.15292919892E-05 -.30967841684E-04 -.12408234791E-04 0.41857313719E-05
 -.25543085512E-05 0.12506600661E-05 0.79834355378E-06 -.24866069109E-06 0.10812858446E-04
 0.15636904162E-04 0.11679782835E-03 0.33688210706E-03 0.86949185344E-03 0.20513809544E-02
 0.35772029362E-02 0.47111176728E-02 0.47233342468E-02 0.35466042632E-02 0.20848451440E-02
 0.10742424265E-02 0.33818238115E-03 -.52066096982E-04 0.54838610202E-04 0.49821003697E-04
 0.59758868114E-05 0.28510579593E-04 0.12174293648E-04 -.19805721613E-05 0.15278575319E-05
 0.11797904996E-05 -.24866068677E-06 0.12084517492E-04 0.29476482722E-04 0.16235521607E-03
 0.51567003723E-03 0.17010372739E-02 0.45463484557E-02 0.93852576297E-02 0.15021550040E-01
 0.17709431349E-01 0.15054250023E-01 0.94075270030E-02 0.44413201623E-02 0.15540266768E-02
 0.52889942190E-03 0.29653096174E-03 0.25719796578E-04 -.32242228307E-04 -.46700421807E-05
 -.24381267123E-04 -.98565295677E-05 0.42585599846E-05 0.16700616083E-05 0.15143413673E-05
 0.10812858453E-04 0.29476482700E-04 0.16773660200E-03 0.65209219506E-03 0.25565733893E-02
 0.80487266371E-02 0.20808932885E-01 0.41191414531E-01 0.58718463520E-01 0.58685514016E-01
 0.41173861272E-01 0.20884906370E-01 0.80954677097E-02 0.26607416452E-02 0.68091069240E-03
 0.11511274381E-04 0.28533738954E-04 0.47974207541E-04 0.10667380632E-04 0.25643319534E-04
 0.13775877306E-04 0.21551890413E-04 -.17846444730E-05 0.23487308128E-04 0.15636904144E-04
 0.16235521609E-03 0.65209219506E-03 0.29554073281E-02 0.10929538398E-01 0.34654210512E-01
 0.84786649809E-01 0.15125558072E+00 0.18492878087E+00 0.15124392614E+00 0.84767321710E-01
 0.34629820435E-01 0.10921222904E-01 0.28345142822E-02 0.63402301393E-03 0.31444760030E-03
 0.36270209496E-04 -.15630840169E-04 -.14260382982E-04 0.16101939597E-05 0.49987086453E-04
 0.54829840185E-04 0.38277949528E-04 0.34139301434E-04 0.11679782831E-03 0.51567003723E-03
 0.25565733893E-02 0.10929538398E-01 0.41179826611E-01 0.12420323074E+00 0.28018958807E+00
 0.43278271663E+00 0.43275064576E+00 0.28005253029E+00 0.12428304327E+00 0.41225412302E-01
 0.10877461950E-01 0.26917189723E-02 0.52871708585E-03 -.37003275178E-04 -.84584969538E-05
 0.85592284131E-04 0.65466758028E-04 0.89551730239E-04 0.32720773425E-03 0.23686196844E-03
 0.12915973664E-03 0.12526826515E-03 0.33688210705E-03 0.17010372739E-02 0.80487266370E-02
 0.34654210512E-01 0.12420323074E+00 0.34743606129E+00 0.68388811730E+00 0.86828349284E+00
 0.68382871615E+00 0.34716192151E+00 0.12423610848E+00 0.34670454826E-01 0.80217624045E-02
 0.16287329071E-02 0.27246630592E-03 0.32139419508E-03 0.17123795432E-03 0.19506092241E-03
 0.28105166757E-03 0.35371731051E-03 0.14292854241E-02 0.90344488883E-03 0.40454850758E-03
 0.36144345839E-03 0.86949185343E-03 0.45463484556E-02 0.20808932885E-01 0.84786649809E-01
 0.28018958807E+00 0.68388811730E+00 0.11102267528E+01 0.11102440158E+01 0.68376764404E+00
 0.28002597178E+00 0.85012018992E-01 0.20800973567E-01 0.45150350944E-02 0.10496723919E-02
 0.37422212603E-03 0.22668749440E-03 0.80249885660E-03 0.15557821996E-02 0.19625395556E-02
 0.19734509939E-02 0.60262482733E-02 0.29028852897E-02 0.12118458690E-02 0.70857450694E-03
 0.20513809544E-02 0.93852576297E-02 0.41191414531E-01 0.15125558072E+00 0.43278271663E+00
 0.86828349284E+00 0.11102440158E+01 0.86803774267E+00 0.43258073062E+00 0.15138262612E+00
 0.41251127343E-01 0.92063834371E-02 0.21621527652E-02 0.46993775633E-03 0.12203447248E-02
 0.31536348740E-02 0.60583466726E-02 0.92247206038E-02 0.10898778724E-01 0.93303272329E-02
 0.20885637082E-01 0.80682623574E-02 0.26964967366E-02 0.13010553766E-02 0.35772029360E-02
 0.15021550040E-01 0.58718463519E-01 0.18492878087E+00 0.43275064576E+00 0.68382871615E+00
 0.68376764404E+00 0.43258073062E+00 0.18510015173E+00 0.58825532097E-01 0.14857590914E-01
 0.36181069814E-02 0.12234178364E-02 0.28711220797E-02 0.80337904309E-02 0.20589710759E-01
 0.41245178273E-01 0.58858507823E-01 0.58809093208E-01 0.41173237313E-01 0.58685514016E-01
 0.17709431349E-01 0.47111176728E-02 0.19368080561E-02 0.47111176728E-02 0.17709431349E-01
 0.58685514016E-01 0.15124392614E+00 0.28005253029E+00 0.34716192151E+00 0.28002597178E+00
 0.15138262612E+00 0.58825532097E-01 0.17487811394E-01 0.47397274347E-02 0.19508507260E-02
 0.47397274348E-02 0.17487811394E-01 0.58825532097E-01 0.15138262612E+00 0.28002597178E+00
 0.34716192151E+00 0.28005253029E+00 0.15124392614E+00 0.12425996507E+00 0.29191604861E-01
 0.62936364700E-02 0.21945117889E-02 0.47233342468E-02 0.15054250023E-01 0.41173861272E-01
 0.84767321710E-01 0.12428304327E+00 0.12423610848E+00 0.85012018992E-01 0.41251127343E-01
 0.14857590914E-01 0.47397274347E-02 0.22903725080E-02 0.62057367515E-02 0.29269836064E-01
 0.12437715989E+00 0.43261965575E+00 0.11100591973E+01 0.18601775622E+01 0.18602317624E+01
 0.11101275314E+01 0.43277990012E+00 0.18490324196E+00 0.34713546257E-01 0.62598514821E-02
 0.19402708609E-02 0.35466042632E-02 0.94075270029E-02 0.20884906370E-01 0.34629820435E-01
 0.41225412302E-01 0.34670454826E-01 0.20800973567E-01 0.92063834371E-02 0.36181069814E-02
 0.19508507260E-02 0.62057367514E-02 0.34832335430E-01 0.18486778938E+00 0.86823280687E+00
 0.32400243269E+01 0.81990555855E+01 0.11553309943E+02 0.81990582044E+01 0.32399215450E+01
 0.86828163316E+00 0.18494784200E+00 0.29190685336E-01 0.47678154711E-02 0.12634909405E-02
 0.20848451440E-02 0.44413201623E-02 0.80954677097E-02 0.10921222904E-01 0.10877461950E-01
 0.80217624045E-02 0.45150350944E-02 0.21621527652E-02 0.12234178363E-02 0.47397274348E-02
 0.29269836064E-01 0.18486778938E+00 0.11102919261E+01 0.59261917196E+01 0.24553541743E+02
 0.59206792694E+02 0.59206943417E+02 0.24553819569E+02 0.59261051484E+01 0.11102518215E+01
 0.12443930992E+00 0.17455532955E-01 0.29050654197E-02 0.54345798091E-03 0.10742424266E-02
 0.15540266768E-02 0.26607416453E-02 0.28345142822E-02 0.26917189722E-02 0.16287329071E-02
 0.10496723919E-02 0.46993775633E-03 0.28711220798E-02 0.17487811394E-01 0.12437715989E+00
 0.86823280687E+00 0.59261917196E+01 0.37388139550E+02 0.17741567717E+03 0.35813729507E+03
 0.17741558612E+03 0.37388092677E+02 0.59261971491E+01 0.86803277173E+00 0.58883479470E-01
 0.79990969458E-02 0.12012649330E-02 0.32867744640E-03 0.33818238115E-03 0.52889942195E-03
 0.68091069229E-03 0.63402301385E-03 0.52871708590E-03 0.27246630588E-03 0.37422212615E-03
 0.12203447249E-02 0.80337904310E-02 0.58825532097E-01 0.43261965575E+00 0.32400243269E+01
 0.24553541743E+02 0.17741567717E+03 0.90780603711E+03 0.90780598717E+03 0.17741547760E+03
 0.24553737549E+02 0.32401108265E+01 0.43259225179E+00 0.20592074411E-01 0.31957448145E-02
 0.22411897608E-03 0.29782267790E-03 -.52066096988E-04 0.29653096175E-03 0.11511274332E-04
 0.31444760030E-03 -.37003275190E-04 0.32139419506E-03 0.22668749438E-03 0.31536348740E-02
 0.20589710759E-01 0.15138262612E+00 0.11100591973E+01 0.81990555855E+01 0.59206792694E+02
 0.35813729507E+03 0.90780598717E+03 0.35813729483E+03 0.59206795710E+02 0.81990526783E+01
 0.11100704387E+01 0.15138290644E+00 0.60205302345E-02 0.80770330117E-03 0.19323787631E-03
 -.23556930255E-05 0.54838610182E-04 0.25719796589E-04 0.28533739010E-04 0.36270209530E-04
 -.84584969657E-05 0.17123795428E-03 0.80249885657E-03 0.60583466726E-02 0.41245178273E-01
 0.28002597178E+00 0.18601775622E+01 0.11553309943E+02 0.59206943417E+02 0.17741558612E+03
 0.17741547760E+03 0.59206795710E+02 0.11553400639E+02 0.18603055054E+01 0.28004134095E+00
 0.41256749165E-01 0.15650440555E-02 0.16603773972E-03 0.88094642631E-04 -.34363958177E-04
 0.49821003686E-04 -.32242228308E-04 0.47974207544E-04 -.15630840181E-04 0.85592284148E-04
 0.19506092244E-03 0.15557821997E-02 0.92247206038E-02 0.58858507823E-01 0.34716192151E+00
 0.18602317624E+01 0.81990582044E+01 0.24553819569E+02 0.37388092677E+02 0.24553737549E+02
 0.81990526783E+01 0.18603055054E+01 0.34701683666E+00 0.58912923481E-01 0.91967634463E-02
 0.29400226222E-03 0.64049294214E-04 0.61001387187E-05 0.15292919866E-05 0.59758868085E-05
 -.46700422043E-05 0.10667380630E-04 -.14260383013E-04 0.65466758038E-04 0.28105166759E-03
 0.19625395555E-02 0.10898778724E-01 0.58809093208E-01 0.28005253029E+00 0.11101275314E+01
 0.32399215450E+01 0.59261051484E+01 0.59261971491E+01 0.32401108265E+01 0.11100704387E+01
 0.28004134095E+00 0.58912923481E-01 0.10855842679E-01 0.20134699420E-02 0.12069532585E-03
 -.30714294709E-04 0.38387992537E-04 -.30967841687E-04 0.28510579595E-04 -.24381267136E-04
 0.25643319556E-04 0.16101939780E-05 0.89551730259E-04 0.35371731052E-03 0.19734509939E-02
 0.93303272329E-02 0.41173237313E-01 0.15124392614E+00 0.43277990012E+00 0.86828163316E+00
 0.11102518215E+01 0.86803277173E+00 0.43259225179E+00 0.15138290644E+00 0.41256749165E-01
 0.91967634463E-02 0.20134699420E-02 0.26813823151E-03 0.18445448244E-04 -.72490653108E-05
 0.54050712798E-05 -.33445360202E-05 0.21917042851E-05 -.98329470779E-07 0.57023199259E-05
 0.26300337520E-04 0.11769478497E-03 0.54230316828E-03 0.21938053859E-02 0.80699131406E-02
 0.24645215971E-01 0.58718463519E-01 0.10251782876E+00 0.12430895942E+00 0.10268953599E+00
 0.58883479470E-01 0.24427294128E-01 0.80194300862E-02 0.24100418340E-02 0.45659201040E-03
 0.17390220358E-03 0.15885424960E-04 -.72490652907E-05 0.38619143281E-05 -.17637789395E-05
 0.82323261287E-06 0.70531893816E-07 0.48661134416E-06 0.33884935805E-05 0.15849832010E-04
 0.78462299851E-04 0.30859519204E-03 0.11458147442E-02 0.33727971397E-02 0.81060700076E-02
 0.15021550040E-01 0.20816321309E-01 0.20771630752E-01 0.14800200831E-01 0.79990969458E-02
 0.36372116118E-02 0.11059814161E-02 0.17704320044E-03 0.12154653982E-03 -.30915433888E-04
 0.24351353319E-05 0.54050712228E-05 -.17637788871E-05 0.32850178846E-06 0.45436289442E-06
 -.70055730482E-06 0.19045680540E-05 0.34390924091E-05 0.17086320622E-04 0.54252274850E-04
 0.18979049824E-03 0.48246665827E-03 0.11840959329E-02 0.23094301023E-02 0.35772029360E-02
 0.41457765989E-02 0.36514458519E-02 0.25401707334E-02 0.12012649331E-02 0.27080633261E-03
 0.21386507678E-03 0.17527349298E-03 -.69303157367E-05 0.48910306373E-04 0.71422222671E-05
 -.33445360345E-05 0.82323259337E-06 0.45436288800E-06 -.84684431309E-06 0.14475972402E-05
 -.32120722529E-06 0.38442534381E-05 0.11170186603E-04 0.43697654664E-04 0.11186783277E-03
 0.33355830752E-03 0.65617894025E-03 0.10608000491E-02 0.13010553766E-02 0.12704988535E-02
 0.95380654237E-03 0.48241330762E-03 0.32867744639E-03 0.32038011502E-03 0.85195482837E-05
 -.98723653368E-04 0.10873914835E-04 -.42905300380E-04 -.96839579059E-05 0.21917042087E-05
 0.70531897870E-07 -.70055727021E-06 0.14475972432E-05 -.65083330341E-06 0.39525956140E-05
 0.10550967702E-04 0.40089731965E-04 0.12457488288E-03 0.36597802586E-03 0.79603695703E-03
 0.15374175930E-02 0.23094301024E-02 0.26964967366E-02 0.23814651687E-02 0.16176761765E-02
 0.94804334854E-03 0.33818238113E-03 -.46564863014E-04 0.66084939693E-04 0.11894753922E-03
 0.73091426786E-05 0.44760328919E-04 0.13379293803E-04 -.98329450316E-07 0.48661136308E-06
 0.19045680314E-05 -.32120721693E-06 0.39525956052E-05 0.94327483135E-05 0.42674753086E-04
 0.15952031651E-03 0.52700702509E-03 0.14535114328E-02 0.33873380581E-02 0.60164547857E-02
 0.81060700076E-02 0.80682623574E-02 0.59511035419E-02 0.33177884961E-02 0.13538214279E-02
 0.52889942197E-03 0.31967512132E-03 0.24904401662E-04 -.98100390067E-04 -.13125082166E-04
 -.45027404522E-04 -.15493307784E-04 0.57023199043E-05 0.33884936342E-05 0.34390924484E-05
 0.38442534436E-05 0.10550967695E-04 0.42674753078E-04 0.18186671728E-03 0.67410738345E-03
 0.22104239462E-02 0.60081874852E-02 0.12828269167E-01 0.20866523469E-01 0.24645215971E-01
 0.20885637082E-01 0.12879461287E-01 0.60344798946E-02 0.23243431669E-02 0.68091069232E-03
 0.27432174420E-04 0.49478061969E-04 0.12447018847E-03 0.30136662784E-04 0.54631212511E-04
 0.22502107428E-04 0.26300337464E-04 0.15849831976E-04 0.17086320670E-04 0.11170186624E-04
 0.40089731996E-04 0.15952031651E-03 0.67410738343E-03 0.25335373671E-02 0.80718045844E-02
 0.20853402014E-01 0.41143466357E-01 0.58668696328E-01 0.58706269924E-01 0.41173237313E-01
 0.20757364674E-01 0.80323353052E-02 0.24462983817E-02 0.63402301389E-03 0.32853464224E-03
 0.31733527005E-04 -.10115827757E-03 -.32782501840E-04 -.33773456104E-04 -.43320988807E-05
 0.11769478493E-03 0.78462299832E-04 0.54252274884E-04 0.43697654639E-04 0.12457488293E-03
 0.52700702506E-03 0.22104239462E-02 0.80718045844E-02 0.24650216699E-01 0.58650615492E-01
 0.10243132087E+00 0.12424069291E+00 0.10251159693E+00 0.58809093208E-01 0.24627184304E-01
 0.80469678586E-02 0.23865451693E-02 0.52871708589E-03 -.20055901330E-04 0.21040239872E-04
 0.19899200203E-03 0.13511183731E-03 0.18798524136E-03 0.15109205957E-03 0.54230316834E-03
 0.30859519203E-03 0.18979049825E-03 0.11186783278E-03 0.36597802582E-03 0.14535114328E-02
 0.60081874852E-02 0.20853402014E-01 0.58650615492E-01 0.12422015164E+00 0.18493219981E+00
 0.18489183947E+00 0.12429422465E+00 0.58858507823E-01 0.20705111629E-01 0.60075220101E-02
 0.13769745997E-02 0.27246630589E-03 0.34106244395E-03 0.16814939315E-03 0.17459359881E-03
 0.41993249099E-03 0.60539832988E-03 0.62049412327E-03 0.21938053859E-02 0.11458147442E-02
 0.48246665828E-03 0.33355830752E-03 0.79603695704E-03 0.33873380581E-02 0.12828269167E-01
 0.41143466357E-01 0.10243132087E+00 0.18493219981E+00 0.22696246501E+00 0.18493351889E+00
 0.10268542777E+00 0.41245178273E-01 0.12634445817E-01 0.34525600877E-02 0.86489916538E-03
 0.37422212615E-03 0.24869194620E-03 0.11519638965E-02 0.24189105430E-02 0.34978826230E-02
 0.39607801962E-02 0.34193769211E-02 0.80699131406E-02 0.33727971397E-02 0.11840959329E-02
 0.65617894023E-03 0.15374175929E-02 0.60164547857E-02 0.20866523469E-01 0.58668696328E-01
 0.12424069291E+00 0.18489183947E+00 0.18493351889E+00 0.12443185619E+00 0.58870133414E-01
 0.20589710759E-01 0.59881659825E-02 0.16843251288E-02 0.46901709399E-03 0.12203447249E-02
 0.36113686684E-02 0.79963837866E-02 0.14750070744E-01 0.20745153339E-01 0.20758983730E-01
 0.15006160989E-01 0.24645215971E-01 0.81060700076E-02 0.23094301023E-02 0.10608000492E-02
 0.23094301023E-02 0.81060700077E-02 0.24645215971E-01 0.58706269924E-01 0.10251159693E+00
 0.12429422465E+00 0.10268542777E+00 0.58870133415E-01 0.24440378126E-01 0.80337904308E-02
 0.25818900287E-02 0.91324305479E-03 0.25818900287E-02 0.80337904309E-02 0.24440378126E-01
 0.58870133414E-01 0.10268542777E+00 0.12429422465E+00 0.10251159693E+00 0.58706269924E-01
 0.58718463519E-01 0.15021550040E-01 0.35772029359E-02 0.13010553766E-02 0.26964967366E-02
 0.80682623574E-02 0.20885637082E-01 0.41173237313E-01 0.58809093208E-01 0.58858507823E-01
 0.41245178273E-01 0.20589710759E-01 0.80337904309E-02 0.28711220798E-02 0.12234178364E-02
 0.36181069814E-02 0.14857590914E-01 0.58825532097E-01 0.18510015173E+00 0.43258073062E+00
 0.68376764404E+00 0.68382871615E+00 0.43275064576E+00 0.18492878087E+00 0.10251782876E+00
 0.20816321309E-01 0.41457765989E-02 0.12704988535E-02 0.23814651687E-02 0.59511035419E-02
 0.12879461287E-01 0.20757364674E-01 0.24627184304E-01 0.20705111629E-01 0.12634445817E-01
 0.59881659825E-02 0.25818900286E-02 0.12234178364E-02 0.41608111491E-02 0.20791502939E-01
 0.10262952109E+00 0.43261965575E+00 0.14307005147E+01 0.32401156573E+01 0.43517162701E+01
 0.32400073356E+01 0.14307562930E+01 0.43274735676E+00 0.12430895942E+00 0.20771630752E-01
 0.36514458519E-02 0.95380654234E-03 0.16176761764E-02 0.33177884961E-02 0.60344798946E-02
 0.80323353051E-02 0.80469678586E-02 0.60075220101E-02 0.34525600877E-02 0.16843251289E-02
 0.91324305473E-03 0.36181069814E-02 0.20791502939E-01 0.12424965421E+00 0.68377644882E+00
 0.32400243269E+01 0.11553432381E+02 0.24553734291E+02 0.24553578678E+02 0.11553380298E+02
 0.32400065496E+01 0.68383680741E+00 0.10268953599E+00 0.14800200831E-01 0.25401707334E-02
 0.48241330764E-03 0.94804334849E-03 0.13538214279E-02 0.23243431670E-02 0.24462983817E-02
 0.23865451693E-02 0.13769745997E-02 0.86489916540E-03 0.46901709398E-03 0.25818900286E-02
 0.14857590913E-01 0.10262952109E+00 0.68377644882E+00 0.43517442584E+01 0.24553541743E+02
 0.98768897512E+02 0.17741548004E+03 0.98768795029E+02 0.24553577772E+02 0.43517195510E+01
 0.68376228541E+00 0.58883479470E-01 0.79990969458E-02 0.12012649331E-02 0.32867744641E-03
 0.33818238112E-03 0.52889942196E-03 0.68091069229E-03 0.63402301387E-03 0.52871708588E-03
 0.27246630588E-03 0.37422212615E-03 0.12203447249E-02 0.80337904309E-02 0.58825532097E-01
 0.43261965575E+00 0.32400243269E+01 0.24553541743E+02 0.17741567717E+03 0.90780603711E+03
 0.90780598717E+03 0.17741547760E+03 0.24553737549E+02 0.32401108265E+01 0.43259225179E+00
 0.24427294128E-01 0.36372116118E-02 0.27080633265E-03 0.32038011500E-03 -.46564862948E-04
 0.31967512138E-03 0.27432174373E-04 0.32853464230E-03 -.20055901216E-04 0.34106244391E-03
 0.24869194619E-03 0.36113686684E-02 0.24440378126E-01 0.18510015173E+00 0.14307005147E+01
 0.11553432381E+02 0.98768897512E+02 0.90780603711E+03 0.94953071983E+04 0.90780603669E+03
 0.98768900813E+02 0.11553428231E+02 0.14307074939E+01 0.18508737688E+00 0.80194300862E-02
 0.11059814161E-02 0.21386507676E-03 0.85195482498E-05 0.66084939715E-04 0.24904401659E-04
 0.49478061865E-04 0.31733526964E-04 0.21040239873E-04 0.16814939311E-03 0.11519638964E-02
 0.79963837866E-02 0.58870133414E-01 0.43258073062E+00 0.32401156573E+01 0.24553734291E+02
 0.17741548004E+03 0.90780598717E+03 0.90780603669E+03 0.17741567791E+03 0.24553537613E+02
 0.32400281209E+01 0.43260483777E+00 0.58822948895E-01 0.24100418339E-02 0.17704320044E-03
 0.17527349298E-03 -.98723653380E-04 0.11894753917E-03 -.98100390108E-04 0.12447018848E-03
 -.10115827758E-03 0.19899200202E-03 0.17459359883E-03 0.24189105430E-02 0.14750070744E-01
 0.10268542777E+00 0.68376764404E+00 0.43517162701E+01 0.24553578678E+02 0.98768795029E+02
 0.17741547760E+03 0.98768900813E+02 0.24553537613E+02 0.43517509839E+01 0.68376087467E+00
 0.10263955666E+00 0.14811890873E-01 0.45659201042E-03 0.12154653983E-03 -.69303157136E-05
 0.10873914803E-04 0.73091426672E-05 -.13125082185E-04 0.30136662790E-04 -.32782501816E-04
 0.13511183732E-03 0.41993249094E-03 0.34978826230E-02 0.20745153339E-01 0.12429422465E+00
 0.68382871615E+00 0.32400073356E+01 0.11553380298E+02 0.24553577772E+02 0.24553737549E+02
 0.11553428231E+02 0.32400281209E+01 0.68376087467E+00 0.12426311003E+00 0.20747887277E-01
 0.34470332408E-02 0.17390220358E-03 -.30915433905E-04 0.48910306410E-04 -.42905300365E-04
 0.44760328916E-04 -.45027404535E-04 0.54631212532E-04 -.33773456109E-04 0.18798524141E-03
 0.60539832991E-03 0.39607801962E-02 0.20758983730E-01 0.10251159693E+00 0.43275064576E+00
 0.14307562930E+01 0.32400065496E+01 0.43517195510E+01 0.32401108265E+01 0.14307074939E+01
 0.43260483777E+00 0.10263955666E+00 0.20747887277E-01 0.39848917247E-02 0.61381137957E-03
 0.15885424993E-04 0.24351353117E-05 0.71422222632E-05 -.96839579102E-05 0.13379293819E-04
 -.15493307784E-04 0.22502107398E-04 -.43320988712E-05 0.15109205959E-03 0.62049412329E-03
 0.34193769211E-02 0.15006160989E-01 0.58706269924E-01 0.18492878087E+00 0.43274735676E+00
 0.68383680741E+00 0.68376228541E+00 0.43259225179E+00 0.18508737688E+00 0.58822948895E-01
 0.14811890873E-01 0.34470332409E-02 0.61381137957E-03 0.13096615637E-03 0.13677496052E-04
 -.91548717085E-05 0.83071043657E-05 -.74274316539E-05 0.71478612917E-05 -.49610877470E-05
 0.12095265803E-04 0.27563344342E-04 0.16063764624E-03 0.66689385817E-03 0.25360276801E-02
 0.80768530162E-02 0.20866523469E-01 0.41191414531E-01 0.58802718948E-01 0.58874331688E-01
 0.41243590240E-01 0.20592074411E-01 0.80194300861E-02 0.27419505166E-02 0.60955982682E-03
 0.17200486525E-03 0.45657423341E-04 0.38302075474E-05 -.91548717462E-05 0.69732980316E-05
 -.58863952238E-05 0.53302757897E-05 -.45159849173E-05 0.55980755508E-05 0.26839096979E-05
 0.30549129732E-04 0.10298476295E-03 0.37274334210E-03 0.11325116652E-02 0.29228269862E-02
 0.60164547857E-02 0.93852576297E-02 0.10897646863E-01 0.92834344714E-02 0.60386655997E-02
 0.31957448146E-02 0.11059814160E-02 0.20412916960E-03 0.15014531515E-03 0.98731584384E-05
 -.44340041944E-05 0.62271024431E-06 0.83071043561E-05 -.58863952304E-05 0.49015896062E-05
 -.41676644642E-05 0.39623888825E-05 -.21305937221E-05 0.65408068463E-05 0.13376807111E-04
 0.56062638537E-04 0.16726623001E-03 0.43909960535E-03 0.92318646903E-03 0.15374175928E-02
 0.20513809544E-02 0.20797873612E-02 0.16226747147E-02 0.85759239989E-03 0.22411897609E-03
 0.21386507665E-03 0.19397086049E-03 -.13537249145E-04 0.20927127399E-04 0.13477359327E-04
 0.27591886484E-05 -.74274316908E-05 0.53302757645E-05 -.41676644725E-05 0.36691839352E-05
 -.26628183920E-05 0.37742104494E-05 0.32662496755E-05 0.17889547960E-04 0.47669571108E-04
 0.12118334699E-03 0.25453681471E-03 0.45173144439E-03 0.65617894022E-03 0.70857450694E-03
 0.61733414253E-03 0.40545553256E-03 0.30791848032E-03 0.29782267788E-03 0.85195482943E-05
 -.10878578584E-03 0.20364255952E-04 -.16131634043E-04 -.14910293595E-04 -.38935121221E-05
 0.71478612566E-05 -.45159849062E-05 0.39623888839E-05 -.26628183958E-05 0.33111697495E-05
 0.12428890888E-05 0.12174617572E-04 0.36213616279E-04 0.10755648939E-03 0.26992895624E-03
 0.55949429007E-03 0.92318646907E-03 0.11840959328E-02 0.12118458690E-02 0.93959388661E-03
 0.59855356977E-03 0.23531896375E-03 -.52066096948E-04 0.66084939710E-04 0.13078288720E-03
 0.56990932513E-06 0.19990663704E-04 0.18987204694E-04 0.57976338066E-05 -.49610877736E-05
 0.55980755325E-05 -.21305937260E-05 0.37742104329E-05 0.12428890732E-05 0.13061984577E-04
 0.42973582857E-04 0.14443857754E-03 0.41655592026E-03 0.99773276514E-03 0.19316977965E-02
 0.29228269862E-02 0.33727971397E-02 0.29028852897E-02 0.19192220580E-02 0.95861461685E-03
 0.43718922563E-03 0.29653096177E-03 0.24904401722E-04 -.10783106133E-03 -.70726051529E-05
 -.20615867254E-04 -.21458692870E-04 -.60565048697E-05 0.12095265824E-04 0.26839096657E-05
 0.65408068607E-05 0.32662497489E-05 0.12174617601E-04 0.42973582872E-04 0.15887708107E-03
 0.52664237769E-03 0.14657925639E-02 0.33520853393E-02 0.59865470596E-02 0.80768530162E-02
 0.80699131406E-02 0.60262482732E-02 0.33809191181E-02 0.14903154537E-02 0.51545103208E-03
 0.11511274391E-04 0.49478062056E-04 0.13663702645E-03 0.27615720835E-04 0.31183149174E-04
 0.32299483014E-04 0.17304299017E-04 0.27563344305E-04 0.30549129703E-04 0.13376807121E-04
 0.17889547964E-04 0.36213616290E-04 0.14443857754E-03 0.52664237774E-03 0.16791792343E-02
 0.44680989229E-02 0.94113170343E-02 0.15056524994E-01 0.17679498878E-01 0.15006160989E-01
 0.93303272329E-02 0.45283016063E-02 0.16509054976E-02 0.50517621754E-03 0.31444760030E-03
 0.31733526935E-04 -.11306803996E-03 -.27027421310E-04 -.26102408985E-05 -.74711318914E-06
 0.27951898936E-04 0.16063764616E-03 0.10298476293E-03 0.56062638515E-04 0.47669571125E-04
 0.10755648942E-03 0.41655592026E-03 0.14657925639E-02 0.44680989229E-02 0.10980070748E-01
 0.20854909101E-01 0.29162869698E-01 0.29154831017E-01 0.20758983730E-01 0.10898778724E-01
 0.45645627910E-02 0.15070550628E-02 0.38986833177E-03 -.37003275194E-04 0.21040239881E-04
 0.21906996803E-03 0.15548617724E-03 0.20354048420E-03 0.23568107165E-03 0.22212186644E-03
 0.66689385811E-03 0.37274334207E-03 0.16726623001E-03 0.12118334694E-03 0.26992895632E-03
 0.99773276515E-03 0.33520853393E-02 0.94113170344E-02 0.20854909101E-01 0.34633644600E-01
 0.41217609231E-01 0.34647416922E-01 0.20745153339E-01 0.92247206038E-02 0.34788938290E-02
 0.90899249237E-03 0.23542999332E-03 0.32139419510E-03 0.16814939320E-03 0.18909829502E-03
 0.58318448049E-03 0.95343584103E-03 0.10770945561E-02 0.97202526617E-03 0.25360276802E-02
 0.11325116652E-02 0.43909960535E-03 0.25453681471E-03 0.55949429010E-03 0.19316977965E-02
 0.59865470596E-02 0.15056524994E-01 0.29162869698E-01 0.41217609231E-01 0.41221056691E-01
 0.29146738583E-01 0.14750070744E-01 0.60583466726E-02 0.20941810561E-02 0.54796177032E-03
 0.36349295603E-03 0.22668749442E-03 0.11519638965E-02 0.27792285887E-02 0.45656590657E-02
 0.60082452810E-02 0.60256223970E-02 0.44959962477E-02 0.80768530162E-02 0.29228269862E-02
 0.92318646904E-03 0.45173144439E-03 0.92318646904E-03 0.29228269862E-02 0.80768530162E-02
 0.17679498878E-01 0.29154831017E-01 0.34647416922E-01 0.29146738583E-01 0.17407619497E-01
 0.79963837866E-02 0.31536348740E-02 0.86619547065E-03 0.32876879347E-03 0.86619547068E-03
 0.31536348740E-02 0.79963837867E-02 0.17407619497E-01 0.29146738583E-01 0.34647416922E-01
 0.29154831017E-01 0.17679498878E-01 0.20866523469E-01 0.60164547857E-02 0.15374175929E-02
 0.65617894023E-03 0.11840959329E-02 0.33727971397E-02 0.80699131406E-02 0.15006160989E-01
 0.20758983730E-01 0.20745153339E-01 0.14750070744E-01 0.79963837865E-02 0.36113686683E-02
 0.12203447248E-02 0.46901709398E-03 0.16843251288E-02 0.59881659826E-02 0.20589710759E-01
 0.58870133414E-01 0.12443185619E+00 0.18493351889E+00 0.18489183947E+00 0.12424069291E+00
 0.58668696328E-01 0.41191414531E-01 0.93852576297E-02 0.20513809544E-02 0.70857450693E-03
 0.12118458690E-02 0.29028852897E-02 0.60262482732E-02 0.93303272329E-02 0.10898778724E-01
 0.92247206038E-02 0.60583466726E-02 0.31536348740E-02 0.12203447248E-02 0.46993775626E-03
 0.21621527652E-02 0.92063834371E-02 0.41251127343E-01 0.15138262612E+00 0.43258073062E+00
 0.86803774267E+00 0.11102440158E+01 0.86828349284E+00 0.43278271663E+00 0.15125558072E+00
 0.58802718948E-01 0.10897646863E-01 0.20797873612E-02 0.61733414254E-03 0.93959388660E-03
 0.19192220580E-02 0.33809191181E-02 0.45283016063E-02 0.45645627910E-02 0.34788938289E-02
 0.20941810561E-02 0.86619547065E-03 0.46901709396E-03 0.21621527652E-02 0.10881709298E-01
 0.58920973388E-01 0.28005709264E+00 0.11100591973E+01 0.32401156573E+01 0.59261927172E+01
 0.59261058379E+01 0.32399204970E+01 0.11101196091E+01 0.28004755496E+00 0.58874331688E-01
 0.92834344714E-02 0.16226747147E-02 0.40545553256E-03 0.59855356981E-03 0.95861461682E-03
 0.14903154537E-02 0.16509054976E-02 0.15070550628E-02 0.90899249238E-03 0.54796177034E-03
 0.32876879349E-03 0.16843251288E-02 0.92063834371E-02 0.58920973388E-01 0.34703768636E+00
 0.18602940268E+01 0.81990555855E+01 0.24553734291E+02 0.37388095094E+02 0.24553819276E+02
 0.81990583601E+01 0.18602399935E+01 0.34716903588E+00 0.41243590240E-01 0.60386655997E-02
 0.85759239989E-03 0.30791848030E-03 0.23531896369E-03 0.43718922565E-03 0.51545103211E-03
 0.50517621755E-03 0.38986833178E-03 0.23542999330E-03 0.36349295603E-03 0.86619547064E-03
 0.59881659826E-02 0.41251127343E-01 0.28005709264E+00 0.18602940268E+01 0.11553406239E+02
 0.59206792694E+02 0.17741548004E+03 0.17741558423E+03 0.59206942586E+02 0.11553310958E+02
 0.18601686743E+01 0.28002450864E+00 0.20592074411E-01 0.31957448146E-02 0.22411897609E-03
 0.29782267790E-03 -.52066096914E-04 0.29653096176E-03 0.11511274322E-04 0.31444760030E-03
 -.37003275207E-04 0.32139419507E-03 0.22668749439E-03 0.31536348740E-02 0.20589710759E-01
 0.15138262612E+00 0.11100591973E+01 0.81990555855E+01 0.59206792694E+02 0.35813729507E+03
 0.90780598717E+03 0.35813729483E+03 0.59206795710E+02 0.81990526783E+01 0.11100704387E+01
 0.15138290644E+00 0.80194300862E-02 0.11059814161E-02 0.21386507677E-03 0.85195482433E-05
 0.66084939725E-04 0.24904401662E-04 0.49478061898E-04 0.31733526953E-04 0.21040239888E-04
 0.16814939310E-03 0.11519638964E-02 0.79963837866E-02 0.58870133414E-01 0.43258073062E+00
 0.32401156573E+01 0.24553734291E+02 0.17741548004E+03 0.90780598717E+03 0.90780603669E+03
 0.17741567791E+03 0.24553537613E+02 0.32400281209E+01 0.43260483777E+00 0.58822948895E-01
 0.27419505167E-02 0.20412916961E-03 0.19397086052E-03 -.10878578583E-03 0.13078288718E-03
 -.10783106135E-03 0.13663702645E-03 -.11306804000E-03 0.21906996802E-03 0.18909829498E-03
 0.27792285887E-02 0.17407619497E-01 0.12443185619E+00 0.86803774267E+00 0.59261927172E+01
 0.37388095094E+02 0.17741558423E+03 0.35813729483E+03 0.17741567791E+03 0.37388138355E+02
 0.59261960894E+01 0.86822570246E+00 0.12438662656E+00 0.17453879388E-01 0.60955982689E-03
 0.15014531513E-03 -.13537249134E-04 0.20364255895E-04 0.56990932975E-06 -.70726051460E-05
 0.27615720884E-04 -.27027421283E-04 0.15548617721E-03 0.58318448045E-03 0.45656590657E-02
 0.29146738583E-01 0.18493351889E+00 0.11102440158E+01 0.59261058379E+01 0.24553819276E+02
 0.59206942586E+02 0.59206795710E+02 0.24553537613E+02 0.59261960894E+01 0.11102802188E+01
 0.18486971738E+00 0.29187774883E-01 0.45417614752E-02 0.17200486532E-03 0.98731584338E-05
 0.20927127383E-04 -.16131634039E-04 0.19990663704E-04 -.20615867289E-04 0.31183149140E-04
 -.26102409294E-05 0.20354048421E-03 0.95343584102E-03 0.60082452810E-02 0.34647416922E-01
 0.18489183947E+00 0.86828349284E+00 0.32399204970E+01 0.81990583601E+01 0.11553310958E+02
 0.81990526783E+01 0.32400281209E+01 0.86822570246E+00 0.18486971738E+00 0.34745745873E-01
 0.59617863737E-02 0.97533796152E-03 0.45657423351E-04 -.44340041760E-05 0.13477359363E-04
 -.14910293568E-04 0.18987204717E-04 -.21458692838E-04 0.32299483049E-04 -.74711318293E-06
 0.23568107162E-03 0.10770945561E-02 0.60256223970E-02 0.29154831017E-01 0.12424069291E+00
 0.43278271663E+00 0.11101196091E+01 0.18602399935E+01 0.18601686743E+01 0.11100704387E+01
 0.43260483777E+00 0.12438662656E+00 0.29187774883E-01 0.59617863737E-02 0.11371789595E-02
 0.19855556422E-03 0.38302075707E-05 0.62271024058E-06 0.27591886711E-05 -.38935121262E-05
 0.57976338353E-05 -.60565048696E-05 0.17304299065E-04 0.27951898938E-04 0.22212186646E-03
 0.97202526616E-03 0.44959962477E-02 0.17679498878E-01 0.58668696328E-01 0.15125558072E+00
 0.28004755496E+00 0.34716903588E+00 0.28002450864E+00 0.15138290644E+00 0.58822948895E-01
 0.17453879388E-01 0.45417614751E-02 0.97533796151E-03 0.19855556422E-03 0.34098799491E-04
 -.63243631379E-05 0.50425791564E-05 -.37890720649E-05 0.31088580081E-05 -.20489058080E-05
 0.38588680204E-05 0.84235275890E-05 0.44929344266E-04 0.18081569020E-03 0.67944450473E-03
 0.22068753408E-02 0.59865470596E-02 0.12828269167E-01 0.20808932885E-01 0.24588121236E-01
 0.20753305124E-01 0.12589554963E-01 0.60205302344E-02 0.24100418340E-02 0.60955982685E-03
 0.17674042953E-03 0.43261397135E-04 -.94396085297E-05 0.14783684139E-04 0.50425791142E-05
 -.34815478484E-05 0.25105531607E-05 -.17400841425E-05 0.16464769337E-05 0.82230197547E-06
 0.70050336615E-05 0.27378718365E-04 0.10019855465E-03 0.32203775889E-03 0.87318342765E-03
 0.19316977965E-02 0.33873380581E-02 0.45463484557E-02 0.45755988190E-02 0.34893873217E-02
 0.20972908420E-02 0.80770330115E-03 0.17704320039E-03 0.15014531512E-03 0.25920985002E-04
 0.86950338708E-05 0.15632968882E-04 -.10582872542E-04 -.37890720554E-05 0.25105531454E-05
 -.15668690817E-05 0.10630593250E-05 -.16132690747E-06 0.13795464298E-05 0.56972604656E-05
 0.17011914813E-04 0.54391147699E-04 0.13935490620E-03 0.30965627139E-03 0.55949429009E-03
 0.79603695696E-03 0.86949185347E-03 0.73092747476E-03 0.47519089057E-03 0.18879004780E-03
 0.19323787632E-03 0.17527349297E-03 -.13537249143E-04 0.98459662325E-05 -.17453073676E-06
 -.10091023207E-04 0.99872165929E-05 0.31088579450E-05 -.17400841280E-05 0.10630593426E-05
 -.26426562703E-06 0.37515221797E-06 0.17785601748E-05 0.33756907717E-05 0.14423231366E-04
 0.34533972764E-04 0.83660551578E-04 0.15973946207E-03 0.25453681468E-03 0.33355830755E-03
 0.36144345838E-03 0.32135397302E-03 0.21953941024E-03 0.18240601454E-03 -.23556930459E-05
 -.98723653561E-04 0.20364255918E-04 -.56100991434E-05 0.68771789275E-06 0.75895035613E-05
 -.93037161760E-05 -.20489058560E-05 0.16464769657E-05 -.16132689716E-06 0.37515221693E-06
 0.13897977916E-05 0.23952815731E-05 0.11941942164E-04 0.29940091543E-04 0.82029872974E-04
 0.17336324071E-03 0.30965627138E-03 0.43909960534E-03 0.48246665822E-03 0.40454850761E-03
 0.25015794722E-03 0.13428258712E-03 -.79054590602E-05 0.54838610204E-04 0.11894753925E-03
 0.56990933644E-06 0.10322502116E-04 0.18674542538E-05 -.43012306757E-05 0.95686918822E-05
 0.38588680114E-05 0.82230195322E-06 0.13795464390E-05 0.17785601357E-05 0.23952815909E-05
 0.11642498512E-04 0.33218534821E-04 0.10371024381E-03 0.25347707119E-03 0.52762082441E-03
 0.87318342768E-03 0.11325116652E-02 0.11458147442E-02 0.90344488883E-03 0.57994280507E-03
 0.28041284987E-03 0.18357658315E-03 0.25719796590E-04 -.98100390108E-04 -.70726051414E-05
 -.11062291209E-04 -.21913489654E-05 0.33829971568E-05 -.73324972242E-05 0.84235276151E-05
 0.70050336626E-05 0.56972604351E-05 0.33756907555E-05 0.11941942214E-04 0.33218534858E-04
 0.11627163936E-03 0.32091826183E-03 0.76959724314E-03 0.14705951903E-02 0.22068753409E-02
 0.25360276802E-02 0.21938053860E-02 0.14292854241E-02 0.70598630964E-03 0.32417324226E-03
 0.35797022461E-04 0.28533739022E-04 0.12447018854E-03 0.27615720875E-04 0.21954445355E-04
 0.12088667142E-04 0.11359574325E-04 0.19342694854E-04 0.44929344222E-04 0.27378718350E-04
 0.17011914823E-04 0.14423231372E-04 0.29940091531E-04 0.10371024381E-03 0.32091826183E-03
 0.87253140160E-03 0.19206217093E-02 0.33520181365E-02 0.44800682834E-02 0.44959962477E-02
 0.34193769211E-02 0.19734509939E-02 0.85933577382E-03 0.32107665970E-03 0.19281792210E-03
 0.36270209535E-04 -.10115827759E-03 -.27027421304E-04 0.10344388102E-04 0.33037337947E-04
 0.49619001720E-04 0.40959575220E-04 0.18081569017E-03 0.10019855463E-03 0.54391147686E-04
 0.34533972796E-04 0.82029873009E-04 0.25347707123E-03 0.76959724310E-03 0.19206217093E-02
 0.38700208416E-02 0.60045263518E-02 0.69526332773E-02 0.60256223970E-02 0.39607801960E-02
 0.19625395556E-02 0.63939310248E-03 0.27509670947E-03 0.28940180613E-04 -.84584969562E-05
 0.19899200200E-03 0.15548617723E-03 0.20912612382E-03 0.25781366943E-03 0.29791358386E-03
 0.26317559042E-03 0.67944450475E-03 0.32203775888E-03 0.13935490616E-03 0.83660551602E-04
 0.17336324077E-03 0.52762082446E-03 0.14705951903E-02 0.33520181365E-02 0.60045263518E-02
 0.80501868602E-02 0.80409398046E-02 0.60082452810E-02 0.34978826231E-02 0.15557821997E-02
 0.48730041230E-03 0.19294724579E-03 0.17928292397E-03 0.17123795434E-03 0.17459359876E-03
 0.58318448046E-03 0.11114933431E-02 0.14641731616E-02 0.14626599316E-02 0.11103423767E-02
 0.22068753409E-02 0.87318342766E-03 0.30965627139E-03 0.15973946206E-03 0.30965627138E-03
 0.87318342769E-03 0.22068753409E-02 0.44800682834E-02 0.69526332774E-02 0.80409398046E-02
 0.69320195553E-02 0.45656590657E-02 0.24189105431E-02 0.80249885661E-03 0.14013243004E-03
 0.23601649783E-03 0.14013243004E-03 0.80249885661E-03 0.24189105431E-02 0.45656590657E-02
 0.69320195553E-02 0.80409398046E-02 0.69526332773E-02 0.44800682834E-02 0.59865470596E-02
 0.19316977965E-02 0.55949429011E-03 0.25453681470E-03 0.43909960533E-03 0.11325116652E-02
 0.25360276801E-02 0.44959962477E-02 0.60256223970E-02 0.60082452810E-02 0.45656590657E-02
 0.27792285887E-02 0.11519638966E-02 0.22668749439E-03 0.36349295604E-03 0.54796177034E-03
 0.20941810561E-02 0.60583466726E-02 0.14750070744E-01 0.29146738583E-01 0.41221056691E-01
 0.41217609231E-01 0.29162869698E-01 0.15056524994E-01 0.12828269167E-01 0.33873380581E-02
 0.79603695702E-03 0.33355830750E-03 0.48246665828E-03 0.11458147442E-02 0.21938053859E-02
 0.34193769211E-02 0.39607801961E-02 0.34978826230E-02 0.24189105430E-02 0.11519638965E-02
 0.24869194612E-03 0.37422212615E-03 0.86489916540E-03 0.34525600877E-02 0.12634445817E-01
 0.41245178273E-01 0.10268542777E+00 0.18493351889E+00 0.22696246501E+00 0.18493219981E+00
 0.10243132087E+00 0.41143466357E-01 0.20808932885E-01 0.45463484556E-02 0.86949185346E-03
 0.36144345839E-03 0.40454850758E-03 0.90344488881E-03 0.14292854240E-02 0.19734509939E-02
 0.19625395556E-02 0.15557821996E-02 0.80249885659E-03 0.22668749439E-03 0.37422212615E-03
 0.10496723918E-02 0.45150350944E-02 0.20800973567E-01 0.85012018993E-01 0.28002597178E+00
 0.68376764404E+00 0.11102440158E+01 0.11102267528E+01 0.68388811730E+00 0.28018958807E+00
 0.84786649809E-01 0.24588121236E-01 0.45755988190E-02 0.73092747475E-03 0.32135397304E-03
 0.25015794721E-03 0.57994280506E-03 0.70598630966E-03 0.85933577386E-03 0.63939310249E-03
 0.48730041225E-03 0.14013243003E-03 0.36349295603E-03 0.86489916550E-03 0.45150350944E-02
 0.24590696025E-01 0.12426886887E+00 0.54212627934E+00 0.18601775622E+01 0.43517162701E+01
 0.59261058379E+01 0.43515647504E+01 0.18600243983E+01 0.54233757640E+00 0.12426543561E+00
 0.20753305124E-01 0.34893873217E-02 0.47519089058E-03 0.21953941023E-03 0.13428258710E-03
 0.28041284991E-03 0.32417324227E-03 0.32107665972E-03 0.27509670950E-03 0.19294724578E-03
 0.23601649781E-03 0.54796177034E-03 0.34525600876E-02 0.20800973567E-01 0.12426886887E+00
 0.68385742957E+00 0.32401187258E+01 0.11553309943E+02 0.24553578678E+02 0.24553819276E+02
 0.11553497833E+02 0.32399678055E+01 0.68394312268E+00 0.12425110126E+00 0.12589554963E-01
 0.20972908420E-02 0.18879004777E-03 0.18240601455E-03 -.79054590820E-05 0.18357658318E-03
 0.35797022444E-04 0.19281792211E-03 0.28940180630E-04 0.17928292394E-03 0.14013243003E-03
 0.20941810561E-02 0.12634445817E-01 0.85012018992E-01 0.54212627934E+00 0.32401187258E+01
 0.16630423039E+02 0.59206943417E+02 0.98768795029E+02 0.59206942586E+02 0.16630426214E+02
 0.32401083550E+01 0.54213640063E+00 0.84999653087E-01 0.60205302345E-02 0.80770330116E-03
 0.19323787632E-03 -.23556930411E-05 0.54838610180E-04 0.25719796573E-04 0.28533738935E-04
 0.36270209537E-04 -.84584969606E-05 0.17123795430E-03 0.80249885656E-03 0.60583466726E-02
 0.41245178273E-01 0.28002597178E+00 0.18601775622E+01 0.11553309943E+02 0.59206943417E+02
 0.17741558612E+03 0.17741547760E+03 0.59206795710E+02 0.11553400639E+02 0.18603055054E+01
 0.28004134095E+00 0.41256749165E-01 0.24100418340E-02 0.17704320044E-03 0.17527349297E-03
 -.98723653387E-04 0.11894753918E-03 -.98100390104E-04 0.12447018843E-03 -.10115827755E-03
 0.19899200206E-03 0.17459359883E-03 0.24189105430E-02 0.14750070744E-01 0.10268542777E+00
 0.68376764404E+00 0.43517162701E+01 0.24553578678E+02 0.98768795029E+02 0.17741547760E+03
 0.98768900813E+02 0.24553537613E+02 0.43517509839E+01 0.68376087467E+00 0.10263955666E+00
 0.14811890873E-01 0.60955982691E-03 0.15014531514E-03 -.13537249137E-04 0.20364255905E-04
 0.56990933505E-06 -.70726051518E-05 0.27615720878E-04 -.27027421291E-04 0.15548617723E-03
 0.58318448046E-03 0.45656590657E-02 0.29146738583E-01 0.18493351889E+00 0.11102440158E+01
 0.59261058379E+01 0.24553819276E+02 0.59206942586E+02 0.59206795710E+02 0.24553537613E+02
 0.59261960894E+01 0.11102802188E+01 0.18486971738E+00 0.29187774883E-01 0.45417614752E-02
 0.17674042957E-03 0.25920985008E-04 0.98459662267E-05 -.56100991761E-05 0.10322502050E-04
 -.11062291222E-04 0.21954445326E-04 0.10344388122E-04 0.20912612381E-03 0.11114933431E-02
 0.69320195553E-02 0.41221056691E-01 0.22696246501E+00 0.11102267528E+01 0.43515647504E+01
 0.11553497833E+02 0.16630426214E+02 0.11553400639E+02 0.43517509839E+01 0.11102802188E+01
 0.22680309449E+00 0.41292103334E-01 0.68417930067E-02 0.11529556019E-02 0.43261397142E-04
 0.86950338731E-05 -.17453072464E-06 0.68771787111E-06 0.18674542349E-05 -.21913489757E-05
 0.12088667104E-04 0.33037337966E-04 0.25781366942E-03 0.14641731616E-02 0.80409398046E-02
 0.41217609231E-01 0.18493219981E+00 0.68388811730E+00 0.18600243983E+01 0.32399678055E+01
 0.32401083550E+01 0.18603055054E+01 0.68376087467E+00 0.18486971738E+00 0.41292103334E-01
 0.79872877087E-02 0.15110850759E-02 0.24436824648E-03 -.94396084900E-05 0.15632968879E-04
 -.10091023155E-04 0.75895035495E-05 -.43012306092E-05 0.33829972013E-05 0.11359574333E-04
 0.49619001733E-04 0.29791358385E-03 0.14626599316E-02 0.69526332774E-02 0.29162869698E-01
 0.10243132087E+00 0.28018958807E+00 0.54233757640E+00 0.68394312268E+00 0.54213640063E+00
 0.28004134095E+00 0.10263955666E+00 0.29187774883E-01 0.68417930066E-02 0.15110850759E-02
 0.23927397040E-03 0.81848806407E-04 0.14783684171E-04 -.10582872539E-04 0.99872165759E-05
 -.93037162083E-05 0.95686918841E-05 -.73324972070E-05 0.19342694870E-04 0.40959575242E-04
 0.26317559043E-03 0.11103423767E-02 0.44800682834E-02 0.15056524994E-01 0.41143466357E-01
 0.84786649809E-01 0.12426543561E+00 0.12425110126E+00 0.84999653087E-01 0.41256749166E-01
 0.14811890873E-01 0.45417614752E-02 0.11529556019E-02 0.24436824647E-03 0.81848806398E-04
 -.90613159289E-05 0.41837867624E-05 -.30532619844E-05 0.24812018161E-05 -.19968606982E-05
 0.23228829749E-05 0.66382388375E-06 0.11390232605E-04 0.40352593531E-04 0.15958263646E-03
 0.52129661663E-03 0.14705951903E-02 0.33520853393E-02 0.60081874853E-02 0.80487266371E-02
 0.80430344067E-02 0.59997079709E-02 0.34613472708E-02 0.15650440555E-02 0.45659201034E-03
 0.17200486527E-03 0.43261397121E-04 -.12965880226E-04 0.15324617445E-04 -.35627805057E-05
 -.30532620186E-05 0.23296803491E-05 -.18803330470E-05 0.17458791654E-05 -.10725759708E-05
 0.32208603081E-05 0.61399076560E-05 0.27746025922E-04 0.81950384197E-04 0.23237887118E-03
 0.52762082444E-03 0.99773276516E-03 0.14535114328E-02 0.17010372739E-02 0.14716572905E-02
 0.95557840960E-03 0.46704093395E-03 0.16603773971E-03 0.12154653987E-03 0.98731584257E-05
 0.86950339086E-05 0.20592716951E-04 -.11075605937E-04 0.28071896591E-05 0.24812018825E-05
 -.18803330607E-05 0.15799515975E-05 -.12558669842E-05 0.16170478121E-05 0.82483805206E-07
 0.52881953425E-05 0.12022784746E-04 0.38192102618E-04 0.83900923311E-04 0.17336324073E-03
 0.26992895628E-03 0.36597802583E-03 0.33688210706E-03 0.28490449959E-03 0.21024126347E-03
 0.12416311227E-03 0.88094642628E-04 -.69303156283E-05 0.20927127416E-04 -.17453068842E-06
 -.15477774965E-04 0.11081368068E-04 -.19224143765E-05 -.19968607514E-05 0.17458791584E-05
 -.12558669553E-05 0.13777976294E-05 -.74281580874E-06 0.24092257326E-05 0.30598755870E-05
 0.12221959074E-04 0.24417304342E-04 0.54995599847E-04 0.83660551573E-04 0.12118334691E-03
 0.11186783266E-03 0.12526826510E-03 0.73860992457E-04 0.16655969797E-04 0.71232867297E-05
 -.34363958176E-04 0.10873914739E-04 -.16131634051E-04 0.68771789809E-06 0.13724934338E-04
 -.10878300506E-04 0.15902467063E-05 0.23228829318E-05 -.10725760043E-05 0.16170477943E-05
 -.74281582721E-06 0.19871253489E-05 0.15091426708E-05 0.86390577922E-05 0.18965152142E-04
 0.47485621681E-04 0.83900923318E-04 0.13935490621E-03 0.16726623002E-03 0.18979049833E-03
 0.12915973665E-03 0.96886148636E-04 0.76901068999E-04 0.24726182662E-04 0.49821003677E-04
 0.73091426043E-05 0.19990663661E-04 0.18674542288E-05 -.11246436109E-04 0.11773934881E-04
 -.69209018712E-06 0.66382380523E-06 0.32208602834E-05 0.82483803147E-07 0.24092257389E-05
 0.15091427150E-05 0.91335567362E-05 0.22259231184E-04 0.60933867466E-04 0.12691448090E-03
 0.23237887118E-03 0.32203775888E-03 0.37274334212E-03 0.30859519194E-03 0.23686196844E-03
 0.12183790472E-03 0.30860859778E-04 0.31864123789E-04 -.32242228314E-04 -.13125082142E-04
 -.20615867297E-04 -.21913489499E-05 0.11589510006E-04 -.97031497608E-05 0.34705948895E-05
 0.11390232621E-04 0.61399077057E-05 0.52881953804E-05 0.30598755822E-05 0.86390578268E-05
 0.22259231214E-04 0.66292300503E-04 0.15847485865E-03 0.32425776604E-03 0.52129661662E-03
 0.67944450471E-03 0.66689385817E-03 0.54230316829E-03 0.32720773423E-03 0.17400102937E-03
 0.81302478938E-04 0.18928710621E-05 0.47974207567E-04 0.30136662808E-04 0.31183149127E-04
 0.12088667171E-04 0.27757267975E-05 0.25058917767E-04 0.12225728906E-04 0.40352593484E-04
 0.27746025919E-04 0.12022784750E-04 0.12221959067E-04 0.18965152163E-04 0.60933867472E-04
 0.15847485867E-03 0.36565179449E-03 0.67297053852E-03 0.99424698306E-03 0.11103423767E-02
 0.97202526617E-03 0.62049412316E-03 0.35371731048E-03 0.20272156137E-03 0.34945777943E-04
 0.44623195058E-04 -.15630840157E-04 -.32782501807E-04 -.26102409239E-05 0.33037337961E-04
 0.67110087670E-04 0.49548732303E-04 0.60412761256E-04 0.15958263643E-03 0.81950384192E-04
 0.38192102624E-04 0.24417304339E-04 0.47485621721E-04 0.12691448090E-03 0.32425776602E-03
 0.67297053850E-03 0.11289549240E-02 0.14461695987E-02 0.14626599315E-02 0.10770945561E-02
 0.60539832991E-03 0.28105166757E-03 0.19492894939E-03 0.67101509860E-04 -.49646279394E-04
 0.85592284107E-04 0.13511183732E-03 0.20354048422E-03 0.25781366942E-03 0.31906586836E-03
 0.33679202234E-03 0.25566283446E-03 0.52129661665E-03 0.23237887118E-03 0.83900923323E-04
 0.54995599871E-04 0.83900923348E-04 0.23237887118E-03 0.52129661663E-03 0.99424698308E-03
 0.14461695987E-02 0.16943806386E-02 0.14641731615E-02 0.95343584102E-03 0.41993249098E-03
 0.19506092247E-03 0.15068643500E-03 -.21683660211E-04 0.15068643497E-03 0.19506092246E-03
 0.41993249093E-03 0.95343584100E-03 0.14641731616E-02 0.16943806386E-02 0.14461695987E-02
 0.99424698305E-03 0.14705951903E-02 0.52762082444E-03 0.17336324073E-03 0.83660551608E-04
 0.13935490618E-03 0.32203775890E-03 0.67944450475E-03 0.11103423767E-02 0.14626599315E-02
 0.14641731615E-02 0.11114933431E-02 0.58318448043E-03 0.17459359881E-03 0.17123795430E-03
 0.17928292396E-03 0.19294724581E-03 0.48730041226E-03 0.15557821996E-02 0.34978826231E-02
 0.60082452810E-02 0.80409398046E-02 0.80501868602E-02 0.60045263518E-02 0.33520181365E-02
 0.33520853394E-02 0.99773276514E-03 0.26992895628E-03 0.12118334697E-03 0.16726623001E-03
 0.37274334209E-03 0.66689385816E-03 0.97202526616E-03 0.10770945560E-02 0.95343584103E-03
 0.58318448045E-03 0.18909829496E-03 0.16814939313E-03 0.32139419503E-03 0.23542999329E-03
 0.90899249237E-03 0.34788938290E-02 0.92247206038E-02 0.20745153339E-01 0.34647416922E-01
 0.41217609231E-01 0.34633644600E-01 0.20854909101E-01 0.94113170343E-02 0.60081874852E-02
 0.14535114328E-02 0.36597802586E-03 0.11186783277E-03 0.18979049826E-03 0.30859519203E-03
 0.54230316832E-03 0.62049412327E-03 0.60539832986E-03 0.41993249098E-03 0.17459359879E-03
 0.16814939311E-03 0.34106244385E-03 0.27246630591E-03 0.13769745997E-02 0.60075220101E-02
 0.20705111629E-01 0.58858507823E-01 0.12429422465E+00 0.18489183947E+00 0.18493219981E+00
 0.12422015164E+00 0.58650615492E-01 0.20853402014E-01 0.80487266370E-02 0.17010372738E-02
 0.33688210707E-03 0.12526826512E-03 0.12915973662E-03 0.23686196842E-03 0.32720773428E-03
 0.35371731052E-03 0.28105166756E-03 0.19506092244E-03 0.17123795427E-03 0.32139419505E-03
 0.27246630600E-03 0.16287329071E-02 0.80217624045E-02 0.34670454826E-01 0.12423610848E+00
 0.34716192151E+00 0.68382871615E+00 0.86828349284E+00 0.68388811730E+00 0.34743606129E+00
 0.12420323074E+00 0.34654210512E-01 0.80430344067E-02 0.14716572905E-02 0.28490449960E-03
 0.73860992420E-04 0.96886148682E-04 0.12183790472E-03 0.17400102937E-03 0.20272156141E-03
 0.19492894938E-03 0.15068643497E-03 0.17928292393E-03 0.23542999333E-03 0.13769745996E-02
 0.80217624044E-02 0.41227705405E-01 0.18487968550E+00 0.68394909514E+00 0.18602317624E+01
 0.32400073356E+01 0.32399204970E+01 0.18600243983E+01 0.68391579974E+00 0.18487435437E+00
 0.41207200199E-01 0.59997079709E-02 0.95557840957E-03 0.21024126347E-03 0.16655969822E-04
 0.76901069043E-04 0.30860859760E-04 0.81302478891E-04 0.34945777959E-04 0.67101509850E-04
 -.21683660228E-04 0.19294724579E-03 0.90899249235E-03 0.60075220099E-02 0.34670454826E-01
 0.18487968550E+00 0.86839240411E+00 0.32399581830E+01 0.81990582044E+01 0.11553380298E+02
 0.81990583601E+01 0.32399678055E+01 0.86838005698E+00 0.18487825497E+00 0.34688995686E-01
 0.34613472707E-02 0.46704093395E-03 0.12416311229E-03 0.71232866936E-05 0.24726182660E-04
 0.31864123779E-04 0.18928710370E-05 0.44623195084E-04 -.49646279406E-04 0.15068643496E-03
 0.48730041229E-03 0.34788938290E-02 0.20705111629E-01 0.12423610848E+00 0.68394909514E+00
 0.32399581830E+01 0.11553499573E+02 0.24553819569E+02 0.24553577772E+02 0.11553310958E+02
 0.32401083550E+01 0.68387276022E+00 0.12426939892E+00 0.20781278382E-01 0.15650440556E-02
 0.16603773972E-03 0.88094642659E-04 -.34363958183E-04 0.49821003701E-04 -.32242228301E-04
 0.47974207480E-04 -.15630840179E-04 0.85592284151E-04 0.19506092244E-03 0.15557821996E-02
 0.92247206038E-02 0.58858507823E-01 0.34716192151E+00 0.18602317624E+01 0.81990582044E+01
 0.24553819569E+02 0.37388092677E+02 0.24553737549E+02 0.81990526783E+01 0.18603055054E+01
 0.34701683666E+00 0.58912923481E-01 0.91967634463E-02 0.45659201047E-03 0.12154653985E-03
 -.69303157500E-05 0.10873914821E-04 0.73091426397E-05 -.13125082184E-04 0.30136662755E-04
 -.32782501823E-04 0.13511183732E-03 0.41993249094E-03 0.34978826230E-02 0.20745153339E-01
 0.12429422465E+00 0.68382871615E+00 0.32400073356E+01 0.11553380298E+02 0.24553577772E+02
 0.24553737549E+02 0.11553428231E+02 0.32400281209E+01 0.68376087467E+00 0.12426311003E+00
 0.20747887277E-01 0.34470332408E-02 0.17200486529E-03 0.98731584335E-05 0.20927127409E-04
 -.16131634055E-04 0.19990663688E-04 -.20615867295E-04 0.31183149111E-04 -.26102409161E-05
 0.20354048421E-03 0.95343584104E-03 0.60082452810E-02 0.34647416922E-01 0.18489183947E+00
 0.86828349284E+00 0.32399204970E+01 0.81990583601E+01 0.11553310958E+02 0.81990526783E+01
 0.32400281209E+01 0.86822570246E+00 0.18486971738E+00 0.34745745873E-01 0.59617863736E-02
 0.97533796150E-03 0.43261397162E-04 0.86950338779E-05 -.17453070728E-06 0.68771786111E-06
 0.18674542353E-05 -.21913489785E-05 0.12088667105E-04 0.33037337953E-04 0.25781366939E-03
 0.14641731615E-02 0.80409398046E-02 0.41217609231E-01 0.18493219981E+00 0.68388811730E+00
 0.18600243983E+01 0.32399678055E+01 0.32401083550E+01 0.18603055054E+01 0.68376087467E+00
 0.18486971738E+00 0.41292103334E-01 0.79872877087E-02 0.15110850760E-02 0.24436824648E-03
 -.12965880234E-04 0.20592716941E-04 -.15477774972E-04 0.13724934284E-04 -.11246436151E-04
 0.11589510014E-04 0.27757268700E-05 0.67110087682E-04 0.31906586837E-03 0.16943806387E-02
 0.80501868602E-02 0.34633644600E-01 0.12422015164E+00 0.34743606129E+00 0.68391579974E+00
 0.86838005698E+00 0.68387276022E+00 0.34701683666E+00 0.12426311003E+00 0.34745745873E-01
 0.79872877087E-02 0.17832091199E-02 0.27428423620E-03 0.86326133009E-04 0.15324617410E-04
 -.11075605948E-04 0.11081368036E-04 -.10878300480E-04 0.11773934881E-04 -.97031497452E-05
 0.25058917798E-04 0.49548732334E-04 0.33679202230E-03 0.14461695987E-02 0.60045263518E-02
 0.20854909101E-01 0.58650615492E-01 0.12420323074E+00 0.18487435437E+00 0.18487825497E+00
 0.12426939892E+00 0.58912923481E-01 0.20747887277E-01 0.59617863737E-02 0.15110850759E-02
 0.27428423620E-03 0.89915378551E-04 -.16364479886E-05 -.35627804819E-05 0.28071896633E-05
 -.19224143494E-05 0.15902467031E-05 -.69209015907E-06 0.34705949053E-05 0.12225728854E-04
 0.60412761259E-04 0.25566283448E-03 0.99424698308E-03 0.33520181365E-02 0.94113170343E-02
 0.20853402014E-01 0.34654210512E-01 0.41207200199E-01 0.34688995686E-01 0.20781278382E-01
 0.91967634463E-02 0.34470332409E-02 0.97533796151E-03 0.24436824643E-03 0.86326132983E-04
 -.16364480051E-05 0.70028961841E-05 -.34598878679E-05 0.25885923567E-05 -.19368924955E-05
 0.15746155365E-05 -.50818312900E-06 0.29484659722E-05 0.95132910524E-05 0.35037598660E-04
 0.11554811374E-03 0.32425776604E-03 0.76959724312E-03 0.14657925639E-02 0.22104239463E-02
 0.25565733893E-02 0.22795395723E-02 0.14843373109E-02 0.69558818599E-03 0.29400226222E-03
 0.17390220348E-03 0.45657423359E-04 -.94396085305E-05 0.15324617390E-04 -.65188253349E-05
 0.41545529424E-05 0.25885923872E-05 -.19085341317E-05 0.14189337718E-05 -.90704200923E-06
 0.10992445477E-05 0.12960537001E-05 0.55541890103E-05 0.18706919626E-04 0.51648159435E-04
 0.12691448092E-03 0.25347707121E-03 0.41655592029E-03 0.52700702507E-03 0.51567003723E-03
 0.36496981313E-03 0.25675083852E-03 0.18079521226E-03 0.64049294234E-04 -.30915433894E-04
 -.44340041787E-05 0.15632968933E-04 -.11075605961E-04 0.54084291687E-05 -.29341532354E-05
 -.19368925015E-05 0.14189338153E-05 -.91140031919E-06 0.71054399181E-06 0.30269342906E-07
 0.11114540763E-05 0.40194516510E-05 0.92099246030E-05 0.24402575190E-04 0.47485621683E-04
 0.82029872991E-04 0.10755648940E-03 0.12457488291E-03 0.11679782830E-03 0.11887551267E-03
 0.44362531077E-04 -.24255042552E-04 0.61001386749E-05 0.48910306400E-04 0.13477359318E-04
 -.10091023195E-04 0.11081368047E-04 -.40865836922E-05 0.22497358208E-05 0.15746155854E-05
 -.90704200244E-06 0.71054402154E-06 -.14712202222E-06 0.35551946069E-06 0.12319418316E-05
 0.18568672938E-05 0.71738062664E-05 0.12309726747E-04 0.24417304365E-04 0.34533972786E-04
 0.47669571102E-04 0.43697654663E-04 0.34139301440E-04 -.10565625805E-04 0.15047948052E-04
 0.50301624328E-04 0.15292919975E-05 -.42905300383E-04 -.14910293588E-04 0.75895036035E-05
 -.10878300475E-04 0.33199436208E-05 -.15873611562E-05 -.50818317749E-06 0.10992445494E-05
 0.30269359144E-07 0.35551944780E-06 0.93451771144E-06 0.13647434000E-05 0.59625136333E-05
 0.10540132584E-04 0.24402575204E-04 0.38192102626E-04 0.54391147687E-04 0.56062638537E-04
 0.54252275010E-04 0.38277949542E-04 0.56491236526E-04 0.12929882543E-04 -.37143224607E-04
 0.59758867863E-05 0.44760328952E-04 0.18987204693E-04 -.43012306379E-05 0.11773934893E-04
 -.18919162483E-05 0.18210694887E-05 0.29484659619E-05 0.12960536951E-05 0.11114540760E-05
 0.12319418560E-05 0.13647434230E-05 0.56703176748E-05 0.11478239252E-04 0.29571261748E-04
 0.51648159440E-04 0.81950384197E-04 0.10019855465E-03 0.10298476295E-03 0.78462299836E-04
 0.54829840165E-04 -.37274469237E-05 0.85443329971E-05 0.45906558928E-04 -.46700421874E-05
 -.45027404501E-04 -.21458692856E-04 0.33829971721E-05 -.97031497737E-05 0.44196155738E-05
 0.19192263716E-05 0.95132909961E-05 0.55541890173E-05 0.40194516951E-05 0.18568673055E-05
 0.59625136326E-05 0.11478239222E-04 0.32958248818E-04 0.63748436484E-04 0.11554811371E-03
 0.15958263645E-03 0.18081569016E-03 0.16063764624E-03 0.11769478484E-03 0.49987086454E-04
 0.53557664985E-04 0.30233220104E-04 -.35798372492E-04 0.10667380664E-04 0.54631212472E-04
 0.32299483029E-04 0.11359574342E-04 0.25058917758E-04 0.13401255867E-04 0.12559326534E-04
 0.35037598710E-04 0.18706919655E-04 0.92099246173E-05 0.71738062540E-05 0.10540132563E-04
 0.29571261757E-04 0.63748436473E-04 0.12910763331E-03 0.19920945372E-03 0.25566283447E-03
 0.26317559040E-03 0.22212186646E-03 0.15109205955E-03 0.89551730225E-04 -.38278544678E-04
 -.35391733442E-05 0.58726464486E-04 -.14260382968E-04 -.33773456105E-04 -.74711318561E-06
 0.49619001690E-04 0.49548732323E-04 0.66447341274E-04 0.51855887940E-04 0.11554811368E-03
 0.51648159447E-04 0.24402575219E-04 0.12309726766E-04 0.24402575227E-04 0.51648159455E-04
 0.11554811367E-03 0.19920945370E-03 0.28912631960E-03 0.33679202231E-03 0.29791358385E-03
 0.23568107165E-03 0.18798524129E-03 0.65466758056E-04 -.30070876563E-05 0.34032835228E-04
 -.30070876409E-05 0.65466758010E-04 0.18798524136E-03 0.23568107165E-03 0.29791358382E-03
 0.33679202233E-03 0.28912631962E-03 0.19920945370E-03 0.32425776605E-03 0.12691448090E-03
 0.47485621728E-04 0.24417304346E-04 0.38192102624E-04 0.81950384203E-04 0.15958263644E-03
 0.25566283447E-03 0.33679202231E-03 0.31906586835E-03 0.25781366942E-03 0.20354048422E-03
 0.13511183731E-03 0.85592284152E-04 -.49646279388E-04 0.67101509851E-04 0.19492894939E-03
 0.28105166757E-03 0.60539832989E-03 0.10770945560E-02 0.14626599316E-02 0.14461695987E-02
 0.11289549240E-02 0.67297053850E-03 0.76959724312E-03 0.25347707122E-03 0.82029872995E-04
 0.34533972775E-04 0.54391147663E-04 0.10019855463E-03 0.18081569019E-03 0.26317559041E-03
 0.29791358384E-03 0.25781366944E-03 0.20912612380E-03 0.15548617723E-03 0.19899200208E-03
 -.84584969509E-05 0.28940180627E-04 0.27509670949E-03 0.63939310246E-03 0.19625395556E-02
 0.39607801960E-02 0.60256223970E-02 0.69526332773E-02 0.60045263518E-02 0.38700208416E-02
 0.19206217093E-02 0.14657925639E-02 0.41655592025E-03 0.10755648942E-03 0.47669571154E-04
 0.56062638496E-04 0.10298476294E-03 0.16063764616E-03 0.22212186644E-03 0.23568107165E-03
 0.20354048421E-03 0.15548617725E-03 0.21906996806E-03 0.21040239918E-04 -.37003275189E-04
 0.38986833175E-03 0.15070550628E-02 0.45645627910E-02 0.10898778724E-01 0.20758983730E-01
 0.29154831017E-01 0.29162869698E-01 0.20854909101E-01 0.10980070748E-01 0.44680989229E-02
 0.22104239462E-02 0.52700702506E-03 0.12457488289E-03 0.43697654627E-04 0.54252274857E-04
 0.78462299847E-04 0.11769478494E-03 0.15109205957E-03 0.18798524138E-03 0.13511183735E-03
 0.19899200205E-03 0.21040239817E-04 -.20055901373E-04 0.52871708584E-03 0.23865451693E-02
 0.80469678586E-02 0.24627184304E-01 0.58809093208E-01 0.10251159693E+00 0.12424069291E+00
 0.10243132087E+00 0.58650615492E-01 0.24650216699E-01 0.80718045844E-02 0.25565733893E-02
 0.51567003724E-03 0.11679782828E-03 0.34139301408E-04 0.38277949567E-04 0.54829840157E-04
 0.49987086423E-04 0.89551730270E-04 0.65466758040E-04 0.85592284136E-04 -.84584969446E-05
 -.37003275217E-04 0.52871708586E-03 0.26917189722E-02 0.10877461950E-01 0.41225412302E-01
 0.12428304327E+00 0.28005253029E+00 0.43275064576E+00 0.43278271663E+00 0.28018958807E+00
 0.12420323074E+00 0.41179826611E-01 0.10929538398E-01 0.22795395723E-02 0.36496981311E-03
 0.11887551266E-03 -.10565625793E-04 0.56491236505E-04 -.37274469200E-05 0.53557664883E-04
 -.38278544650E-04 -.30070876570E-05 -.49646279371E-04 0.28940180620E-04 0.38986833178E-03
 0.23865451693E-02 0.10877461950E-01 0.49231313014E-01 0.18487584668E+00 0.54233343650E+00
 0.11101275314E+01 0.14307562930E+01 0.11101196091E+01 0.54233757640E+00 0.18487435437E+00
 0.49222380310E-01 0.10879287322E-01 0.14843373108E-02 0.25675083848E-03 0.44362531118E-04
 0.15047948068E-04 0.12929882542E-04 0.85443329848E-05 0.30233220066E-04 -.35391733376E-05
 0.34032835200E-04 0.67101509863E-04 0.27509670947E-03 0.15070550628E-02 0.80469678585E-02
 0.41225412302E-01 0.18487584668E+00 0.68390481757E+00 0.18600351092E+01 0.32399215450E+01
 0.32400065496E+01 0.18602399935E+01 0.68394312268E+00 0.18487825497E+00 0.41235302630E-01
 0.80029072912E-02 0.69558818603E-03 0.18079521225E-03 -.24255042522E-04 0.50301624320E-04
 -.37143224619E-04 0.45906558942E-04 -.35798372497E-04 0.58726464545E-04 -.30070876494E-05
 0.19492894939E-03 0.63939310247E-03 0.45645627910E-02 0.24627184304E-01 0.12428304327E+00
 0.54233343650E+00 0.18600351092E+01 0.43515644254E+01 0.59261051484E+01 0.43517195510E+01
 0.18601686743E+01 0.54213640063E+00 0.12426939892E+00 0.24581784577E-01 0.45299370869E-02
 0.29400226223E-03 0.64049294213E-04 0.61001387020E-05 0.15292919768E-05 0.59758867940E-05
 -.46700421737E-05 0.10667380647E-04 -.14260382992E-04 0.65466758031E-04 0.28105166758E-03
 0.19625395555E-02 0.10898778724E-01 0.58809093208E-01 0.28005253029E+00 0.11101275314E+01
 0.32399215450E+01 0.59261051484E+01 0.59261971491E+01 0.32401108265E+01 0.11100704387E+01
 0.28004134095E+00 0.58912923481E-01 0.10855842679E-01 0.20134699420E-02 0.17390220361E-03
 -.30915433914E-04 0.48910306366E-04 -.42905300367E-04 0.44760328910E-04 -.45027404533E-04
 0.54631212530E-04 -.33773456114E-04 0.18798524135E-03 0.60539832990E-03 0.39607801961E-02
 0.20758983730E-01 0.10251159693E+00 0.43275064576E+00 0.14307562930E+01 0.32400065496E+01
 0.43517195510E+01 0.32401108265E+01 0.14307074939E+01 0.43260483777E+00 0.10263955666E+00
 0.20747887277E-01 0.39848917246E-02 0.61381137956E-03 0.45657423338E-04 -.44340041774E-05
 0.13477359378E-04 -.14910293594E-04 0.18987204699E-04 -.21458692855E-04 0.32299483017E-04
 -.74711319450E-06 0.23568107162E-03 0.10770945561E-02 0.60256223970E-02 0.29154831017E-01
 0.12424069291E+00 0.43278271663E+00 0.11101196091E+01 0.18602399935E+01 0.18601686743E+01
 0.11100704387E+01 0.43260483777E+00 0.12438662656E+00 0.29187774883E-01 0.59617863736E-02
 0.11371789595E-02 0.19855556422E-03 -.94396085169E-05 0.15632968877E-04 -.10091023160E-04
 0.75895035563E-05 -.43012306578E-05 0.33829971746E-05 0.11359574365E-04 0.49619001731E-04
 0.29791358387E-03 0.14626599316E-02 0.69526332774E-02 0.29162869698E-01 0.10243132087E+00
 0.28018958807E+00 0.54233757640E+00 0.68394312268E+00 0.54213640063E+00 0.28004134095E+00
 0.10263955666E+00 0.29187774883E-01 0.68417930066E-02 0.15110850759E-02 0.23927397041E-03
 0.81848806422E-04 0.15324617410E-04 -.11075605943E-04 0.11081368049E-04 -.10878300490E-04
 0.11773934880E-04 -.97031497565E-05 0.25058917800E-04 0.49548732314E-04 0.33679202231E-03
 0.14461695987E-02 0.60045263518E-02 0.20854909101E-01 0.58650615492E-01 0.12420323074E+00
 0.18487435437E+00 0.18487825497E+00 0.12426939892E+00 0.58912923481E-01 0.20747887277E-01
 0.59617863736E-02 0.15110850759E-02 0.27428423622E-03 0.89915378547E-04 -.16364480026E-05
 -.65188253297E-05 0.54084291593E-05 -.40865836892E-05 0.33199436098E-05 -.18919162926E-05
 0.44196155614E-05 0.13401255838E-04 0.66447341293E-04 0.28912631958E-03 0.11289549240E-02
 0.38700208416E-02 0.10980070748E-01 0.24650216699E-01 0.41179826611E-01 0.49222380310E-01
 0.41235302630E-01 0.24581784577E-01 0.10855842679E-01 0.39848917246E-02 0.11371789595E-02
 0.23927397037E-03 0.89915378506E-04 0.35377298995E-06 0.11549342786E-04 0.41545529263E-05
 -.29341532304E-05 0.22497358212E-05 -.15873611650E-05 0.18210694977E-05 0.19192263570E-05
 0.12559326494E-04 0.51855887923E-04 0.19920945372E-03 0.67297053852E-03 0.19206217093E-02
 0.44680989229E-02 0.80718045844E-02 0.10929538398E-01 0.10879287322E-01 0.80029072912E-02
 0.45299370870E-02 0.20134699420E-02 0.61381137961E-03 0.19855556423E-03 0.81848806391E-04
 -.16364480107E-05 0.11549342803E-04 -.43034387142E-05 0.91892329567E-06 -.45388019626E-06
 0.14509456762E-06 0.20481155819E-06 0.21175161295E-06 0.23663039835E-05 0.60969899406E-05
 0.23136904116E-04 0.63748436485E-04 0.15847485865E-03 0.32091826181E-03 0.52664237768E-03
 0.67410738354E-03 0.65209219510E-03 0.49585068104E-03 0.28620598882E-03 0.17183528858E-03
 0.12069532588E-03 0.15885425103E-04 0.38302075736E-05 0.14783684182E-04 -.35627805023E-05
 0.41545529596E-05 -.97583975505E-06 -.45388017106E-06 0.16284349895E-06 0.81585838705E-07
 -.10006107800E-06 0.65849978225E-06 0.90302485837E-06 0.47987873906E-05 0.11395645829E-04
 0.29571261752E-04 0.60933867455E-04 0.10371024378E-03 0.14443857755E-03 0.15952031653E-03
 0.16235521608E-03 0.11877306562E-03 0.84505384644E-04 0.32139780066E-04 -.30714294685E-04
 0.24351352996E-05 0.62271028614E-06 -.10582872530E-04 0.28071896440E-05 -.29341532321E-05
 0.40766607361E-06 0.14509460769E-06 0.81585837954E-07 -.19176225483E-06 0.40296809593E-06
 -.11872689383E-06 0.11878188044E-05 0.14488180139E-05 0.55571247469E-05 0.10540132547E-04
 0.18965152183E-04 0.29940091536E-04 0.36213616264E-04 0.40089731900E-04 0.15636904135E-04
 0.96996105207E-05 -.97660450861E-05 -.34453838838E-05 0.38387992515E-04 0.71422222834E-05
 0.27591886479E-05 0.99872165994E-05 -.19224143654E-05 0.22497358284E-05 -.17110963410E-07
 0.20481149629E-06 -.10006107204E-06 0.40296809438E-06 -.25698332045E-06 0.64512683340E-06
 0.25316758699E-06 0.22654665272E-05 0.33066859519E-05 0.71738062444E-05 0.12221959058E-04
 0.14423231360E-04 0.17889547965E-04 0.11170186672E-04 0.23487308127E-04 0.14659538787E-04
 0.21984261050E-04 0.15057869078E-04 -.30967841683E-04 -.96839578917E-05 -.38935121272E-05
 -.93037161508E-05 0.15902467092E-05 -.15873611701E-05 -.86808466765E-07 0.21175158901E-06
 0.65849977364E-06 -.11872692362E-06 0.64512682213E-06 0.54366496684E-07 0.14624918744E-05
 0.20283686872E-05 0.55571247358E-05 0.92099245947E-05 0.12022784751E-04 0.17011914835E-04
 0.13376807106E-04 0.17086320730E-04 -.17846444779E-05 -.94370092239E-06 -.14244716113E-04
 -.17049250952E-04 0.28510579550E-04 0.13379293821E-04 0.57976337964E-05 0.95686918209E-05
 -.69209016964E-06 0.18210694659E-05 0.95042549235E-06 0.23663039592E-05 0.90302486358E-06
 0.11878188021E-05 0.25316760551E-06 0.14624918489E-05 0.23296447957E-05 0.63320170363E-05
 0.11395645796E-04 0.18706919646E-04 0.27746025924E-04 0.27378718386E-04 0.30549129737E-04
 0.15849832042E-04 0.21551890427E-04 0.10217526422E-04 0.17886145677E-04 0.25054802420E-04
 -.24381267129E-04 -.15493307743E-04 -.60565048872E-05 -.73324972188E-05 0.34705948918E-05
 0.19192263774E-05 0.20023541808E-05 0.60969899484E-05 0.47987874236E-05 0.14488180354E-05
 0.22654664964E-05 0.20283686633E-05 0.63320170595E-05 0.12056358332E-04 0.23136904123E-04
 0.35037598644E-04 0.40352593531E-04 0.44929344246E-04 0.27563344327E-04 0.26300337461E-04
 0.13775877270E-04 0.11705897760E-04 -.20376013946E-04 -.29669869031E-04 0.25643319530E-04
 0.22502107606E-04 0.17304299074E-04 0.19342694852E-04 0.12225728902E-04 0.12559326513E-04
 0.11315649193E-04 0.23136904103E-04 0.11395645834E-04 0.55571247736E-05 0.33066859376E-05
 0.55571247902E-05 0.11395645822E-04 0.23136904130E-04 0.38245563943E-04 0.51855887926E-04
 0.60412761224E-04 0.40959575212E-04 0.27951898914E-04 -.43320989590E-05 0.16101939626E-05
 0.35088259994E-04 0.21992492465E-04 0.35088259974E-04 0.16101939960E-05 -.43320989050E-05
 0.27951898961E-04 0.40959575214E-04 0.60412761253E-04 0.51855887935E-04 0.38245563912E-04
 0.63748436478E-04 0.29571261755E-04 0.10540132564E-04 0.71738062632E-05 0.92099245829E-05
 0.18706919645E-04 0.35037598716E-04 0.51855887947E-04 0.66447341289E-04 0.49548732322E-04
 0.49619001721E-04 -.74711319792E-06 -.33773456191E-04 -.14260382972E-04 0.58726464528E-04
 -.35391733454E-05 -.38278544647E-04 0.89551730265E-04 0.15109205962E-03 0.22212186647E-03
 0.26317559046E-03 0.25566283447E-03 0.19920945371E-03 0.12910763329E-03 0.15847485866E-03
 0.60933867457E-04 0.18965152165E-04 0.12221959066E-04 0.12022784742E-04 0.27746025937E-04
 0.40352593549E-04 0.60412761253E-04 0.49548732301E-04 0.67110087686E-04 0.33037337963E-04
 -.26102408989E-05 -.32782501741E-04 -.15630840180E-04 0.44623195044E-04 0.34945777931E-04
 0.20272156138E-03 0.35371731047E-03 0.62049412323E-03 0.97202526617E-03 0.11103423767E-02
 0.99424698305E-03 0.67297053850E-03 0.36565179451E-03 0.32091826180E-03 0.10371024380E-03
 0.29940091548E-04 0.14423231371E-04 0.17011914748E-04 0.27378718390E-04 0.44929344244E-04
 0.40959575228E-04 0.49619001696E-04 0.33037337972E-04 0.10344388114E-04 -.27027421294E-04
 -.10115827755E-03 0.36270209513E-04 0.19281792206E-03 0.32107665970E-03 0.85933577381E-03
 0.19734509939E-02 0.34193769209E-02 0.44959962476E-02 0.44800682834E-02 0.33520181365E-02
 0.19206217093E-02 0.87253140160E-03 0.52664237770E-03 0.14443857752E-03 0.36213616307E-04
 0.17889547966E-04 0.13376807107E-04 0.30549129709E-04 0.27563344327E-04 0.27951898906E-04
 -.74711318972E-06 -.26102409064E-05 -.27027421275E-04 -.11306803998E-03 0.31733526939E-04
 0.31444760032E-03 0.50517621753E-03 0.16509054976E-02 0.45283016063E-02 0.93303272329E-02
 0.15006160989E-01 0.17679498878E-01 0.15056524994E-01 0.94113170344E-02 0.44680989229E-02
 0.16791792343E-02 0.67410738345E-03 0.15952031653E-03 0.40089731993E-04 0.11170186649E-04
 0.17086320640E-04 0.15849831986E-04 0.26300337491E-04 -.43320988739E-05 -.33773456080E-04
 -.32782501822E-04 -.10115827754E-03 0.31733526953E-04 0.32853464234E-03 0.63402301390E-03
 0.24462983817E-02 0.80323353051E-02 0.20757364674E-01 0.41173237313E-01 0.58706269924E-01
 0.58668696328E-01 0.41143466357E-01 0.20853402014E-01 0.80718045844E-02 0.25335373671E-02
 0.65209219507E-03 0.16235521608E-03 0.15636904154E-04 0.23487308112E-04 -.17846444454E-05
 0.21551890404E-04 0.13775877275E-04 0.16101939923E-05 -.14260382976E-04 -.15630840204E-04
 0.36270209524E-04 0.31444760032E-03 0.63402301402E-03 0.28345142822E-02 0.10921222904E-01
 0.34629820435E-01 0.84767321710E-01 0.15124392614E+00 0.18492878087E+00 0.15125558072E+00
 0.84786649809E-01 0.34654210512E-01 0.10929538398E-01 0.29554073281E-02 0.49585068098E-03
 0.11877306560E-03 0.96996105386E-05 0.14659538770E-04 -.94370091688E-06 0.10217526395E-04
 0.11705897729E-04 0.35088260003E-04 0.58726464526E-04 0.44623195045E-04 0.19281792209E-03
 0.50517621756E-03 0.24462983817E-02 0.10921222904E-01 0.41165453150E-01 0.12420370221E+00
 0.28018900868E+00 0.43277990012E+00 0.43274735676E+00 0.28004755496E+00 0.12426543561E+00
 0.41207200199E-01 0.10879287322E-01 0.25725785835E-02 0.28620598882E-03 0.84505384630E-04
 -.97660451155E-05 0.21984261004E-04 -.14244716110E-04 0.17886145658E-04 -.20376013951E-04
 0.21992492514E-04 -.35391733478E-05 0.34945777958E-04 0.32107665970E-03 0.16509054976E-02
 0.80323353052E-02 0.34629820435E-01 0.12420370221E+00 0.34744398161E+00 0.68388258181E+00
 0.86828163316E+00 0.68383680741E+00 0.34716903588E+00 0.12425110126E+00 0.34688995686E-01
 0.80029072913E-02 0.17466522497E-02 0.17183528862E-03 0.32139780059E-04 -.34453838771E-05
 0.15057869084E-04 -.17049250949E-04 0.25054802412E-04 -.29669869020E-04 0.35088259993E-04
 -.38278544673E-04 0.20272156139E-03 0.85933577382E-03 0.45283016063E-02 0.20757364674E-01
 0.84767321710E-01 0.28018900868E+00 0.68388258181E+00 0.11102262708E+01 0.11102518215E+01
 0.68376228541E+00 0.28002450864E+00 0.84999653087E-01 0.20781278382E-01 0.45299370869E-02
 0.86137184907E-03 0.12069532587E-03 -.30714294710E-04 0.38387992498E-04 -.30967841676E-04
 0.28510579590E-04 -.24381267128E-04 0.25643319554E-04 0.16101939914E-05 0.89551730242E-04
 0.35371731051E-03 0.19734509939E-02 0.93303272329E-02 0.41173237313E-01 0.15124392614E+00
 0.43277990012E+00 0.86828163316E+00 0.11102518215E+01 0.86803277173E+00 0.43259225179E+00
 0.15138290644E+00 0.41256749166E-01 0.91967634463E-02 0.20134699420E-02 0.26813823153E-03
 0.15885425004E-04 0.24351353185E-05 0.71422222687E-05 -.96839578814E-05 0.13379293795E-04
 -.15493307794E-04 0.22502107399E-04 -.43320988816E-05 0.15109205959E-03 0.62049412331E-03
 0.34193769211E-02 0.15006160989E-01 0.58706269924E-01 0.18492878087E+00 0.43274735676E+00
 0.68383680741E+00 0.68376228541E+00 0.43259225179E+00 0.18508737688E+00 0.58822948895E-01
 0.14811890873E-01 0.34470332408E-02 0.61381137961E-03 0.13096615639E-03 0.38302075508E-05
 0.62271022817E-06 0.27591886869E-05 -.38935121246E-05 0.57976337733E-05 -.60565048762E-05
 0.17304299023E-04 0.27951898945E-04 0.22212186645E-03 0.97202526616E-03 0.44959962477E-02
 0.17679498878E-01 0.58668696328E-01 0.15125558072E+00 0.28004755496E+00 0.34716903588E+00
 0.28002450864E+00 0.15138290644E+00 0.58822948895E-01 0.17453879388E-01 0.45417614752E-02
 0.97533796151E-03 0.19855556423E-03 0.34098799512E-04 0.14783684118E-04 -.10582872540E-04
 0.99872165814E-05 -.93037162082E-05 0.95686918806E-05 -.73324972177E-05 0.19342694888E-04
 0.40959575220E-04 0.26317559044E-03 0.11103423767E-02 0.44800682834E-02 0.15056524994E-01
 0.41143466357E-01 0.84786649809E-01 0.12426543561E+00 0.12425110126E+00 0.84999653087E-01
 0.41256749166E-01 0.14811890873E-01 0.45417614752E-02 0.11529556019E-02 0.24436824650E-03
 0.81848806446E-04 -.90613159170E-05 -.35627804847E-05 0.28071896687E-05 -.19224143901E-05
 0.15902467131E-05 -.69209016364E-06 0.34705948889E-05 0.12225728863E-04 0.60412761245E-04
 0.25566283445E-03 0.99424698308E-03 0.33520181365E-02 0.94113170344E-02 0.20853402014E-01
 0.34654210512E-01 0.41207200199E-01 0.34688995686E-01 0.20781278382E-01 0.91967634463E-02
 0.34470332409E-02 0.97533796150E-03 0.24436824651E-03 0.86326133004E-04 -.16364480078E-05
 0.70028961666E-05 0.41545529553E-05 -.29341532242E-05 0.22497358054E-05 -.15873611610E-05
 0.18210695187E-05 0.19192263502E-05 0.12559326469E-04 0.51855887913E-04 0.19920945369E-03
 0.67297053850E-03 0.19206217093E-02 0.44680989229E-02 0.80718045844E-02 0.10929538398E-01
 0.10879287322E-01 0.80029072912E-02 0.45299370870E-02 0.20134699420E-02 0.61381137964E-03
 0.19855556425E-03 0.81848806442E-04 -.16364480178E-05 0.11549342780E-04 -.43034387193E-05
 -.97583974425E-06 0.40766609683E-06 -.17110981207E-07 -.86808482325E-07 0.95042548687E-06
 0.20023541684E-05 0.11315649147E-04 0.38245563919E-04 0.12910763331E-03 0.36565179448E-03
 0.87253140159E-03 0.16791792343E-02 0.25335373671E-02 0.29554073281E-02 0.25725785836E-02
 0.17466522497E-02 0.86137184906E-03 0.26813823153E-03 0.13096615637E-03 0.34098799516E-04
 -.90613158918E-05 0.70028961876E-05 -.43034386912E-05 0.13020508943E-05  
