qvasp                                   
   1.00000000000000     
     0.000000    1.783400    1.783400
     1.783400    0.000000    1.783400
     1.783400    1.783400    0.000000
   C 
     2
Direct
  0.750000  0.750000  0.750000
  0.500000  0.500000  0.500000
 
   24   24   24
  1.00853630980E+00  1.04701283568E+00  1.16701044074E+00  1.37980050848E+00  1.69880956514E+00
  2.13523360584E+00  2.69327211045E+00  3.36260302186E+00  4.10828239875E+00  4.86247251310E+00
  5.52587361614E+00  5.98595976118E+00  6.15112358932E+00  5.98585200540E+00  5.52581432390E+00
  4.86252875073E+00  4.10834233776E+00  3.36258289041E+00  2.69318832565E+00  2.13511341470E+00
  1.69870985554E+00  1.37979215289E+00  1.16706346011E+00  1.04707487312E+00  1.04701283568E+00
  1.10831983127E+00  1.23856106911E+00  1.44898603700E+00  1.74998262560E+00  2.14695438611E+00
  2.63544355078E+00  3.19467823012E+00  3.78164204574E+00  4.33042487263E+00  4.76120028713E+00
  4.99947268788E+00  4.99956291825E+00  4.76125462658E+00  4.33010408932E+00  3.78103684841E+00
  3.19427715270E+00  2.63556121864E+00  2.14735339323E+00  1.75025690953E+00  1.44902079488E+00
  1.23855386354E+00  1.10842645989E+00  1.04708771082E+00  1.16701044074E+00  1.23856106911E+00
  1.36776696427E+00  1.56476782107E+00  1.83669215546E+00  2.18370470018E+00  2.59479403511E+00
  3.04337711277E+00  3.48546259931E+00  3.86402247746E+00  4.12076944754E+00  4.21179384382E+00
  4.12076015317E+00  3.86401078476E+00  3.48545071810E+00  3.04334774626E+00  2.59474876482E+00
  2.18370416861E+00  1.83678149787E+00  1.56488774770E+00  1.36783228623E+00  1.23856574020E+00
  1.16698373131E+00  1.14430958209E+00  1.37980050848E+00  1.44898603700E+00  1.56476782107E+00
  1.73586768014E+00  1.96649556664E+00  2.25287239232E+00  2.58024589797E+00  2.92092939457E+00
  3.23544958097E+00  3.47899114198E+00  3.61216851469E+00  3.61206063015E+00  3.47885713205E+00
  3.23561626854E+00  2.92142274545E+00  2.58072626977E+00  2.25297135291E+00  1.96619322188E+00
  1.73546199086E+00  1.56455220687E+00  1.44897720906E+00  1.37984351104E+00  1.34809254062E+00
  1.34807210641E+00  1.69880956514E+00  1.74998262560E+00  1.83669215546E+00  1.96649556664E+00
  2.14148550641E+00  2.35594654967E+00  2.59476473581E+00  2.83304160092E+00  3.03868457565E+00
  3.17884421340E+00  3.22868713156E+00  3.17891998581E+00  3.03878002429E+00  2.83313466746E+00
  2.59487779071E+00  2.35604385958E+00  2.14147202369E+00  1.96636220167E+00  1.83653054870E+00
  1.74986841616E+00  1.69874829749E+00  1.67345405508E+00  1.66603271832E+00  1.67347133125E+00
  2.13523360584E+00  2.14695438611E+00  2.18370470018E+00  2.25287239232E+00  2.35594654967E+00
  2.48769058539E+00  2.63545956328E+00  2.77938422279E+00  2.89513965279E+00  2.95999001591E+00
  2.96004641873E+00  2.89524581821E+00  2.77940723719E+00  2.63527922246E+00  2.48730782600E+00
  2.35559695180E+00  2.25286343403E+00  2.18407944249E+00  2.14736625227E+00  2.13531320011E+00
  2.13703499477E+00  2.14151863242E+00  2.14167549347E+00  2.13726085830E+00  2.69327211045E+00
  2.63544355078E+00  2.59479403511E+00  2.58024589797E+00  2.59476473581E+00  2.63545956328E+00
  2.69334254795E+00  2.75381860919E+00  2.79973241829E+00  2.81688504643E+00  2.79971518363E+00
  2.75377839257E+00  2.69328968632E+00  2.63541154117E+00  2.59470743587E+00  2.58017252859E+00
  2.59475333547E+00  2.63554835847E+00  2.69347584302E+00  2.75389795057E+00  2.79973424133E+00
  2.81686967273E+00  2.79971169319E+00  2.75376215499E+00  3.36260302186E+00  3.19467823012E+00
  3.04337711277E+00  2.92092939457E+00  2.83304160092E+00  2.77938422279E+00  2.75381860919E+00
  2.74618082075E+00  2.74584712353E+00  2.74592536533E+00  2.74626752409E+00  2.75375656640E+00
  2.77939031541E+00  2.83338308452E+00  2.92135348113E+00  3.04346923519E+00  3.19432881640E+00
  3.36217579048E+00  3.52712104254E+00  3.66179343114E+00  3.73812120284E+00  3.73798522779E+00
  3.66160566980E+00  3.52721415140E+00  4.10828239875E+00  3.78164204574E+00  3.48546259931E+00
  3.23544958097E+00  3.03868457565E+00  2.89513965279E+00  2.79973241829E+00  2.74584712353E+00
  2.72854370466E+00  2.74600155342E+00  2.79984727637E+00  2.89519021628E+00  3.03877987531E+00
  3.23557351678E+00  3.48551987373E+00  3.78169051412E+00  4.10828690586E+00  4.43784846069E+00
  4.72919638938E+00  4.93275960255E+00  5.00631757029E+00  4.93295620914E+00  4.72939619131E+00
  4.43795130294E+00  4.86247251310E+00  4.33042487263E+00  3.86402247746E+00  3.47899114198E+00
  3.17884421340E+00  2.95999001591E+00  2.81688504643E+00  2.74592536533E+00  2.74600155342E+00
  2.81700467453E+00  2.96008417027E+00  3.17884975825E+00  3.47883266096E+00  3.86373968011E+00
  4.33019058037E+00  4.86264669828E+00  5.42612732373E+00  5.96139561433E+00  6.38895903467E+00
  6.62853978236E+00  6.62867828690E+00  6.38906008352E+00  5.96117287737E+00  5.42570305086E+00
  5.52587361614E+00  4.76120028713E+00  4.12076944754E+00  3.61216851469E+00  3.22868713156E+00
  2.96004641873E+00  2.79971518363E+00  2.74626752409E+00  2.79984727637E+00  2.96008417027E+00
  3.22858371455E+00  3.61209035662E+00  4.12084661789E+00  4.76110145034E+00  5.52565298732E+00
  6.37970489944E+00  7.24804263791E+00  8.01565809872E+00  8.54962776959E+00  8.74160997098E+00
  8.54959278734E+00  8.01554169449E+00  7.24793690404E+00  6.37970268826E+00  5.98595976118E+00
  4.99947268788E+00  4.21179384382E+00  3.61206063015E+00  3.17891998581E+00  2.89524581821E+00
  2.75377839257E+00  2.75375656640E+00  2.89519021628E+00  3.17884975825E+00  3.61209035662E+00
  4.21204181683E+00  4.99960570156E+00  5.98587690687E+00  7.14925765533E+00  8.40994462755E+00
  9.62094299562E+00  1.05894588643E+01  1.11118673941E+01  1.11120660440E+01  1.05897871531E+01
  9.62112942444E+00  8.40993244346E+00  7.14922275488E+00  6.15112358932E+00  4.99956291825E+00
  4.12076015317E+00  3.47885713205E+00  3.03878002429E+00  2.77940723719E+00  2.69328968632E+00
  2.77939031541E+00  3.03877987531E+00  3.47883266096E+00  4.12084661789E+00  4.99960570156E+00
  6.15106613548E+00  7.58250116129E+00  9.23080590007E+00  1.09344529449E+01  1.24224357803E+01
  1.34750196541E+01  1.38557920330E+01  1.34749729505E+01  1.24224032112E+01  1.09344938525E+01
  9.23071261555E+00  7.58242065008E+00  5.98585200540E+00  4.76125462658E+00  3.86401078476E+00
  3.23561626854E+00  2.83313466746E+00  2.63527922246E+00  2.63541154117E+00  2.83338308452E+00
  3.23557351678E+00  3.86373968011E+00  4.76110145034E+00  5.98587690687E+00  7.58250116129E+00
  9.52791684965E+00  1.16600655347E+01  1.37404457064E+01  1.54416014293E+01  1.64095564280E+01
  1.64089990275E+01  1.54405709105E+01  1.37400266879E+01  1.16604744926E+01  9.52822605229E+00
  7.58238968260E+00  5.52581432390E+00  4.33010408932E+00  3.48545071810E+00  2.92142274545E+00
  2.59487779071E+00  2.48730782600E+00  2.59470743587E+00  2.92135348113E+00  3.48551987373E+00
  4.33019058037E+00  5.52565298732E+00  7.14925765533E+00  9.23080590007E+00  1.16600655347E+01
  1.42210252710E+01  1.65720351696E+01  1.82582326520E+01  1.88750600911E+01  1.82581559818E+01
  1.65721089489E+01  1.42210313732E+01  1.16601133764E+01  9.23081319857E+00  7.14931614998E+00
  4.86252875073E+00  3.78103684841E+00  3.04334774626E+00  2.58072626977E+00  2.35604385958E+00
  2.35559695180E+00  2.58017252859E+00  3.04346923519E+00  3.78169051412E+00  4.86264669828E+00
  6.37970489944E+00  8.40994462755E+00  1.09344529449E+01  1.37404457064E+01  1.65720351696E+01
  1.89368169682E+01  2.03018793064E+01  2.03024289300E+01  1.89380430074E+01  1.65727095997E+01
  1.37397736721E+01  1.09337678600E+01  8.41001290301E+00  6.38009560679E+00  4.10834233776E+00
  3.19427715270E+00  2.59474876482E+00  2.25297135291E+00  2.14147202369E+00  2.25286343403E+00
  2.59475333547E+00  3.19432881640E+00  4.10828690586E+00  5.42612732373E+00  7.24804263791E+00
  9.62094299562E+00  1.24224357803E+01  1.54416014293E+01  1.82582326520E+01  2.03018793064E+01
  2.10548502708E+01  2.03015924860E+01  1.82583377100E+01  1.54417339422E+01  1.24220575590E+01
  9.62072815177E+00  7.24789360659E+00  5.42625460589E+00  3.36258289041E+00  2.63556121864E+00
  2.18370416861E+00  1.96619322188E+00  1.96636220167E+00  2.18407944249E+00  2.63554835847E+00
  3.36217579048E+00  4.43784846069E+00  5.96139561433E+00  8.01565809872E+00  1.05894588643E+01
  1.34750196541E+01  1.64095564280E+01  1.88750600911E+01  2.03024289300E+01  2.03015924860E+01
  1.88737418729E+01  1.64093777235E+01  1.34754080894E+01  1.05898505032E+01  8.01546823586E+00
  5.96111598326E+00  4.43825291203E+00  2.69318832565E+00  2.14735339323E+00  1.83678149787E+00
  1.73546199086E+00  1.83653054870E+00  2.14736625227E+00  2.69347584302E+00  3.52712104254E+00
  4.72919638938E+00  6.38895903467E+00  8.54962776959E+00  1.11118673941E+01  1.38557920330E+01
  1.64089990275E+01  1.82581559818E+01  1.89380430074E+01  1.82583377100E+01  1.64093777235E+01
  1.38558496751E+01  1.11118297181E+01  8.54972432703E+00  6.38899624471E+00  4.72948505650E+00
  3.52701846992E+00  2.13511341470E+00  1.75025690953E+00  1.56488774770E+00  1.56455220687E+00
  1.74986841616E+00  2.13531320011E+00  2.75389795057E+00  3.66179343114E+00  4.93275960255E+00
  6.62853978236E+00  8.74160997098E+00  1.11120660440E+01  1.34749729505E+01  1.54405709105E+01
  1.65721089489E+01  1.65727095997E+01  1.54417339422E+01  1.34754080894E+01  1.11118297181E+01
  8.74129005692E+00  6.62842140103E+00  4.93310205297E+00  3.66178235422E+00  2.75338413361E+00
  1.69870985554E+00  1.44902079488E+00  1.36783228623E+00  1.44897720906E+00  1.69874829749E+00
  2.13703499477E+00  2.79973424133E+00  3.73812120284E+00  5.00631757029E+00  6.62867828690E+00
  8.54959278734E+00  1.05897871531E+01  1.24224032112E+01  1.37400266879E+01  1.42210313732E+01
  1.37397736721E+01  1.24220575590E+01  1.05898505032E+01  8.54972432703E+00  6.62842140103E+00
  5.00627849453E+00  3.73828990510E+00  2.79983585429E+00  2.13700560328E+00  1.37979215289E+00
  1.23855386354E+00  1.23856574020E+00  1.37984351104E+00  1.67345405508E+00  2.14151863242E+00
  2.81686967273E+00  3.73798522779E+00  4.93295620914E+00  6.38906008352E+00  8.01554169449E+00
  9.62112942444E+00  1.09344938525E+01  1.16604744926E+01  1.16601133764E+01  1.09337678600E+01
  9.62072815177E+00  8.01546823586E+00  6.38899624471E+00  4.93310205297E+00  3.73828990510E+00
  2.81714468672E+00  2.14161878942E+00  1.67337177322E+00  1.16706346011E+00  1.10842645989E+00
  1.16698373131E+00  1.34809254062E+00  1.66603271832E+00  2.14167549347E+00  2.79971169319E+00
  3.66160566980E+00  4.72939619131E+00  5.96117287737E+00  7.24793690404E+00  8.40993244346E+00
  9.23071261555E+00  9.52822605229E+00  9.23081319857E+00  8.41001290301E+00  7.24789360659E+00
  5.96111598326E+00  4.72948505650E+00  3.66178235422E+00  2.79983585429E+00  2.14161878942E+00
  1.66584831217E+00  1.34805177525E+00  1.04707487312E+00  1.04708771082E+00  1.14430958209E+00
  1.34807210641E+00  1.67347133125E+00  2.13726085830E+00  2.75376215499E+00  3.52721415140E+00
  4.43795130294E+00  5.42570305086E+00  6.37970268826E+00  7.14922275488E+00  7.58242065008E+00
  7.58238968260E+00  7.14931614998E+00  6.38009560679E+00  5.42625460589E+00  4.43825291203E+00
  3.52701846992E+00  2.75338413361E+00  2.13700560328E+00  1.67337177322E+00  1.34805177525E+00
  1.14428444636E+00  1.04705106398E+00  1.10834832537E+00  1.23856173251E+00  1.44898541240E+00
  1.74999953250E+00  2.14696447951E+00  2.63542371728E+00  3.19464164092E+00  3.78160267404E+00
  4.33037531723E+00  4.76115353913E+00  4.99947621278E+00  4.99963739625E+00  4.76136146518E+00
  4.33020078412E+00  3.78111754201E+00  3.19433264600E+00  2.63555453964E+00  2.14727378513E+00
  1.75015302743E+00  1.44894440518E+00  1.23851008534E+00  1.10840594629E+00  1.04709917452E+00
  1.10834832537E+00  1.17738666687E+00  1.30193299272E+00  1.49161744518E+00  1.75369848806E+00
  2.08910751529E+00  2.48769056219E+00  2.92353786634E+00  3.35347682032E+00  3.72180718446E+00
  3.97177120790E+00  4.06049327238E+00  3.97180793535E+00  3.72160423862E+00  3.35298259744E+00
  2.92313521851E+00  2.48775896670E+00  2.08950865601E+00  1.75397952991E+00  1.49156675490E+00
  1.30180732415E+00  1.17748648668E+00  1.10854590117E+00  1.08654934594E+00  1.23856173251E+00
  1.30193299272E+00  1.40785576439E+00  1.56510173335E+00  1.77899348893E+00  2.04721640240E+00
  2.35597203487E+00  2.67809045159E+00  2.97516995254E+00  3.20464662124E+00  3.32991990958E+00
  3.32988693399E+00  3.20456644390E+00  2.97506947054E+00  2.67800429424E+00  2.35593356618E+00
  2.04723070765E+00  1.77906982034E+00  1.56520854072E+00  1.40795728420E+00  1.30198857495E+00
  1.23855485087E+00  1.20935251633E+00  1.20936383319E+00  1.44898541240E+00  1.49161744518E+00
  1.56510173335E+00  1.67829907488E+00  1.83539834807E+00  2.03197806050E+00  2.25287662892E+00
  2.47303313407E+00  2.66174463754E+00  2.78938551573E+00  2.83457130426E+00  2.78950277551E+00
  2.66192418959E+00  2.47322094449E+00  2.25302424346E+00  2.03202545476E+00  1.83532556473E+00
  1.67816323933E+00  1.56501645133E+00  1.49162121258E+00  1.44902567792E+00  1.42790523578E+00
  1.42162904986E+00  1.42787114854E+00  1.74999953250E+00  1.75369848806E+00  1.77899348893E+00
  1.83539834807E+00  1.92646868325E+00  2.04720644960E+00  2.18369265068E+00  2.31542291652E+00
  2.41980341535E+00  2.47758339978E+00  2.47766157065E+00  2.41995502421E+00  2.31553497637E+00
  2.18374750866E+00  2.04725823471E+00  1.92653171164E+00  1.83539223692E+00  1.77888285843E+00
  1.75353435393E+00  1.74988127152E+00  1.75618033968E+00  1.76221638542E+00  1.76222043924E+00
  1.75621556040E+00  2.14696447951E+00  2.08910751529E+00  2.04721640240E+00  2.03197806050E+00
  2.04720644960E+00  2.08910782699E+00  2.14697276341E+00  2.20547826332E+00  2.24863799225E+00
  2.26442952936E+00  2.24846827710E+00  2.20532516388E+00  2.14696568671E+00  2.08919217413E+00
  2.04724522104E+00  2.03194610808E+00  2.04722612284E+00  2.08917978913E+00  2.14696561801E+00
  2.20531999678E+00  2.24845951110E+00  2.26443720416E+00  2.24865806975E+00  2.20548496202E+00
  2.63542371728E+00  2.48769056219E+00  2.35597203487E+00  2.25287662892E+00  2.18369265068E+00
  2.14697276341E+00  2.13527711264E+00  2.13727450020E+00  2.14164525867E+00  2.14147577942E+00
  2.13698023607E+00  2.13522596141E+00  2.14728148537E+00  2.18406417849E+00  2.25291961063E+00
  2.35567069420E+00  2.48738391310E+00  2.63537747606E+00  2.77949784749E+00  2.89526598651E+00
  2.96000001053E+00  2.95994138581E+00  2.89511185099E+00  2.77934981179E+00  3.19464164092E+00
  2.92353786634E+00  2.67809045159E+00  2.47303313407E+00  2.31542291652E+00  2.20547826332E+00
  2.13727450020E+00  2.10160498515E+00  2.09059286943E+00  2.10140324589E+00  2.13730452400E+00
  2.20605558130E+00  2.31622799029E+00  2.47339598753E+00  2.67772705880E+00  2.92274020105E+00
  3.19408147513E+00  3.46682096109E+00  3.70539164583E+00  3.87005749153E+00  3.92885000552E+00
  3.86963697603E+00  3.70491895702E+00  3.46675934185E+00  3.78160267404E+00  3.35347682032E+00
  2.97516995254E+00  2.66174463754E+00  2.41980341535E+00  2.24863799225E+00  2.14164525867E+00
  2.09059286943E+00  2.09046398092E+00  2.14167232185E+00  2.24943223050E+00  2.42097351911E+00
  2.66221384770E+00  2.97449393896E+00  3.35235262696E+00  3.78098536463E+00  4.23156587535E+00
  4.65670562024E+00  4.99406184560E+00  5.18217061466E+00  5.18212752495E+00  4.99382317748E+00
  4.65624179716E+00  4.23140415326E+00  4.33037531723E+00  3.72180718446E+00  3.20464662124E+00
  2.78938551573E+00  2.47758339978E+00  2.26442952936E+00  2.14147577942E+00  2.10140324589E+00
  2.14167232185E+00  2.26527196841E+00  2.47881415865E+00  2.78986277613E+00  3.20366187962E+00
  3.72010151627E+00  4.32955400562E+00  5.00377452576E+00  5.68587632610E+00  6.28766921687E+00
  6.70626427009E+00  6.85697067514E+00  6.70636497066E+00  6.28722947167E+00  5.68488633868E+00
  5.00326976337E+00  4.76115353913E+00  3.97177120790E+00  3.32991990958E+00  2.83457130426E+00
  2.47766157065E+00  2.24846827710E+00  2.13698023607E+00  2.13730452400E+00  2.24943223050E+00
  2.47881415865E+00  2.83494434291E+00  3.32886573729E+00  3.96981732281E+00  4.76003548740E+00
  5.68134513938E+00  6.67658365055E+00  7.63641661801E+00  8.40937379489E+00  8.84390802114E+00
  8.84398227637E+00  8.40917266743E+00  7.63536574352E+00  6.67517181477E+00  5.68078725044E+00
  4.99947621278E+00  4.06049327238E+00  3.32988693399E+00  2.78950277551E+00  2.41995502421E+00
  2.20532516388E+00  2.13522596141E+00  2.20605558130E+00  2.42097351911E+00  2.78986277613E+00
  3.32886573729E+00  4.05848179464E+00  4.99828256600E+00  6.15070788816E+00  7.47364265993E+00
  8.85232772912E+00  1.00938065921E+01  1.09677669613E+01  1.12840217931E+01  1.09681208750E+01
  1.00936110558E+01  8.85104553207E+00  7.47191809432E+00  6.14997580078E+00  4.99963739625E+00
  3.97180793535E+00  3.20456644390E+00  2.66192418959E+00  2.31553497637E+00  2.14696568671E+00
  2.14728148537E+00  2.31622799029E+00  2.66221384770E+00  3.20366187962E+00  3.96981732281E+00
  4.99828256600E+00  6.31920128112E+00  7.92191401232E+00  9.71077555263E+00  1.14759833435E+01
  1.29180082155E+01  1.37161527914E+01  1.37164919910E+01  1.29185196028E+01  1.14756732061E+01
  9.70926067043E+00  7.92003817573E+00  6.31853922602E+00  4.76136146518E+00  3.72160423862E+00
  2.97506947054E+00  2.47322094449E+00  2.18374750866E+00  2.08919217413E+00  2.18406417849E+00
  2.47339598753E+00  2.97449393896E+00  3.72010151627E+00  4.76003548740E+00  6.15070788816E+00
  7.92191401232E+00  1.00219318657E+01  1.22621900452E+01  1.42894792390E+01  1.57410878420E+01
  1.62704663773E+01  1.57412065960E+01  1.42895374876E+01  1.22617561565E+01  1.00207053123E+01
  7.92056740004E+00  6.15053226642E+00  4.33020078412E+00  3.35298259744E+00  2.67800429424E+00
  2.25302424346E+00  2.04725823471E+00  2.04724522104E+00  2.25291961063E+00  2.67772705880E+00
  3.35235262696E+00  4.32955400562E+00  5.68134513938E+00  7.47364265993E+00  9.71077555263E+00
  1.22621900452E+01  1.47948268468E+01  1.69052881598E+01  1.81179785580E+01  1.81178099509E+01
  1.69050595833E+01  1.47948001379E+01  1.22622200398E+01  9.71027749299E+00  7.47292791031E+00
  5.68132760807E+00  3.78111754201E+00  2.92313521851E+00  2.35593356618E+00  2.03202545476E+00
  1.92653171164E+00  2.03194610808E+00  2.35567069420E+00  2.92274020105E+00  3.78098536463E+00
  5.00377452576E+00  6.67658365055E+00  8.85232772912E+00  1.14759833435E+01  1.42894792390E+01
  1.69052881598E+01  1.87967030972E+01  1.94909404275E+01  1.87958814723E+01  1.69048773918E+01
  1.42901753695E+01  1.14770132363E+01  8.85213087991E+00  6.67566282674E+00  5.00327768588E+00
  3.19433264600E+00  2.48775896670E+00  2.04723070765E+00  1.83532556473E+00  1.83539223692E+00
  2.04722612284E+00  2.48738391310E+00  3.19408147513E+00  4.23156587535E+00  5.68587632610E+00
  7.63641661801E+00  1.00938065921E+01  1.29180082155E+01  1.57410878420E+01  1.81179785580E+01
  1.94909404275E+01  1.94899121688E+01  1.81164071783E+01  1.57412630908E+01  1.29202236656E+01
  1.00953045608E+01  7.63554326983E+00  5.68434392681E+00  4.23085508678E+00  2.63555453964E+00
  2.08950865601E+00  1.77906982034E+00  1.67816323933E+00  1.77888285843E+00  2.08917978913E+00
  2.63537747606E+00  3.46682096109E+00  4.65670562024E+00  6.28766921687E+00  8.40937379489E+00
  1.09677669613E+01  1.37161527914E+01  1.62704663773E+01  1.81178099509E+01  1.87958814723E+01
  1.81164071783E+01  1.62698134550E+01  1.37179232969E+01  1.09704112308E+01  8.40982810510E+00
  6.28623944944E+00  4.65511325179E+00  3.46611895181E+00  2.14727378513E+00  1.75397952991E+00
  1.56520854072E+00  1.56501645133E+00  1.75353435393E+00  2.14696561801E+00  2.77949784749E+00
  3.70539164583E+00  4.99406184560E+00  6.70626427009E+00  8.84390802114E+00  1.12840217931E+01
  1.37164919910E+01  1.57412065960E+01  1.69050595833E+01  1.69048773918E+01  1.57412630908E+01
  1.37179232969E+01  1.12863942526E+01  8.84487976592E+00  6.70538047560E+00  4.99251150954E+00
  3.70417329047E+00  2.77920920814E+00  1.75015302743E+00  1.49156675490E+00  1.40795728420E+00
  1.49162121258E+00  1.74988127152E+00  2.20531999678E+00  2.89526598651E+00  3.87005749153E+00
  5.18217061466E+00  6.85697067514E+00  8.84398227637E+00  1.09681208750E+01  1.29185196028E+01
  1.42895374876E+01  1.47948001379E+01  1.42901753695E+01  1.29202236656E+01  1.09704112308E+01
  8.84487976592E+00  6.85589016317E+00  5.18039914012E+00  3.86889419226E+00  2.89534251130E+00
  2.20590077551E+00  1.44894440518E+00  1.30180732415E+00  1.30198857495E+00  1.44902567792E+00
  1.75618033968E+00  2.24845951110E+00  2.96000001053E+00  3.92885000552E+00  5.18212752495E+00
  6.70636497066E+00  8.40917266743E+00  1.00936110558E+01  1.14756732061E+01  1.22617561565E+01
  1.22622200398E+01  1.14770132363E+01  1.00953045608E+01  8.40982810510E+00  6.70538047560E+00
  5.18039914012E+00  3.92767062469E+00  2.96025676343E+00  2.24950188687E+00  1.75679236993E+00
  1.23851008534E+00  1.17748648668E+00  1.23855485087E+00  1.42790523578E+00  1.76221638542E+00
  2.26443720416E+00  2.95994138581E+00  3.86963697603E+00  4.99382317748E+00  6.28722947167E+00
  7.63536574352E+00  8.85104553207E+00  9.70926067043E+00  1.00207053123E+01  9.71027749299E+00
  8.85213087991E+00  7.63554326983E+00  6.28623944944E+00  4.99251150954E+00  3.86889419226E+00
  2.96025676343E+00  2.26532997652E+00  1.76290590769E+00  1.42812652499E+00  1.10840594629E+00
  1.10854590117E+00  1.20935251633E+00  1.42162904986E+00  1.76222043924E+00  2.24865806975E+00
  2.89511185099E+00  3.70491895702E+00  4.65624179716E+00  5.68488633868E+00  6.67517181477E+00
  7.47191809432E+00  7.92003817572E+00  7.92056740004E+00  7.47292791031E+00  6.67566282674E+00
  5.68434392681E+00  4.65511325179E+00  3.70417329047E+00  2.89534251130E+00  2.24950188687E+00
  1.76290590769E+00  1.42179533343E+00  1.20913658005E+00  1.04709917452E+00  1.08654934594E+00
  1.20936383319E+00  1.42787114854E+00  1.75621556040E+00  2.20548496202E+00  2.77934981179E+00
  3.46675934185E+00  4.23140415326E+00  5.00326976337E+00  5.68078725044E+00  6.14997580078E+00
  6.31853922602E+00  6.15053226642E+00  5.68132760807E+00  5.00327768588E+00  4.23085508678E+00
  3.46611895181E+00  2.77920920814E+00  2.20590077551E+00  1.75679236993E+00  1.42812652499E+00
  1.20913658005E+00  1.08621329547E+00  1.16706574424E+00  1.23858541321E+00  1.36775367407E+00
  1.56475963827E+00  1.83670563796E+00  2.18369953068E+00  2.59474631701E+00  3.04332009977E+00
  3.48542906951E+00  3.86401238866E+00  4.12079789714E+00  4.21189776732E+00  4.12092509287E+00
  3.86415724906E+00  3.48552307070E+00  3.04335490896E+00  2.59469945922E+00  2.18358073651E+00
  1.83660874137E+00  1.56475060050E+00  1.36778363323E+00  1.23857708050E+00  1.16701445671E+00
  1.14435738059E+00  1.23858541321E+00  1.30193793912E+00  1.40784855159E+00  1.56509763635E+00
  1.77899349953E+00  2.04720551810E+00  2.35594725147E+00  2.67807154099E+00  2.97517709594E+00
  3.20468506424E+00  3.32998755268E+00  3.32997394889E+00  3.20464330730E+00  2.97509886374E+00
  2.67797312224E+00  2.35585767518E+00  2.04712960915E+00  1.77895980214E+00  1.56511921382E+00
  1.40792350160E+00  1.30201502885E+00  1.23860996197E+00  1.20940431453E+00  1.20940250819E+00
  1.36775367407E+00  1.40784855159E+00  1.47729367935E+00  1.58510168942E+00  1.73606909644E+00
  1.92647083695E+00  2.14150305011E+00  2.35615539217E+00  2.53994438162E+00  2.66395564893E+00
  2.70771556770E+00  2.66386867177E+00  2.53978517487E+00  2.35598773124E+00  2.14140646201E+00
  1.92647498504E+00  1.73615001193E+00  1.58521537094E+00  1.47741652370E+00  1.40793716399E+00
  1.36777343513E+00  1.34791056775E+00  1.34203697950E+00  1.34792142654E+00  1.56475963827E+00
  1.56509763635E+00  1.58510168942E+00  1.63524726825E+00  1.72021043420E+00  1.83539487357E+00
  1.96649471604E+00  2.09267079903E+00  2.19191551192E+00  2.24643231688E+00  2.24642492195E+00
  2.19189510588E+00  2.09266479010E+00  1.96651469916E+00  1.83542812018E+00  1.72025664649E+00
  1.63531032246E+00  1.58518513335E+00  1.56514505526E+00  1.56472490494E+00  1.57228777886E+00
  1.57857498553E+00  1.57862288494E+00  1.57237149407E+00  1.83670563796E+00  1.77899349953E+00
  1.73606909644E+00  1.72021043420E+00  1.73606520394E+00  1.77897999853E+00  1.83667441956E+00
  1.89332456637E+00  1.93416461767E+00  1.94901007245E+00  1.93423861167E+00  1.89343624989E+00
  1.83677002544E+00  1.77904468569E+00  1.73610555971E+00  1.72021527233E+00  1.73602843531E+00
  1.77891160649E+00  1.83661985154E+00  1.89331473719E+00  1.93417920097E+00  1.94901612775E+00
  1.93420951357E+00  1.89337292357E+00  2.18369953068E+00  2.04720551810E+00  1.92647083695E+00
  1.83539487357E+00  1.77897999853E+00  1.75368172576E+00  1.74998081590E+00  1.75619458920E+00
  1.76221707334E+00  1.76225999242E+00  1.75627040188E+00  1.74998069112E+00  1.75360527033E+00
  1.77890790523E+00  1.83536253642E+00  1.92644463064E+00  2.04713574031E+00  2.18363314416E+00
  2.31546257007E+00  2.41993364641E+00  2.47768757625E+00  2.47764367488E+00  2.41986757175E+00
  2.31545953102E+00  2.59474631701E+00  2.35594725147E+00  2.14150305011E+00  1.96649471604E+00
  1.83667441956E+00  1.74998081590E+00  1.69882039864E+00  1.67346285675E+00  1.66601197022E+00
  1.67345780348E+00  1.69877245829E+00  1.74987501726E+00  1.83651821280E+00  1.96636158797E+00
  2.14147912349E+00  2.35602766358E+00  2.59484764401E+00  2.83313031556E+00  3.03880017689E+00
  3.17892854171E+00  3.22868317416E+00  3.17885728020E+00  3.03870812805E+00  2.83304122342E+00
  3.04332009977E+00  2.67807154099E+00  2.35615539217E+00  2.09267079903E+00  1.89332456637E+00
  1.75619458920E+00  1.67346285675E+00  1.63535706143E+00  1.63530302557E+00  1.67337069831E+00
  1.75616658449E+00  1.89331510633E+00  2.09264142769E+00  2.35617788068E+00  2.67814466595E+00
  3.04342177068E+00  3.42422641140E+00  3.77872663146E+00  4.05607579102E+00  4.20898638051E+00
  4.20897099731E+00  4.05604929178E+00  3.77873388882E+00  3.42418395692E+00  3.48542906951E+00
  2.97517709594E+00  2.53994438162E+00  2.19191551192E+00  1.93416461767E+00  1.76221707334E+00
  1.66601197022E+00  1.63530302557E+00  1.66587984858E+00  1.76216090083E+00  1.93422702737E+00
  2.19202307840E+00  2.54005650873E+00  2.97528278419E+00  3.48545751508E+00  4.04370695058E+00
  4.60108042824E+00  5.08644748245E+00  5.42042451247E+00  5.53974365574E+00  5.42039436525E+00
  5.08653444780E+00  4.60123536598E+00  4.04379360413E+00  3.86401238866E+00  3.20468506424E+00
  2.66395564893E+00  2.24643231688E+00  1.94901007245E+00  1.76225999242E+00  1.67345780348E+00
  1.67337069831E+00  1.76216090083E+00  1.94902845596E+00  2.24653321705E+00  2.66400408376E+00
  3.20469440744E+00  3.86407605890E+00  4.62230201198E+00  5.43081335527E+00  6.20171823965E+00
  6.81707239854E+00  7.16088946660E+00  7.16080733623E+00  6.81704800351E+00  6.20185562852E+00
  5.43099202222E+00  4.62236879375E+00  4.12079789714E+00  3.32998755268E+00  2.70771556770E+00
  2.24642492195E+00  1.93423861167E+00  1.75627040188E+00  1.69877245829E+00  1.75616658449E+00
  1.93422702737E+00  2.24653321705E+00  2.70773520570E+00  3.32987754561E+00  4.12086112084E+00
  5.07589057031E+00  6.15846808954E+00  7.27653760569E+00  8.27728036425E+00  8.97917304711E+00
  9.23242433516E+00  8.97903442141E+00  8.27726644497E+00  7.27666877514E+00  6.15861407637E+00
  5.07583655589E+00  4.21189776732E+00  3.32997394889E+00  2.66386867177E+00  2.19189510588E+00
  1.89343624989E+00  1.74998069112E+00  1.74987501726E+00  1.89331510633E+00  2.19202307840E+00
  2.66400408376E+00  3.32987754561E+00  4.21192408179E+00  5.32647030994E+00  6.66181024000E+00
  8.14163441316E+00  9.59780282357E+00  1.07872337569E+01  1.14612273019E+01  1.14610483849E+01
  1.07870061705E+01  9.59775986219E+00  8.14168899046E+00  6.66180399449E+00  5.32630050642E+00
  4.12092509287E+00  3.20464330730E+00  2.53978517487E+00  2.09266479010E+00  1.83677002544E+00
  1.75360527033E+00  1.83651821280E+00  2.09264142769E+00  2.54005650873E+00  3.20469440744E+00
  4.12086112084E+00  5.32647030994E+00  6.84234292864E+00  8.62800461278E+00  1.05317371613E+01
  1.22778939472E+01  1.35233327082E+01  1.39766119967E+01  1.35231215551E+01  1.22778384626E+01
  1.05317055020E+01  8.62789400593E+00  6.84221247448E+00  5.32640592843E+00  3.86415724906E+00
  2.97509886374E+00  2.35598773124E+00  1.96651469916E+00  1.77904468569E+00  1.77890790523E+00
  1.96636158797E+00  2.35617788068E+00  2.97528278419E+00  3.86407605890E+00  5.07589057031E+00
  6.66181024000E+00  8.62800461278E+00  1.08705260024E+01  1.31285068231E+01  1.50047897133E+01
  1.60794984942E+01  1.60794463297E+01  1.50048791399E+01  1.31287368540E+01  1.08704642569E+01
  8.62783242611E+00  6.66184009043E+00  5.07600105490E+00  3.48552307070E+00  2.67797312224E+00
  2.14140646201E+00  1.83542812018E+00  1.73610555971E+00  1.83536253642E+00  2.14147912349E+00
  2.67814466595E+00  3.48545751508E+00  4.62230201198E+00  6.15846808954E+00  8.14163441316E+00
  1.05317371613E+01  1.31285068231E+01  1.55464765571E+01  1.72894038857E+01  1.79111408999E+01
  1.72893754075E+01  1.55466985496E+01  1.31287999964E+01  1.05316381995E+01  8.14160575430E+00
  6.15862473491E+00  4.62245117961E+00  3.04335490896E+00  2.35585767518E+00  1.92647498504E+00
  1.72025664649E+00  1.72021527233E+00  1.92644463064E+00  2.35602766358E+00  3.04342177068E+00
  4.04370695058E+00  5.43081335527E+00  7.27653760569E+00  9.59780282357E+00  1.22778939472E+01
  1.50047897133E+01  1.72894038857E+01  1.85862815244E+01  1.85862267027E+01  1.72893251655E+01
  1.50049732759E+01  1.22779659477E+01  9.59760474729E+00  7.27658830146E+00  5.43094750843E+00
  4.04381989865E+00  2.59469945922E+00  2.04712960915E+00  1.73615001193E+00  1.63531032246E+00
  1.73602843531E+00  2.04713574031E+00  2.59484764401E+00  3.42422641140E+00  4.60108042824E+00
  6.20171823965E+00  8.27728036425E+00  1.07872337569E+01  1.35233327082E+01  1.60794984942E+01
  1.79111408999E+01  1.85862267027E+01  1.79110492527E+01  1.60795088425E+01  1.35234233187E+01
  1.07869437254E+01  8.27704107025E+00  6.20184448221E+00  4.60124322546E+00  3.42427351522E+00
  2.18358073651E+00  1.77895980214E+00  1.58521537094E+00  1.58518513335E+00  1.77891160649E+00
  2.18363314416E+00  2.83313031556E+00  3.77872663146E+00  5.08644748245E+00  6.81707239854E+00
  8.97917304711E+00  1.14612273019E+01  1.39766119967E+01  1.60794463297E+01  1.72893754075E+01
  1.72893251655E+01  1.60795088425E+01  1.39768731984E+01  1.14612039069E+01  8.97887157538E+00
  6.81706367048E+00  5.08658065464E+00  3.77884411104E+00  2.83316515879E+00  1.83660874137E+00
  1.56511921382E+00  1.47741652370E+00  1.56514505526E+00  1.83661985154E+00  2.31546257007E+00
  3.03880017689E+00  4.05607579102E+00  5.42042451247E+00  7.16088946660E+00  9.23242433516E+00
  1.14610483849E+01  1.35231215551E+01  1.50048791399E+01  1.55466985496E+01  1.50049732759E+01
  1.35234233187E+01  1.14612039069E+01  9.23236943083E+00  7.16099522538E+00  5.42050997879E+00
  4.05595969398E+00  3.03878391581E+00  2.31544916702E+00  1.56475060050E+00  1.40792350160E+00
  1.40793716399E+00  1.56472490494E+00  1.89331473719E+00  2.41993364641E+00  3.17892854171E+00
  4.20898638051E+00  5.53974365574E+00  7.16080733623E+00  8.97903442141E+00  1.07870061705E+01
  1.22778384626E+01  1.31287368540E+01  1.31287999964E+01  1.22779659477E+01  1.07869437254E+01
  8.97887157538E+00  7.16099522538E+00  5.53996109406E+00  4.20884813915E+00  3.17874871803E+00
  2.41985316656E+00  1.89332170729E+00  1.36778363323E+00  1.30201502885E+00  1.36777343513E+00
  1.57228777886E+00  1.93417920097E+00  2.47768757625E+00  3.22868317416E+00  4.20897099731E+00
  5.42039436525E+00  6.81704800351E+00  8.27726644497E+00  9.59775986219E+00  1.05317055020E+01
  1.08704642569E+01  1.05316381995E+01  9.59760474729E+00  8.27704107025E+00  6.81706367048E+00
  5.42050997879E+00  4.20884813915E+00  3.22853941687E+00  2.47764172137E+00  1.93425441868E+00
  1.57237705762E+00  1.23857708050E+00  1.23860996197E+00  1.34791056775E+00  1.57857498553E+00
  1.94901612775E+00  2.47764367488E+00  3.17885728020E+00  4.05604929178E+00  5.08653444780E+00
  6.20185562852E+00  7.27666877514E+00  8.14168899046E+00  8.62789400593E+00  8.62783242611E+00
  8.14160575430E+00  7.27658830146E+00  6.20184448221E+00  5.08658065464E+00  4.05595969398E+00
  3.17874871803E+00  2.47764172137E+00  1.94917082223E+00  1.57874196597E+00  1.34790844719E+00
  1.16701445671E+00  1.20940431453E+00  1.34203697950E+00  1.57862288494E+00  1.93420951357E+00
  2.41986757175E+00  3.03870812805E+00  3.77873388882E+00  4.60123536598E+00  5.43099202222E+00
  6.15861407637E+00  6.66180399449E+00  6.84221247448E+00  6.66184009043E+00  6.15862473491E+00
  5.43094750843E+00  4.60124322546E+00  3.77884411104E+00  3.03878391581E+00  2.41985316656E+00
  1.93425441868E+00  1.57874196597E+00  1.34204049552E+00  1.20932626604E+00  1.14435738059E+00
  1.20940250819E+00  1.34792142654E+00  1.57237149407E+00  1.89337292357E+00  2.31545953102E+00
  2.83304122342E+00  3.42418395692E+00  4.04379360413E+00  4.62236879375E+00  5.07583655589E+00
  5.32630050642E+00  5.32640592843E+00  5.07600105490E+00  4.62245117961E+00  4.04381989865E+00
  3.42427351522E+00  2.83316515879E+00  2.31544916702E+00  1.89332170729E+00  1.57237705762E+00
  1.34790844719E+00  1.20932626604E+00  1.14430317089E+00  1.37982647308E+00  1.44898510860E+00
  1.56474279667E+00  1.73585731014E+00  1.96650508804E+00  2.25286197792E+00  2.58020690557E+00
  2.92090673087E+00  3.23547156077E+00  3.47904131268E+00  3.61223868199E+00  3.61216127085E+00
  3.47895961635E+00  3.23565571814E+00  2.92137899195E+00  2.58064048767E+00  2.25287288051E+00
  1.96607932578E+00  1.73535914996E+00  1.56451815187E+00  1.44901919406E+00  1.37990287674E+00
  1.34812952172E+00  1.34810058921E+00  1.44898510860E+00  1.49160373838E+00  1.56508509475E+00
  1.67829116558E+00  1.83539438777E+00  2.03196466530E+00  2.25286197792E+00  2.47304743687E+00
  2.66180560154E+00  2.78948018973E+00  2.83467041676E+00  2.78957282211E+00  2.66192957839E+00
  2.47314213439E+00  2.25288048266E+00  2.03186321836E+00  1.83518533683E+00  1.67807204413E+00
  1.56499914043E+00  1.49168609198E+00  1.44913865552E+00  1.42800758458E+00  1.42168746036E+00
  1.42789215004E+00  1.56474279667E+00  1.56508509475E+00  1.58509516722E+00  1.63524408825E+00
  1.72020768700E+00  1.83539438777E+00  1.96650508804E+00  2.09270106363E+00  2.19196371762E+00
  2.24648022218E+00  2.24644547525E+00  2.19186787748E+00  2.09258836160E+00  1.96640788166E+00
  1.83532033648E+00  1.72017576629E+00  1.63527587366E+00  1.58520576785E+00  1.56521450706E+00
  1.56481898184E+00  1.57237230786E+00  1.57862458683E+00  1.57863454514E+00  1.57236014487E+00
  1.73585731014E+00  1.67829116558E+00  1.63524408825E+00  1.61929631118E+00  1.63524408825E+00
  1.67829116558E+00  1.73585731014E+00  1.79196132742E+00  1.83204299678E+00  1.84640827570E+00
  1.83182429983E+00  1.79177651048E+00  1.73587745166E+00  1.67843832167E+00  1.63535377942E+00
  1.61935233919E+00  1.63535377942E+00  1.67843832167E+00  1.73587745166E+00  1.79177651048E+00
  1.83182429983E+00  1.84640827570E+00  1.83204299678E+00  1.79196132742E+00  1.96650508804E+00
  1.83539438777E+00  1.72020768700E+00  1.63524408825E+00  1.58509516722E+00  1.56508509475E+00
  1.56474279667E+00  1.57236014487E+00  1.57863454514E+00  1.57862458683E+00  1.57237230786E+00
  1.56481898184E+00  1.56521450706E+00  1.58520576785E+00  1.63527587366E+00  1.72017576629E+00
  1.83532033648E+00  1.96640788166E+00  2.09258836160E+00  2.19186787748E+00  2.24644547525E+00
  2.24648022218E+00  2.19196371762E+00  2.09270106363E+00  2.25286197792E+00  2.03196466530E+00
  1.83539438777E+00  1.67829116558E+00  1.56508509475E+00  1.49160373838E+00  1.44898510860E+00
  1.42789215004E+00  1.42168746036E+00  1.42800758458E+00  1.44913865552E+00  1.49168609198E+00
  1.56499914043E+00  1.67807204413E+00  1.83518533683E+00  2.03186321836E+00  2.25288048266E+00
  2.47314213439E+00  2.66192957839E+00  2.78957282211E+00  2.83467041676E+00  2.78948018973E+00
  2.66180560154E+00  2.47304743687E+00  2.58020690557E+00  2.25286197792E+00  1.96650508804E+00
  1.73585731014E+00  1.56474279667E+00  1.44898510860E+00  1.37982647308E+00  1.34810058921E+00
  1.34812952172E+00  1.37990287674E+00  1.44901919406E+00  1.56451815187E+00  1.73535914996E+00
  1.96607932578E+00  2.25287288051E+00  2.58064048767E+00  2.92137899195E+00  3.23565571814E+00
  3.47895961635E+00  3.61216127085E+00  3.61223868199E+00  3.47904131268E+00  3.23547156077E+00
  2.92090673087E+00  2.92090673087E+00  2.47304743687E+00  2.09270106363E+00  1.79196132742E+00
  1.57236014487E+00  1.42789215004E+00  1.34810058921E+00  1.32298893129E+00  1.34830735894E+00
  1.42795635805E+00  1.57190353978E+00  1.79113012939E+00  2.09216742494E+00  2.47335368746E+00
  2.92186133887E+00  3.40967889706E+00  3.89095566094E+00  4.30462767551E+00  4.58630537649E+00
  4.68653989435E+00  4.58663983693E+00  4.30499151736E+00  3.89087945051E+00  3.40892051139E+00
  3.23547156077E+00  2.66180560154E+00  2.19196371762E+00  1.83204299678E+00  1.57863454514E+00
  1.42168746036E+00  1.34812952172E+00  1.34830735894E+00  1.42188286844E+00  1.57820731170E+00
  1.83102744180E+00  2.19121212841E+00  2.66219165290E+00  3.23679773449E+00  3.89193155552E+00
  4.58066570875E+00  5.22789008377E+00  5.73856186840E+00  6.02185887025E+00  6.02208160967E+00
  5.73921794007E+00  5.22868802330E+00  4.58073749473E+00  3.89087945051E+00  3.47904131268E+00
  2.78948018973E+00  2.24648022218E+00  1.84640827570E+00  1.57862458683E+00  1.42800758458E+00
  1.37990287674E+00  1.42795635805E+00  1.57820731170E+00  1.84557092133E+00  2.24577131692E+00
  2.78973157507E+00  3.48033471091E+00  4.30615679814E+00  5.22872480459E+00  6.16722673407E+00
  6.99739293519E+00  7.57521128777E+00  7.78310239663E+00  7.57575388885E+00  6.99848353185E+00
  6.16825889880E+00  5.22868802330E+00  4.30499151736E+00  3.61223868199E+00  2.83467041676E+00
  2.24644547525E+00  1.83182429983E+00  1.57237230786E+00  1.44913865552E+00  1.44901919406E+00
  1.57190353978E+00  1.83102744180E+00  2.24577131692E+00  2.83492705100E+00  3.61364094036E+00
  4.58797119455E+00  5.73932140341E+00  6.99734407621E+00  8.22154482991E+00  9.21437033367E+00
  9.77474037346E+00  9.77479065091E+00  9.21491176171E+00  8.22286655886E+00  6.99848353185E+00
  5.73921794007E+00  4.58663983693E+00  3.61216127085E+00  2.78957282211E+00  2.19186787748E+00
  1.79177651048E+00  1.56481898184E+00  1.49168609198E+00  1.56451815187E+00  1.79113012939E+00
  2.19121212841E+00  2.78973157507E+00  3.61364094036E+00  4.68822325521E+00  6.02243788745E+00
  7.57441100888E+00  9.21310632508E+00  1.07074022155E+01  1.17696832211E+01  1.21555140545E+01
  1.17692867119E+01  1.07079854204E+01  9.21491176171E+00  7.57575388885E+00  6.02208160967E+00
  4.68653989435E+00  3.47895961635E+00  2.66192957839E+00  2.09258836160E+00  1.73587745166E+00
  1.56521450706E+00  1.56499914043E+00  1.73535914996E+00  2.09216742494E+00  2.66219165290E+00
  3.48033471091E+00  4.58797119455E+00  6.02243788745E+00  7.78189118412E+00  9.77255029185E+00
  1.17681885673E+01  1.34231964215E+01  1.43700316329E+01  1.43694138794E+01  1.34225558830E+01
  1.17692867119E+01  9.77479065091E+00  7.78310239663E+00  6.02185887025E+00  4.58630537649E+00
  3.23565571814E+00  2.47314213439E+00  1.96640788166E+00  1.67843832167E+00  1.58520576785E+00
  1.67807204413E+00  1.96607932578E+00  2.47335368746E+00  3.23679773449E+00  4.30615679814E+00
  5.73932140341E+00  7.57441100888E+00  9.77255029185E+00  1.21538753610E+01  1.43696631379E+01
  1.59669131989E+01  1.65512234758E+01  1.59659052851E+01  1.43694138794E+01  1.21555140545E+01
  9.77474037346E+00  7.57521128777E+00  5.73856186840E+00  4.30462767551E+00  2.92137899195E+00
  2.25288048266E+00  1.83532033648E+00  1.63535377942E+00  1.63527587366E+00  1.83518533683E+00
  2.25287288051E+00  2.92186133887E+00  3.89193155552E+00  5.22872480459E+00  6.99734407621E+00
  9.21310632508E+00  1.17681885673E+01  1.43696631379E+01  1.65518418777E+01  1.78096231272E+01
  1.78092074149E+01  1.65512234758E+01  1.43700316329E+01  1.17696832211E+01  9.21437033367E+00
  6.99739293519E+00  5.22789008377E+00  3.89095566094E+00  2.58064048767E+00  2.03186321836E+00
  1.72017576629E+00  1.61935233919E+00  1.72017576629E+00  2.03186321836E+00  2.58064048767E+00
  3.40967889706E+00  4.58066570875E+00  6.16722673407E+00  8.22154482991E+00  1.07074022155E+01
  1.34231964215E+01  1.59669131989E+01  1.78096231272E+01  1.84861718149E+01  1.78096231272E+01
  1.59669131989E+01  1.34231964215E+01  1.07074022155E+01  8.22154482991E+00  6.16722673407E+00
  4.58066570875E+00  3.40967889706E+00  2.25287288051E+00  1.83518533683E+00  1.63527587366E+00
  1.63535377942E+00  1.83532033648E+00  2.25288048266E+00  2.92137899195E+00  3.89095566094E+00
  5.22789008377E+00  6.99739293519E+00  9.21437033367E+00  1.17696832211E+01  1.43700316329E+01
  1.65512234758E+01  1.78092074149E+01  1.78096231272E+01  1.65518418777E+01  1.43696631379E+01
  1.17681885673E+01  9.21310632508E+00  6.99734407621E+00  5.22872480459E+00  3.89193155552E+00
  2.92186133887E+00  1.96607932578E+00  1.67807204413E+00  1.58520576785E+00  1.67843832167E+00
  1.96640788166E+00  2.47314213439E+00  3.23565571814E+00  4.30462767551E+00  5.73856186840E+00
  7.57521128777E+00  9.77474037346E+00  1.21555140545E+01  1.43694138794E+01  1.59659052851E+01
  1.65512234758E+01  1.59669131989E+01  1.43696631379E+01  1.21538753610E+01  9.77255029185E+00
  7.57441100888E+00  5.73932140341E+00  4.30615679814E+00  3.23679773449E+00  2.47335368746E+00
  1.73535914996E+00  1.56499914043E+00  1.56521450706E+00  1.73587745166E+00  2.09258836160E+00
  2.66192957839E+00  3.47895961635E+00  4.58630537649E+00  6.02185887025E+00  7.78310239663E+00
  9.77479065091E+00  1.17692867119E+01  1.34225558830E+01  1.43694138794E+01  1.43700316329E+01
  1.34231964215E+01  1.17681885673E+01  9.77255029185E+00  7.78189118412E+00  6.02243788745E+00
  4.58797119455E+00  3.48033471091E+00  2.66219165290E+00  2.09216742494E+00  1.56451815187E+00
  1.49168609198E+00  1.56481898184E+00  1.79177651048E+00  2.19186787748E+00  2.78957282211E+00
  3.61216127085E+00  4.68653989435E+00  6.02208160967E+00  7.57575388885E+00  9.21491176171E+00
  1.07079854204E+01  1.17692867119E+01  1.21555140545E+01  1.17696832211E+01  1.07074022155E+01
  9.21310632508E+00  7.57441100888E+00  6.02243788745E+00  4.68822325521E+00  3.61364094036E+00
  2.78973157507E+00  2.19121212841E+00  1.79113012939E+00  1.44901919406E+00  1.44913865552E+00
  1.57237230786E+00  1.83182429983E+00  2.24644547525E+00  2.83467041676E+00  3.61223868199E+00
  4.58663983693E+00  5.73921794007E+00  6.99848353185E+00  8.22286655886E+00  9.21491176171E+00
  9.77479065091E+00  9.77474037346E+00  9.21437033367E+00  8.22154482991E+00  6.99734407621E+00
  5.73932140341E+00  4.58797119455E+00  3.61364094036E+00  2.83492705100E+00  2.24577131692E+00
  1.83102744180E+00  1.57190353978E+00  1.37990287674E+00  1.42800758458E+00  1.57862458683E+00
  1.84640827570E+00  2.24648022218E+00  2.78948018973E+00  3.47904131268E+00  4.30499151736E+00
  5.22868802330E+00  6.16825889880E+00  6.99848353185E+00  7.57575388885E+00  7.78310239663E+00
  7.57521128777E+00  6.99739293519E+00  6.16722673407E+00  5.22872480459E+00  4.30615679814E+00
  3.48033471091E+00  2.78973157507E+00  2.24577131692E+00  1.84557092133E+00  1.57820731170E+00
  1.42795635805E+00  1.34812952172E+00  1.42168746036E+00  1.57863454514E+00  1.83204299678E+00
  2.19196371762E+00  2.66180560154E+00  3.23547156077E+00  3.89087945051E+00  4.58073749473E+00
  5.22868802330E+00  5.73921794007E+00  6.02208160967E+00  6.02185887025E+00  5.73856186840E+00
  5.22789008377E+00  4.58066570875E+00  3.89193155552E+00  3.23679773449E+00  2.66219165290E+00
  2.19121212841E+00  1.83102744180E+00  1.57820731170E+00  1.42188286844E+00  1.34830735894E+00
  1.34810058921E+00  1.42789215004E+00  1.57236014487E+00  1.79196132742E+00  2.09270106363E+00
  2.47304743687E+00  2.92090673087E+00  3.40892051139E+00  3.89087945051E+00  4.30499151736E+00
  4.58663983693E+00  4.68653989435E+00  4.58630537649E+00  4.30462767551E+00  3.89095566094E+00
  3.40967889706E+00  2.92186133887E+00  2.47335368746E+00  2.09216742494E+00  1.79113012939E+00
  1.57190353978E+00  1.42795635805E+00  1.34830735894E+00  1.32298893129E+00  1.69882039864E+00
  1.74998081590E+00  1.83667441956E+00  1.96649471604E+00  2.14150305011E+00  2.35594725147E+00
  2.59474631701E+00  2.83304122342E+00  3.03870812805E+00  3.17885728020E+00  3.22868317416E+00
  3.17892854171E+00  3.03880017689E+00  2.83313031556E+00  2.59484764401E+00  2.35602766358E+00
  2.14147912349E+00  1.96636158797E+00  1.83651821280E+00  1.74987501726E+00  1.69877245829E+00
  1.67345780348E+00  1.66601197022E+00  1.67346285675E+00  1.74998081590E+00  1.75368172576E+00
  1.77897999853E+00  1.83539487357E+00  1.92647083695E+00  2.04720551810E+00  2.18369953068E+00
  2.31545953102E+00  2.41986757175E+00  2.47764367488E+00  2.47768757625E+00  2.41993364641E+00
  2.31546257007E+00  2.18363314416E+00  2.04713574031E+00  1.92644463064E+00  1.83536253642E+00
  1.77890790523E+00  1.75360527033E+00  1.74998069112E+00  1.75627040188E+00  1.76225999242E+00
  1.76221707334E+00  1.75619458920E+00  1.83667441956E+00  1.77897999853E+00  1.73606520394E+00
  1.72021043420E+00  1.73606909644E+00  1.77899349953E+00  1.83670563796E+00  1.89337292357E+00
  1.93420951357E+00  1.94901612775E+00  1.93417920097E+00  1.89331473719E+00  1.83661985154E+00
  1.77891160649E+00  1.73602843531E+00  1.72021527233E+00  1.73610555971E+00  1.77904468569E+00
  1.83677002544E+00  1.89343624989E+00  1.93423861167E+00  1.94901007245E+00  1.93416461767E+00
  1.89332456637E+00  1.96649471604E+00  1.83539487357E+00  1.72021043420E+00  1.63524726825E+00
  1.58510168942E+00  1.56509763635E+00  1.56475963827E+00  1.57237149407E+00  1.57862288494E+00
  1.57857498553E+00  1.57228777886E+00  1.56472490494E+00  1.56514505526E+00  1.58518513335E+00
  1.63531032246E+00  1.72025664649E+00  1.83542812018E+00  1.96651469916E+00  2.09266479010E+00
  2.19189510588E+00  2.24642492195E+00  2.24643231688E+00  2.19191551192E+00  2.09267079903E+00
  2.14150305011E+00  1.92647083695E+00  1.73606909644E+00  1.58510168942E+00  1.47729367935E+00
  1.40784855159E+00  1.36775367407E+00  1.34792142654E+00  1.34203697950E+00  1.34791056775E+00
  1.36777343513E+00  1.40793716399E+00  1.47741652370E+00  1.58521537094E+00  1.73615001193E+00
  1.92647498504E+00  2.14140646201E+00  2.35598773124E+00  2.53978517487E+00  2.66386867177E+00
  2.70771556770E+00  2.66395564893E+00  2.53994438162E+00  2.35615539217E+00  2.35594725147E+00
  2.04720551810E+00  1.77899349953E+00  1.56509763635E+00  1.40784855159E+00  1.30193793912E+00
  1.23858541321E+00  1.20940250819E+00  1.20940431453E+00  1.23860996197E+00  1.30201502885E+00
  1.40792350160E+00  1.56511921382E+00  1.77895980214E+00  2.04712960915E+00  2.35585767518E+00
  2.67797312224E+00  2.97509886374E+00  3.20464330730E+00  3.32997394889E+00  3.32998755268E+00
  3.20468506424E+00  2.97517709594E+00  2.67807154099E+00  2.59474631701E+00  2.18369953068E+00
  1.83670563796E+00  1.56475963827E+00  1.36775367407E+00  1.23858541321E+00  1.16706574424E+00
  1.14435738059E+00  1.16701445671E+00  1.23857708050E+00  1.36778363323E+00  1.56475060050E+00
  1.83660874137E+00  2.18358073651E+00  2.59469945922E+00  3.04335490896E+00  3.48552307070E+00
  3.86415724906E+00  4.12092509287E+00  4.21189776732E+00  4.12079789714E+00  3.86401238866E+00
  3.48542906951E+00  3.04332009977E+00  2.83304122342E+00  2.31545953102E+00  1.89337292357E+00
  1.57237149407E+00  1.34792142654E+00  1.20940250819E+00  1.14435738059E+00  1.14430317089E+00
  1.20932626604E+00  1.34790844719E+00  1.57237705762E+00  1.89332170729E+00  2.31544916702E+00
  2.83316515879E+00  3.42427351522E+00  4.04381989865E+00  4.62245117961E+00  5.07600105490E+00
  5.32640592843E+00  5.32630050642E+00  5.07583655589E+00  4.62236879375E+00  4.04379360413E+00
  3.42418395692E+00  3.03870812805E+00  2.41986757175E+00  1.93420951357E+00  1.57862288494E+00
  1.34203697950E+00  1.20940431453E+00  1.16701445671E+00  1.20932626604E+00  1.34204049552E+00
  1.57874196597E+00  1.93425441868E+00  2.41985316656E+00  3.03878391581E+00  3.77884411104E+00
  4.60124322546E+00  5.43094750843E+00  6.15862473491E+00  6.66184009043E+00  6.84221247448E+00
  6.66180399449E+00  6.15861407637E+00  5.43099202222E+00  4.60123536598E+00  3.77873388882E+00
  3.17885728020E+00  2.47764367488E+00  1.94901612775E+00  1.57857498553E+00  1.34791056775E+00
  1.23860996197E+00  1.23857708050E+00  1.34790844719E+00  1.57874196597E+00  1.94917082223E+00
  2.47764172137E+00  3.17874871803E+00  4.05595969398E+00  5.08658065464E+00  6.20184448221E+00
  7.27658830146E+00  8.14160575430E+00  8.62783242611E+00  8.62789400593E+00  8.14168899046E+00
  7.27666877514E+00  6.20185562852E+00  5.08653444780E+00  4.05604929178E+00  3.22868317416E+00
  2.47768757625E+00  1.93417920097E+00  1.57228777886E+00  1.36777343513E+00  1.30201502885E+00
  1.36778363323E+00  1.57237705762E+00  1.93425441868E+00  2.47764172137E+00  3.22853941687E+00
  4.20884813915E+00  5.42050997879E+00  6.81706367048E+00  8.27704107025E+00  9.59760474729E+00
  1.05316381995E+01  1.08704642569E+01  1.05317055020E+01  9.59775986219E+00  8.27726644497E+00
  6.81704800351E+00  5.42039436525E+00  4.20897099731E+00  3.17892854171E+00  2.41993364641E+00
  1.89331473719E+00  1.56472490494E+00  1.40793716399E+00  1.40792350160E+00  1.56475060050E+00
  1.89332170729E+00  2.41985316656E+00  3.17874871803E+00  4.20884813915E+00  5.53996109406E+00
  7.16099522538E+00  8.97887157538E+00  1.07869437254E+01  1.22779659477E+01  1.31287999964E+01
  1.31287368540E+01  1.22778384626E+01  1.07870061705E+01  8.97903442141E+00  7.16080733623E+00
  5.53974365574E+00  4.20898638051E+00  3.03880017689E+00  2.31546257007E+00  1.83661985154E+00
  1.56514505526E+00  1.47741652370E+00  1.56511921382E+00  1.83660874137E+00  2.31544916702E+00
  3.03878391581E+00  4.05595969398E+00  5.42050997879E+00  7.16099522538E+00  9.23236943083E+00
  1.14612039069E+01  1.35234233187E+01  1.50049732759E+01  1.55466985496E+01  1.50048791399E+01
  1.35231215551E+01  1.14610483849E+01  9.23242433516E+00  7.16088946660E+00  5.42042451247E+00
  4.05607579102E+00  2.83313031556E+00  2.18363314416E+00  1.77891160649E+00  1.58518513335E+00
  1.58521537094E+00  1.77895980214E+00  2.18358073651E+00  2.83316515879E+00  3.77884411104E+00
  5.08658065464E+00  6.81706367048E+00  8.97887157538E+00  1.14612039069E+01  1.39768731984E+01
  1.60795088425E+01  1.72893251655E+01  1.72893754075E+01  1.60794463297E+01  1.39766119967E+01
  1.14612273019E+01  8.97917304711E+00  6.81707239854E+00  5.08644748245E+00  3.77872663146E+00
  2.59484764401E+00  2.04713574031E+00  1.73602843531E+00  1.63531032246E+00  1.73615001193E+00
  2.04712960915E+00  2.59469945922E+00  3.42427351522E+00  4.60124322546E+00  6.20184448221E+00
  8.27704107025E+00  1.07869437254E+01  1.35234233187E+01  1.60795088425E+01  1.79110492527E+01
  1.85862267027E+01  1.79111408999E+01  1.60794984942E+01  1.35233327082E+01  1.07872337569E+01
  8.27728036425E+00  6.20171823965E+00  4.60108042824E+00  3.42422641140E+00  2.35602766358E+00
  1.92644463064E+00  1.72021527233E+00  1.72025664649E+00  1.92647498504E+00  2.35585767518E+00
  3.04335490896E+00  4.04381989865E+00  5.43094750843E+00  7.27658830146E+00  9.59760474729E+00
  1.22779659477E+01  1.50049732759E+01  1.72893251655E+01  1.85862267027E+01  1.85862815244E+01
  1.72894038857E+01  1.50047897133E+01  1.22778939472E+01  9.59780282357E+00  7.27653760569E+00
  5.43081335527E+00  4.04370695058E+00  3.04342177068E+00  2.14147912349E+00  1.83536253642E+00
  1.73610555971E+00  1.83542812018E+00  2.14140646201E+00  2.67797312224E+00  3.48552307070E+00
  4.62245117961E+00  6.15862473491E+00  8.14160575430E+00  1.05316381995E+01  1.31287999964E+01
  1.55466985496E+01  1.72893754075E+01  1.79111408999E+01  1.72894038857E+01  1.55464765571E+01
  1.31285068231E+01  1.05317371613E+01  8.14163441316E+00  6.15846808954E+00  4.62230201198E+00
  3.48545751508E+00  2.67814466595E+00  1.96636158797E+00  1.77890790523E+00  1.77904468569E+00
  1.96651469916E+00  2.35598773124E+00  2.97509886374E+00  3.86415724906E+00  5.07600105490E+00
  6.66184009043E+00  8.62783242611E+00  1.08704642569E+01  1.31287368540E+01  1.50048791399E+01
  1.60794463297E+01  1.60794984942E+01  1.50047897133E+01  1.31285068231E+01  1.08705260024E+01
  8.62800461278E+00  6.66181024000E+00  5.07589057031E+00  3.86407605890E+00  2.97528278419E+00
  2.35617788068E+00  1.83651821280E+00  1.75360527033E+00  1.83677002544E+00  2.09266479010E+00
  2.53978517487E+00  3.20464330730E+00  4.12092509287E+00  5.32640592843E+00  6.84221247448E+00
  8.62789400593E+00  1.05317055020E+01  1.22778384626E+01  1.35231215551E+01  1.39766119967E+01
  1.35233327082E+01  1.22778939472E+01  1.05317371613E+01  8.62800461278E+00  6.84234292864E+00
  5.32647030994E+00  4.12086112084E+00  3.20469440744E+00  2.54005650873E+00  2.09264142769E+00
  1.74987501726E+00  1.74998069112E+00  1.89343624989E+00  2.19189510588E+00  2.66386867177E+00
  3.32997394889E+00  4.21189776732E+00  5.32630050642E+00  6.66180399449E+00  8.14168899046E+00
  9.59775986219E+00  1.07870061705E+01  1.14610483849E+01  1.14612273019E+01  1.07872337569E+01
  9.59780282357E+00  8.14163441316E+00  6.66181024000E+00  5.32647030994E+00  4.21192408179E+00
  3.32987754561E+00  2.66400408376E+00  2.19202307840E+00  1.89331510633E+00  1.69877245829E+00
  1.75627040188E+00  1.93423861167E+00  2.24642492195E+00  2.70771556770E+00  3.32998755268E+00
  4.12079789714E+00  5.07583655589E+00  6.15861407637E+00  7.27666877514E+00  8.27726644497E+00
  8.97903442141E+00  9.23242433516E+00  8.97917304711E+00  8.27728036425E+00  7.27653760569E+00
  6.15846808954E+00  5.07589057031E+00  4.12086112084E+00  3.32987754561E+00  2.70773520570E+00
  2.24653321705E+00  1.93422702737E+00  1.75616658449E+00  1.67345780348E+00  1.76225999242E+00
  1.94901007245E+00  2.24643231688E+00  2.66395564893E+00  3.20468506424E+00  3.86401238866E+00
  4.62236879375E+00  5.43099202222E+00  6.20185562852E+00  6.81704800351E+00  7.16080733623E+00
  7.16088946660E+00  6.81707239854E+00  6.20171823965E+00  5.43081335527E+00  4.62230201198E+00
  3.86407605890E+00  3.20469440744E+00  2.66400408376E+00  2.24653321705E+00  1.94902845596E+00
  1.76216090083E+00  1.67337069831E+00  1.66601197022E+00  1.76221707334E+00  1.93416461767E+00
  2.19191551192E+00  2.53994438162E+00  2.97517709594E+00  3.48542906951E+00  4.04379360413E+00
  4.60123536598E+00  5.08653444780E+00  5.42039436525E+00  5.53974365574E+00  5.42042451247E+00
  5.08644748245E+00  4.60108042824E+00  4.04370695058E+00  3.48545751508E+00  2.97528278419E+00
  2.54005650873E+00  2.19202307840E+00  1.93422702737E+00  1.76216090083E+00  1.66587984858E+00
  1.63530302557E+00  1.67346285675E+00  1.75619458920E+00  1.89332456637E+00  2.09267079903E+00
  2.35615539217E+00  2.67807154099E+00  3.04332009977E+00  3.42418395692E+00  3.77873388882E+00
  4.05604929178E+00  4.20897099731E+00  4.20898638051E+00  4.05607579102E+00  3.77872663146E+00
  3.42422641140E+00  3.04342177068E+00  2.67814466595E+00  2.35617788068E+00  2.09264142769E+00
  1.89331510633E+00  1.75616658449E+00  1.67337069831E+00  1.63530302557E+00  1.63535706143E+00
  2.13527711264E+00  2.14697276341E+00  2.18369265068E+00  2.25287662892E+00  2.35597203487E+00
  2.48769056219E+00  2.63542371728E+00  2.77934981179E+00  2.89511185099E+00  2.95994138581E+00
  2.96000001053E+00  2.89526598651E+00  2.77949784749E+00  2.63537747606E+00  2.48738391310E+00
  2.35567069420E+00  2.25291961063E+00  2.18406417849E+00  2.14728148537E+00  2.13522596141E+00
  2.13698023607E+00  2.14147577942E+00  2.14164525867E+00  2.13727450020E+00  2.14697276341E+00
  2.08910782699E+00  2.04720644960E+00  2.03197806050E+00  2.04721640240E+00  2.08910751529E+00
  2.14696447951E+00  2.20548496202E+00  2.24865806975E+00  2.26443720416E+00  2.24845951110E+00
  2.20531999678E+00  2.14696561801E+00  2.08917978913E+00  2.04722612284E+00  2.03194610808E+00
  2.04724522104E+00  2.08919217413E+00  2.14696568671E+00  2.20532516388E+00  2.24846827710E+00
  2.26442952936E+00  2.24863799225E+00  2.20547826332E+00  2.18369265068E+00  2.04720644960E+00
  1.92646868325E+00  1.83539834807E+00  1.77899348893E+00  1.75369848806E+00  1.74999953250E+00
  1.75621556040E+00  1.76222043924E+00  1.76221638542E+00  1.75618033968E+00  1.74988127152E+00
  1.75353435393E+00  1.77888285843E+00  1.83539223692E+00  1.92653171164E+00  2.04725823471E+00
  2.18374750866E+00  2.31553497637E+00  2.41995502421E+00  2.47766157065E+00  2.47758339978E+00
  2.41980341535E+00  2.31542291652E+00  2.25287662892E+00  2.03197806050E+00  1.83539834807E+00
  1.67829907488E+00  1.56510173335E+00  1.49161744518E+00  1.44898541240E+00  1.42787114854E+00
  1.42162904986E+00  1.42790523578E+00  1.44902567792E+00  1.49162121258E+00  1.56501645133E+00
  1.67816323933E+00  1.83532556473E+00  2.03202545476E+00  2.25302424346E+00  2.47322094449E+00
  2.66192418959E+00  2.78950277551E+00  2.83457130426E+00  2.78938551573E+00  2.66174463754E+00
  2.47303313407E+00  2.35597203487E+00  2.04721640240E+00  1.77899348893E+00  1.56510173335E+00
  1.40785576439E+00  1.30193299272E+00  1.23856173251E+00  1.20936383319E+00  1.20935251633E+00
  1.23855485087E+00  1.30198857495E+00  1.40795728420E+00  1.56520854072E+00  1.77906982034E+00
  2.04723070765E+00  2.35593356618E+00  2.67800429424E+00  2.97506947054E+00  3.20456644390E+00
  3.32988693399E+00  3.32991990958E+00  3.20464662124E+00  2.97516995254E+00  2.67809045159E+00
  2.48769056219E+00  2.08910751529E+00  1.75369848806E+00  1.49161744518E+00  1.30193299272E+00
  1.17738666687E+00  1.10834832537E+00  1.08654934594E+00  1.10854590117E+00  1.17748648668E+00
  1.30180732415E+00  1.49156675490E+00  1.75397952991E+00  2.08950865601E+00  2.48775896670E+00
  2.92313521851E+00  3.35298259744E+00  3.72160423862E+00  3.97180793535E+00  4.06049327238E+00
  3.97177120790E+00  3.72180718446E+00  3.35347682032E+00  2.92353786634E+00  2.63542371728E+00
  2.14696447951E+00  1.74999953250E+00  1.44898541240E+00  1.23856173251E+00  1.10834832537E+00
  1.04705106398E+00  1.04709917452E+00  1.10840594629E+00  1.23851008534E+00  1.44894440518E+00
  1.75015302743E+00  2.14727378513E+00  2.63555453964E+00  3.19433264600E+00  3.78111754201E+00
  4.33020078412E+00  4.76136146518E+00  4.99963739625E+00  4.99947621278E+00  4.76115353913E+00
  4.33037531723E+00  3.78160267404E+00  3.19464164092E+00  2.77934981179E+00  2.20548496202E+00
  1.75621556040E+00  1.42787114854E+00  1.20936383319E+00  1.08654934594E+00  1.04709917452E+00
  1.08621329547E+00  1.20913658005E+00  1.42812652499E+00  1.75679236993E+00  2.20590077551E+00
  2.77920920814E+00  3.46611895181E+00  4.23085508678E+00  5.00327768588E+00  5.68132760807E+00
  6.15053226642E+00  6.31853922602E+00  6.14997580078E+00  5.68078725044E+00  5.00326976337E+00
  4.23140415326E+00  3.46675934185E+00  2.89511185099E+00  2.24865806975E+00  1.76222043924E+00
  1.42162904986E+00  1.20935251633E+00  1.10854590117E+00  1.10840594629E+00  1.20913658005E+00
  1.42179533343E+00  1.76290590769E+00  2.24950188687E+00  2.89534251130E+00  3.70417329047E+00
  4.65511325179E+00  5.68434392681E+00  6.67566282674E+00  7.47292791031E+00  7.92056740004E+00
  7.92003817573E+00  7.47191809432E+00  6.67517181477E+00  5.68488633868E+00  4.65624179716E+00
  3.70491895702E+00  2.95994138581E+00  2.26443720416E+00  1.76221638542E+00  1.42790523578E+00
  1.23855485087E+00  1.17748648668E+00  1.23851008534E+00  1.42812652499E+00  1.76290590769E+00
  2.26532997652E+00  2.96025676343E+00  3.86889419226E+00  4.99251150954E+00  6.28623944944E+00
  7.63554326983E+00  8.85213087991E+00  9.71027749299E+00  1.00207053123E+01  9.70926067043E+00
  8.85104553207E+00  7.63536574352E+00  6.28722947167E+00  4.99382317748E+00  3.86963697603E+00
  2.96000001053E+00  2.24845951110E+00  1.75618033968E+00  1.44902567792E+00  1.30198857495E+00
  1.30180732415E+00  1.44894440518E+00  1.75679236993E+00  2.24950188687E+00  2.96025676343E+00
  3.92767062469E+00  5.18039914012E+00  6.70538047560E+00  8.40982810510E+00  1.00953045608E+01
  1.14770132363E+01  1.22622200398E+01  1.22617561565E+01  1.14756732061E+01  1.00936110558E+01
  8.40917266743E+00  6.70636497066E+00  5.18212752495E+00  3.92885000552E+00  2.89526598651E+00
  2.20531999678E+00  1.74988127152E+00  1.49162121258E+00  1.40795728420E+00  1.49156675490E+00
  1.75015302743E+00  2.20590077551E+00  2.89534251130E+00  3.86889419226E+00  5.18039914012E+00
  6.85589016317E+00  8.84487976592E+00  1.09704112308E+01  1.29202236656E+01  1.42901753695E+01
  1.47948001379E+01  1.42895374876E+01  1.29185196028E+01  1.09681208750E+01  8.84398227637E+00
  6.85697067514E+00  5.18217061466E+00  3.87005749153E+00  2.77949784749E+00  2.14696561801E+00
  1.75353435393E+00  1.56501645133E+00  1.56520854072E+00  1.75397952991E+00  2.14727378513E+00
  2.77920920814E+00  3.70417329047E+00  4.99251150954E+00  6.70538047560E+00  8.84487976592E+00
  1.12863942526E+01  1.37179232969E+01  1.57412630908E+01  1.69048773918E+01  1.69050595833E+01
  1.57412065960E+01  1.37164919910E+01  1.12840217931E+01  8.84390802114E+00  6.70626427009E+00
  4.99406184560E+00  3.70539164583E+00  2.63537747606E+00  2.08917978913E+00  1.77888285843E+00
  1.67816323933E+00  1.77906982034E+00  2.08950865601E+00  2.63555453964E+00  3.46611895181E+00
  4.65511325179E+00  6.28623944944E+00  8.40982810510E+00  1.09704112308E+01  1.37179232969E+01
  1.62698134550E+01  1.81164071783E+01  1.87958814723E+01  1.81178099509E+01  1.62704663773E+01
  1.37161527914E+01  1.09677669613E+01  8.40937379489E+00  6.28766921687E+00  4.65670562024E+00
  3.46682096109E+00  2.48738391310E+00  2.04722612284E+00  1.83539223692E+00  1.83532556473E+00
  2.04723070765E+00  2.48775896670E+00  3.19433264600E+00  4.23085508678E+00  5.68434392681E+00
  7.63554326983E+00  1.00953045608E+01  1.29202236656E+01  1.57412630908E+01  1.81164071783E+01
  1.94899121688E+01  1.94909404275E+01  1.81179785580E+01  1.57410878420E+01  1.29180082155E+01
  1.00938065921E+01  7.63641661801E+00  5.68587632610E+00  4.23156587535E+00  3.19408147513E+00
  2.35567069420E+00  2.03194610808E+00  1.92653171164E+00  2.03202545476E+00  2.35593356618E+00
  2.92313521851E+00  3.78111754201E+00  5.00327768588E+00  6.67566282674E+00  8.85213087991E+00
  1.14770132363E+01  1.42901753695E+01  1.69048773918E+01  1.87958814723E+01  1.94909404275E+01
  1.87967030972E+01  1.69052881598E+01  1.42894792390E+01  1.14759833435E+01  8.85232772912E+00
  6.67658365055E+00  5.00377452576E+00  3.78098536463E+00  2.92274020105E+00  2.25291961063E+00
  2.04724522104E+00  2.04725823471E+00  2.25302424346E+00  2.67800429424E+00  3.35298259744E+00
  4.33020078412E+00  5.68132760807E+00  7.47292791031E+00  9.71027749299E+00  1.22622200398E+01
  1.47948001379E+01  1.69050595833E+01  1.81178099509E+01  1.81179785580E+01  1.69052881598E+01
  1.47948268468E+01  1.22621900452E+01  9.71077555263E+00  7.47364265993E+00  5.68134513938E+00
  4.32955400562E+00  3.35235262696E+00  2.67772705880E+00  2.18406417849E+00  2.08919217413E+00
  2.18374750866E+00  2.47322094449E+00  2.97506947054E+00  3.72160423862E+00  4.76136146518E+00
  6.15053226642E+00  7.92056740004E+00  1.00207053123E+01  1.22617561565E+01  1.42895374876E+01
  1.57412065960E+01  1.62704663773E+01  1.57410878420E+01  1.42894792390E+01  1.22621900452E+01
  1.00219318657E+01  7.92191401232E+00  6.15070788816E+00  4.76003548740E+00  3.72010151627E+00
  2.97449393896E+00  2.47339598753E+00  2.14728148537E+00  2.14696568671E+00  2.31553497637E+00
  2.66192418959E+00  3.20456644390E+00  3.97180793535E+00  4.99963739625E+00  6.31853922602E+00
  7.92003817573E+00  9.70926067043E+00  1.14756732061E+01  1.29185196028E+01  1.37164919910E+01
  1.37161527914E+01  1.29180082155E+01  1.14759833435E+01  9.71077555263E+00  7.92191401232E+00
  6.31920128112E+00  4.99828256600E+00  3.96981732281E+00  3.20366187962E+00  2.66221384770E+00
  2.31622799029E+00  2.13522596141E+00  2.20532516388E+00  2.41995502421E+00  2.78950277551E+00
  3.32988693399E+00  4.06049327238E+00  4.99947621278E+00  6.14997580078E+00  7.47191809432E+00
  8.85104553207E+00  1.00936110558E+01  1.09681208750E+01  1.12840217931E+01  1.09677669613E+01
  1.00938065921E+01  8.85232772912E+00  7.47364265993E+00  6.15070788816E+00  4.99828256600E+00
  4.05848179464E+00  3.32886573729E+00  2.78986277613E+00  2.42097351911E+00  2.20605558130E+00
  2.13698023607E+00  2.24846827710E+00  2.47766157065E+00  2.83457130426E+00  3.32991990958E+00
  3.97177120790E+00  4.76115353913E+00  5.68078725044E+00  6.67517181477E+00  7.63536574352E+00
  8.40917266743E+00  8.84398227637E+00  8.84390802114E+00  8.40937379489E+00  7.63641661801E+00
  6.67658365055E+00  5.68134513938E+00  4.76003548740E+00  3.96981732281E+00  3.32886573729E+00
  2.83494434291E+00  2.47881415865E+00  2.24943223050E+00  2.13730452400E+00  2.14147577942E+00
  2.26442952936E+00  2.47758339978E+00  2.78938551573E+00  3.20464662124E+00  3.72180718446E+00
  4.33037531723E+00  5.00326976337E+00  5.68488633868E+00  6.28722947167E+00  6.70636497066E+00
  6.85697067514E+00  6.70626427009E+00  6.28766921687E+00  5.68587632610E+00  5.00377452576E+00
  4.32955400562E+00  3.72010151627E+00  3.20366187962E+00  2.78986277613E+00  2.47881415865E+00
  2.26527196841E+00  2.14167232185E+00  2.10140324589E+00  2.14164525867E+00  2.24863799225E+00
  2.41980341535E+00  2.66174463754E+00  2.97516995254E+00  3.35347682032E+00  3.78160267404E+00
  4.23140415326E+00  4.65624179716E+00  4.99382317748E+00  5.18212752495E+00  5.18217061466E+00
  4.99406184560E+00  4.65670562024E+00  4.23156587535E+00  3.78098536463E+00  3.35235262696E+00
  2.97449393896E+00  2.66221384770E+00  2.42097351911E+00  2.24943223050E+00  2.14167232185E+00
  2.09046398092E+00  2.09059286943E+00  2.13727450020E+00  2.20547826332E+00  2.31542291652E+00
  2.47303313407E+00  2.67809045159E+00  2.92353786634E+00  3.19464164092E+00  3.46675934185E+00
  3.70491895702E+00  3.86963697603E+00  3.92885000552E+00  3.87005749153E+00  3.70539164583E+00
  3.46682096109E+00  3.19408147513E+00  2.92274020105E+00  2.67772705880E+00  2.47339598753E+00
  2.31622799029E+00  2.20605558130E+00  2.13730452400E+00  2.10140324589E+00  2.09059286943E+00
  2.10160498515E+00  2.69334254795E+00  2.63545956328E+00  2.59476473581E+00  2.58024589797E+00
  2.59479403511E+00  2.63544355078E+00  2.69327211045E+00  2.75376215499E+00  2.79971169319E+00
  2.81686967273E+00  2.79973424133E+00  2.75389795057E+00  2.69347584302E+00  2.63554835847E+00
  2.59475333547E+00  2.58017252859E+00  2.59470743587E+00  2.63541154117E+00  2.69328968632E+00
  2.75377839257E+00  2.79971518363E+00  2.81688504643E+00  2.79973241829E+00  2.75381860919E+00
  2.63545956328E+00  2.48769058539E+00  2.35594654967E+00  2.25287239232E+00  2.18370470018E+00
  2.14695438611E+00  2.13523360584E+00  2.13726085830E+00  2.14167549347E+00  2.14151863242E+00
  2.13703499477E+00  2.13531320011E+00  2.14736625227E+00  2.18407944249E+00  2.25286343403E+00
  2.35559695180E+00  2.48730782600E+00  2.63527922246E+00  2.77940723719E+00  2.89524581821E+00
  2.96004641873E+00  2.95999001591E+00  2.89513965279E+00  2.77938422279E+00  2.59476473581E+00
  2.35594654967E+00  2.14148550641E+00  1.96649556664E+00  1.83669215546E+00  1.74998262560E+00
  1.69880956514E+00  1.67347133125E+00  1.66603271832E+00  1.67345405508E+00  1.69874829749E+00
  1.74986841616E+00  1.83653054870E+00  1.96636220167E+00  2.14147202369E+00  2.35604385958E+00
  2.59487779071E+00  2.83313466746E+00  3.03878002429E+00  3.17891998581E+00  3.22868713156E+00
  3.17884421340E+00  3.03868457565E+00  2.83304160092E+00  2.58024589797E+00  2.25287239232E+00
  1.96649556664E+00  1.73586768014E+00  1.56476782107E+00  1.44898603700E+00  1.37980050848E+00
  1.34807210641E+00  1.34809254062E+00  1.37984351104E+00  1.44897720906E+00  1.56455220687E+00
  1.73546199086E+00  1.96619322188E+00  2.25297135291E+00  2.58072626977E+00  2.92142274545E+00
  3.23561626854E+00  3.47885713205E+00  3.61206063015E+00  3.61216851469E+00  3.47899114198E+00
  3.23544958097E+00  2.92092939457E+00  2.59479403511E+00  2.18370470018E+00  1.83669215546E+00
  1.56476782107E+00  1.36776696427E+00  1.23856106911E+00  1.16701044074E+00  1.14430958209E+00
  1.16698373131E+00  1.23856574020E+00  1.36783228623E+00  1.56488774770E+00  1.83678149787E+00
  2.18370416861E+00  2.59474876482E+00  3.04334774626E+00  3.48545071810E+00  3.86401078476E+00
  4.12076015317E+00  4.21179384382E+00  4.12076944754E+00  3.86402247746E+00  3.48546259931E+00
  3.04337711277E+00  2.63544355078E+00  2.14695438611E+00  1.74998262560E+00  1.44898603700E+00
  1.23856106911E+00  1.10831983127E+00  1.04701283568E+00  1.04708771082E+00  1.10842645989E+00
  1.23855386354E+00  1.44902079488E+00  1.75025690953E+00  2.14735339323E+00  2.63556121864E+00
  3.19427715270E+00  3.78103684841E+00  4.33010408932E+00  4.76125462658E+00  4.99956291825E+00
  4.99947268788E+00  4.76120028713E+00  4.33042487263E+00  3.78164204574E+00  3.19467823012E+00
  2.69327211045E+00  2.13523360584E+00  1.69880956514E+00  1.37980050848E+00  1.16701044074E+00
  1.04701283568E+00  1.00853630980E+00  1.04707487312E+00  1.16706346011E+00  1.37979215289E+00
  1.69870985554E+00  2.13511341470E+00  2.69318832565E+00  3.36258289042E+00  4.10834233776E+00
  4.86252875073E+00  5.52581432390E+00  5.98585200540E+00  6.15112358932E+00  5.98595976118E+00
  5.52587361614E+00  4.86247251310E+00  4.10828239875E+00  3.36260302186E+00  2.75376215499E+00
  2.13726085830E+00  1.67347133125E+00  1.34807210641E+00  1.14430958209E+00  1.04708771082E+00
  1.04707487312E+00  1.14428444636E+00  1.34805177525E+00  1.67337177322E+00  2.13700560328E+00
  2.75338413361E+00  3.52701846992E+00  4.43825291203E+00  5.42625460589E+00  6.38009560679E+00
  7.14931614998E+00  7.58238968260E+00  7.58242065008E+00  7.14922275488E+00  6.37970268826E+00
  5.42570305086E+00  4.43795130294E+00  3.52721415140E+00  2.79971169319E+00  2.14167549347E+00
  1.66603271832E+00  1.34809254062E+00  1.16698373131E+00  1.10842645989E+00  1.16706346011E+00
  1.34805177525E+00  1.66584831217E+00  2.14161878942E+00  2.79983585429E+00  3.66178235422E+00
  4.72948505650E+00  5.96111598326E+00  7.24789360659E+00  8.41001290301E+00  9.23081319857E+00
  9.52822605229E+00  9.23071261555E+00  8.40993244346E+00  7.24793690404E+00  5.96117287737E+00
  4.72939619131E+00  3.66160566980E+00  2.81686967273E+00  2.14151863242E+00  1.67345405508E+00
  1.37984351104E+00  1.23856574020E+00  1.23855386354E+00  1.37979215289E+00  1.67337177322E+00
  2.14161878942E+00  2.81714468672E+00  3.73828990510E+00  4.93310205297E+00  6.38899624471E+00
  8.01546823586E+00  9.62072815177E+00  1.09337678600E+01  1.16601133764E+01  1.16604744926E+01
  1.09344938525E+01  9.62112942444E+00  8.01554169449E+00  6.38906008352E+00  4.93295620914E+00
  3.73798522779E+00  2.79973424133E+00  2.13703499477E+00  1.69874829749E+00  1.44897720906E+00
  1.36783228623E+00  1.44902079488E+00  1.69870985554E+00  2.13700560328E+00  2.79983585429E+00
  3.73828990510E+00  5.00627849453E+00  6.62842140103E+00  8.54972432703E+00  1.05898505032E+01
  1.24220575590E+01  1.37397736721E+01  1.42210313732E+01  1.37400266879E+01  1.24224032112E+01
  1.05897871531E+01  8.54959278734E+00  6.62867828690E+00  5.00631757029E+00  3.73812120284E+00
  2.75389795057E+00  2.13531320011E+00  1.74986841616E+00  1.56455220687E+00  1.56488774770E+00
  1.75025690953E+00  2.13511341470E+00  2.75338413361E+00  3.66178235422E+00  4.93310205297E+00
  6.62842140103E+00  8.74129005692E+00  1.11118297181E+01  1.34754080894E+01  1.54417339422E+01
  1.65727095997E+01  1.65721089489E+01  1.54405709105E+01  1.34749729505E+01  1.11120660440E+01
  8.74160997098E+00  6.62853978236E+00  4.93275960255E+00  3.66179343114E+00  2.69347584302E+00
  2.14736625227E+00  1.83653054870E+00  1.73546199086E+00  1.83678149787E+00  2.14735339323E+00
  2.69318832565E+00  3.52701846992E+00  4.72948505650E+00  6.38899624471E+00  8.54972432703E+00
  1.11118297181E+01  1.38558496751E+01  1.64093777235E+01  1.82583377100E+01  1.89380430074E+01
  1.82581559818E+01  1.64089990275E+01  1.38557920330E+01  1.11118673941E+01  8.54962776959E+00
  6.38895903467E+00  4.72919638938E+00  3.52712104254E+00  2.63554835847E+00  2.18407944249E+00
  1.96636220167E+00  1.96619322188E+00  2.18370416861E+00  2.63556121864E+00  3.36258289041E+00
  4.43825291203E+00  5.96111598326E+00  8.01546823586E+00  1.05898505032E+01  1.34754080894E+01
  1.64093777235E+01  1.88737418729E+01  2.03015924860E+01  2.03024289300E+01  1.88750600911E+01
  1.64095564280E+01  1.34750196541E+01  1.05894588643E+01  8.01565809872E+00  5.96139561433E+00
  4.43784846069E+00  3.36217579048E+00  2.59475333547E+00  2.25286343403E+00  2.14147202369E+00
  2.25297135291E+00  2.59474876482E+00  3.19427715270E+00  4.10834233776E+00  5.42625460589E+00
  7.24789360659E+00  9.62072815177E+00  1.24220575590E+01  1.54417339422E+01  1.82583377100E+01
  2.03015924860E+01  2.10548502708E+01  2.03018793064E+01  1.82582326520E+01  1.54416014293E+01
  1.24224357803E+01  9.62094299562E+00  7.24804263791E+00  5.42612732373E+00  4.10828690586E+00
  3.19432881640E+00  2.58017252859E+00  2.35559695180E+00  2.35604385958E+00  2.58072626977E+00
  3.04334774626E+00  3.78103684841E+00  4.86252875073E+00  6.38009560679E+00  8.41001290301E+00
  1.09337678600E+01  1.37397736721E+01  1.65727095997E+01  1.89380430074E+01  2.03024289300E+01
  2.03018793064E+01  1.89368169682E+01  1.65720351696E+01  1.37404457064E+01  1.09344529449E+01
  8.40994462755E+00  6.37970489944E+00  4.86264669828E+00  3.78169051412E+00  3.04346923519E+00
  2.59470743587E+00  2.48730782600E+00  2.59487779071E+00  2.92142274545E+00  3.48545071810E+00
  4.33010408932E+00  5.52581432390E+00  7.14931614998E+00  9.23081319857E+00  1.16601133764E+01
  1.42210313732E+01  1.65721089489E+01  1.82581559818E+01  1.88750600911E+01  1.82582326520E+01
  1.65720351696E+01  1.42210252710E+01  1.16600655347E+01  9.23080590007E+00  7.14925765533E+00
  5.52565298732E+00  4.33019058037E+00  3.48551987373E+00  2.92135348113E+00  2.63541154117E+00
  2.63527922246E+00  2.83313466746E+00  3.23561626854E+00  3.86401078476E+00  4.76125462658E+00
  5.98585200540E+00  7.58238968260E+00  9.52822605229E+00  1.16604744926E+01  1.37400266879E+01
  1.54405709105E+01  1.64089990275E+01  1.64095564280E+01  1.54416014293E+01  1.37404457064E+01
  1.16600655347E+01  9.52791684965E+00  7.58250116129E+00  5.98587690687E+00  4.76110145034E+00
  3.86373968011E+00  3.23557351678E+00  2.83338308452E+00  2.69328968632E+00  2.77940723719E+00
  3.03878002429E+00  3.47885713205E+00  4.12076015317E+00  4.99956291825E+00  6.15112358932E+00
  7.58242065008E+00  9.23071261555E+00  1.09344938525E+01  1.24224032112E+01  1.34749729505E+01
  1.38557920330E+01  1.34750196541E+01  1.24224357803E+01  1.09344529449E+01  9.23080590007E+00
  7.58250116129E+00  6.15106613547E+00  4.99960570156E+00  4.12084661789E+00  3.47883266096E+00
  3.03877987531E+00  2.77939031541E+00  2.75377839257E+00  2.89524581821E+00  3.17891998581E+00
  3.61206063015E+00  4.21179384382E+00  4.99947268788E+00  5.98595976118E+00  7.14922275488E+00
  8.40993244346E+00  9.62112942444E+00  1.05897871531E+01  1.11120660440E+01  1.11118673941E+01
  1.05894588643E+01  9.62094299562E+00  8.40994462755E+00  7.14925765533E+00  5.98587690687E+00
  4.99960570156E+00  4.21204181683E+00  3.61209035662E+00  3.17884975825E+00  2.89519021628E+00
  2.75375656640E+00  2.79971518363E+00  2.96004641873E+00  3.22868713156E+00  3.61216851469E+00
  4.12076944754E+00  4.76120028713E+00  5.52587361614E+00  6.37970268826E+00  7.24793690404E+00
  8.01554169449E+00  8.54959278734E+00  8.74160997098E+00  8.54962776959E+00  8.01565809872E+00
  7.24804263791E+00  6.37970489944E+00  5.52565298732E+00  4.76110145034E+00  4.12084661789E+00
  3.61209035662E+00  3.22858371455E+00  2.96008417027E+00  2.79984727637E+00  2.74626752409E+00
  2.81688504643E+00  2.95999001591E+00  3.17884421340E+00  3.47899114198E+00  3.86402247746E+00
  4.33042487263E+00  4.86247251310E+00  5.42570305086E+00  5.96117287737E+00  6.38906008352E+00
  6.62867828690E+00  6.62853978236E+00  6.38895903467E+00  5.96139561433E+00  5.42612732373E+00
  4.86264669828E+00  4.33019058037E+00  3.86373968011E+00  3.47883266096E+00  3.17884975825E+00
  2.96008417027E+00  2.81700467453E+00  2.74600155342E+00  2.74592536533E+00  2.79973241829E+00
  2.89513965279E+00  3.03868457565E+00  3.23544958097E+00  3.48546259931E+00  3.78164204574E+00
  4.10828239875E+00  4.43795130294E+00  4.72939619131E+00  4.93295620914E+00  5.00631757029E+00
  4.93275960255E+00  4.72919638938E+00  4.43784846069E+00  4.10828690586E+00  3.78169051412E+00
  3.48551987373E+00  3.23557351678E+00  3.03877987531E+00  2.89519021628E+00  2.79984727637E+00
  2.74600155342E+00  2.72854370466E+00  2.74584712353E+00  2.75381860919E+00  2.77938422279E+00
  2.83304160092E+00  2.92092939457E+00  3.04337711277E+00  3.19467823012E+00  3.36260302186E+00
  3.52721415140E+00  3.66160566980E+00  3.73798522779E+00  3.73812120284E+00  3.66179343114E+00
  3.52712104254E+00  3.36217579048E+00  3.19432881640E+00  3.04346923519E+00  2.92135348113E+00
  2.83338308452E+00  2.77939031541E+00  2.75375656640E+00  2.74626752409E+00  2.74592536533E+00
  2.74584712353E+00  2.74618082075E+00  3.36265897716E+00  3.19466698812E+00  3.04332884247E+00
  2.92093728437E+00  2.83308288362E+00  2.77936186709E+00  2.75374918499E+00  2.74616593375E+00
  2.74589259433E+00  2.74596277203E+00  2.74631511219E+00  2.75387718270E+00  2.77952476891E+00
  2.83340711102E+00  2.92127111743E+00  3.04337896059E+00  3.19423960330E+00  3.36203602558E+00
  3.52698688104E+00  3.66177754364E+00  3.73820155314E+00  3.73804338299E+00  3.66162400210E+00
  3.52726046870E+00  3.19466698812E+00  2.92351350474E+00  2.67804580299E+00  2.47303303337E+00
  2.31544115232E+00  2.20544741232E+00  2.13722608860E+00  2.10162710355E+00  2.09068323763E+00
  2.10149145039E+00  2.13737788730E+00  2.20613233940E+00  2.31625111119E+00  2.47329339063E+00
  2.67754392590E+00  2.92258374575E+00  3.19397440383E+00  3.46673369189E+00  3.70536483213E+00
  3.87014887713E+00  3.92900072152E+00  3.86973208483E+00  3.70494788372E+00  3.46678740125E+00
  3.04332884247E+00  2.67804580299E+00  2.35611654087E+00  2.09267286923E+00  1.89334563307E+00
  1.75618253480E+00  1.67344808545E+00  1.63540305933E+00  1.63538331537E+00  1.67340785761E+00
  1.75615414189E+00  1.89329141233E+00  2.09258860509E+00  2.35606297628E+00  2.67801991735E+00
  3.04336889308E+00  3.42423827840E+00  3.77874962476E+00  4.05612098842E+00  4.20908579991E+00
  4.20907273621E+00  4.05607659358E+00  3.77870862282E+00  3.42417828322E+00  2.92093728437E+00
  2.47303303337E+00  2.09267286923E+00  1.79197857702E+00  1.57239415317E+00  1.42788454764E+00
  1.34807814541E+00  1.32300617389E+00  1.34833415914E+00  1.42793776935E+00  1.57187308458E+00
  1.79114847609E+00  2.09220589724E+00  2.47335241596E+00  2.92184450667E+00  3.40969817406E+00
  3.89097870874E+00  4.30459869131E+00  4.58625867479E+00  4.68653844645E+00  4.58665830283E+00
  4.30497369916E+00  3.89085272981E+00  3.40893851169E+00  2.83308288362E+00  2.31544115232E+00
  1.89334563307E+00  1.57239415317E+00  1.34794796304E+00  1.20937044609E+00  1.14430880969E+00
  1.14430717759E+00  1.20936271454E+00  1.34793770519E+00  1.57243771002E+00  1.89344333899E+00
  2.31555188532E+00  2.83316279089E+00  3.42419915872E+00  4.04374210495E+00  4.62235395261E+00
  5.07586078950E+00  5.32629688183E+00  5.32629902482E+00  5.07589677189E+00  4.62240790925E+00
  4.04382186373E+00  3.42423963532E+00  2.77936186709E+00  2.20544741232E+00  1.75618253480E+00
  1.42788454764E+00  1.20937044609E+00  1.08650468344E+00  1.04706405482E+00  1.08625561247E+00
  1.20922544995E+00  1.42820890429E+00  1.75687854293E+00  2.20598586631E+00  2.77921068454E+00
  3.46599047001E+00  4.23067443138E+00  5.00313473058E+00  5.68121805917E+00  6.15044388242E+00
  6.31853405682E+00  6.15008585328E+00  5.68092515664E+00  5.00334369747E+00  4.23143457826E+00
  3.46679420245E+00  2.75374918499E+00  2.13722608860E+00  1.67344808545E+00  1.34807814541E+00
  1.14430880969E+00  1.04706405482E+00  1.04707525632E+00  1.14433982146E+00  1.34812127855E+00
  1.67340923402E+00  2.13701415428E+00  2.75336477201E+00  3.52693967303E+00  4.43811977003E+00
  5.42613873059E+00  6.38004898639E+00  7.14931915038E+00  7.58242033200E+00  7.58249844178E+00
  7.14933989698E+00  6.37979050356E+00  5.42571976316E+00  4.43793591824E+00  3.52720832210E+00
  2.74616593375E+00  2.10162710355E+00  1.63540305933E+00  1.32300617389E+00  1.14430717759E+00
  1.08625561247E+00  1.14433982146E+00  1.32308520065E+00  1.63530228856E+00  2.10098848060E+00
  2.74501472828E+00  3.58994789170E+00  4.63895678356E+00  5.85090680643E+00  7.11807292665E+00
  8.26261616365E+00  9.07124214738E+00  9.36475755103E+00  9.07181921877E+00  8.26254189373E+00
  7.11680072330E+00  5.84939144649E+00  4.63840813073E+00  3.59070861536E+00  2.74589259433E+00
  2.09068323763E+00  1.63538331537E+00  1.34833415914E+00  1.20936271454E+00  1.20922544995E+00
  1.34812127855E+00  1.63530228856E+00  2.09059294624E+00  2.74538615815E+00  3.63880473031E+00
  4.80080937016E+00  6.22041631688E+00  7.80738320164E+00  9.37151195019E+00  1.06292787593E+01
  1.13483957963E+01  1.13492060864E+01  1.06305697926E+01  9.37142782332E+00  7.80593998051E+00
  6.21926502314E+00  4.80075972325E+00  3.63944958209E+00  2.74596277203E+00  2.10149145039E+00
  1.67340785761E+00  1.42793776935E+00  1.34793770519E+00  1.42820890429E+00  1.67340923402E+00
  2.10098848060E+00  2.74538615815E+00  3.65790408323E+00  4.89334121065E+00  6.47592220296E+00
  8.34652541404E+00  1.03003858634E+01  1.20835511884E+01  1.33584851207E+01  1.38250410522E+01
  1.33602401505E+01  1.20856332030E+01  1.03013408990E+01  8.34574282224E+00  6.47469883168E+00
  4.89249669543E+00  3.65784062326E+00  2.74631511219E+00  2.13737788730E+00  1.75615414189E+00
  1.57187308458E+00  1.57243771002E+00  1.75687854293E+00  2.13701415428E+00  2.74501472828E+00
  3.63880473031E+00  4.89334121065E+00  6.56818045900E+00  8.64480935478E+00  1.09398112749E+01
  1.32358090112E+01  1.51455585051E+01  1.62441109163E+01  1.62449508716E+01  1.51472906988E+01
  1.32375297774E+01  1.09406345530E+01  8.64374207988E+00  6.56638621268E+00  4.89237896569E+00
  3.63935158238E+00  2.75387718270E+00  2.20613233940E+00  1.89329141233E+00  1.79114847609E+00
  1.89344333899E+00  2.20598586631E+00  2.75336477201E+00  3.58994789170E+00  4.80080937016E+00
  6.47592220296E+00  8.64480935478E+00  1.11684474274E+01  1.38802424859E+01  1.64003285674E+01
  1.82313110396E+01  1.89095930379E+01  1.82325044630E+01  1.64015792587E+01  1.38807842423E+01
  1.11685063429E+01  8.64401680315E+00  6.47505122797E+00  4.80039761937E+00  3.59018698630E+00
  2.77952476891E+00  2.31625111119E+00  2.09258860509E+00  2.09220589724E+00  2.31555188532E+00
  2.77921068454E+00  3.52693967302E+00  4.63895678356E+00  6.22041631688E+00  8.34652541404E+00
  1.09398112749E+01  1.38802424859E+01  1.68554097439E+01  1.93785537668E+01  2.08779392644E+01
  2.08789663854E+01  1.93806504588E+01  1.68566423799E+01  1.38805522149E+01  1.09399837890E+01
  8.34619761462E+00  6.21959056852E+00  4.63785675896E+00  3.52630931490E+00  2.83340711102E+00
  2.47329339063E+00  2.35606297628E+00  2.47335241596E+00  2.83316279089E+00  3.46599047001E+00
  4.43811977003E+00  5.85090680643E+00  7.80738320164E+00  1.03003858634E+01  1.32358090112E+01
  1.64003285674E+01  1.93785537668E+01  2.16257187847E+01  2.24952394905E+01  2.16268584452E+01
  1.93804541601E+01  1.64022610081E+01  1.32371385163E+01  1.03003267932E+01  7.80572817989E+00
  5.84933088731E+00  4.43753351093E+00  3.46634174399E+00  2.92127111743E+00  2.67754392590E+00
  2.67801991735E+00  2.92184450667E+00  3.42419915872E+00  4.23067443138E+00  5.42613873059E+00
  7.11807292665E+00  9.37151195019E+00  1.20835511884E+01  1.51455585051E+01  1.82313110396E+01
  2.08779392644E+01  2.24952394905E+01  2.24940873068E+01  2.08764803798E+01  1.82322611747E+01
  1.51482077087E+01  1.20853202517E+01  9.37031852701E+00  7.11565593277E+00  5.42534969856E+00
  4.23158236826E+00  3.42495185476E+00  3.04337896059E+00  2.92258374575E+00  3.04336889308E+00
  3.40969817406E+00  4.04374210495E+00  5.00313473058E+00  6.38004898639E+00  8.26261616365E+00
  1.06292787593E+01  1.33584851207E+01  1.62441109163E+01  1.89095930379E+01  2.08789663854E+01
  2.16268584452E+01  2.08764803798E+01  1.89078817096E+01  1.62447744172E+01  1.33604925124E+01
  1.06299942813E+01  8.26125493230E+00  6.37874205936E+00  5.00319537088E+00  4.04477347893E+00
  3.41033141039E+00  3.19423960330E+00  3.19397440383E+00  3.42423827840E+00  3.89097870874E+00
  4.62235395261E+00  5.68121805917E+00  7.14931915038E+00  9.07124214738E+00  1.13483957963E+01
  1.38250410522E+01  1.62449508716E+01  1.82325044630E+01  1.93806504588E+01  1.93804541601E+01
  1.82322611747E+01  1.62447744172E+01  1.38250323312E+01  1.13481427069E+01  9.07041411418E+00
  7.14873057642E+00  5.68132099442E+00  4.62306154390E+00  3.89193639546E+00  3.42499088426E+00
  3.36203602558E+00  3.46673369189E+00  3.77874962476E+00  4.30459869131E+00  5.07586078950E+00
  6.15044388242E+00  7.58242033200E+00  9.36475755103E+00  1.13492060864E+01  1.33602401505E+01
  1.51472906988E+01  1.64015792587E+01  1.68566423799E+01  1.64022610081E+01  1.51482077087E+01
  1.33604925124E+01  1.13481427069E+01  9.36277306678E+00  7.58125685731E+00  6.15116689160E+00
  5.07754861771E+00  4.30582570526E+00  3.77886811482E+00  3.46631403119E+00  3.52698688104E+00
  3.70536483213E+00  4.05612098842E+00  4.58625867479E+00  5.32629688183E+00  6.31853405682E+00
  7.58249844178E+00  9.07181921877E+00  1.06305697926E+01  1.20856332030E+01  1.32375297774E+01
  1.38807842423E+01  1.38805522149E+01  1.32371385163E+01  1.20853202517E+01  1.06299942813E+01
  9.07041411418E+00  7.58125685731E+00  6.31910750644E+00  5.32832104063E+00  4.58801349012E+00
  4.05618979990E+00  3.70410937314E+00  3.52622499150E+00  3.66177754364E+00  3.87014887713E+00
  4.20908579991E+00  4.68653844645E+00  5.32629902482E+00  6.15008585328E+00  7.14933989698E+00
  8.26254189373E+00  9.37142782332E+00  1.03013408990E+01  1.09406345530E+01  1.11685063429E+01
  1.09399837890E+01  1.03003267932E+01  9.37031852701E+00  8.26125493230E+00  7.14873057642E+00
  6.15116689160E+00  5.32832104063E+00  4.68797540286E+00  4.20899977098E+00  3.86884660066E+00
  3.66060058069E+00  3.59016719170E+00  3.73820155314E+00  3.92900072152E+00  4.20907273621E+00
  4.58665830283E+00  5.07589677189E+00  5.68092515664E+00  6.37979050356E+00  7.11680072330E+00
  7.80593998051E+00  8.34574282224E+00  8.64374207988E+00  8.64401680315E+00  8.34619761462E+00
  7.80572817989E+00  7.11565593277E+00  6.37874205936E+00  5.68132099442E+00  5.07754861771E+00
  4.58801349012E+00  4.20899977098E+00  3.92767989229E+00  3.73681279794E+00  3.63886405930E+00
  3.63939965298E+00  3.73804338299E+00  3.86973208483E+00  4.05607659358E+00  4.30497369916E+00
  4.62240790925E+00  5.00334369747E+00  5.42571976316E+00  5.84939144649E+00  6.21926502314E+00
  6.47469883168E+00  6.56638621268E+00  6.47505122797E+00  6.21959056852E+00  5.84933088731E+00
  5.42534969856E+00  5.00319537088E+00  4.62306154390E+00  4.30582570526E+00  4.05618979990E+00
  3.86884660066E+00  3.73681279794E+00  3.65705129199E+00  3.63037894363E+00  3.65784139366E+00
  3.66162400210E+00  3.70494788372E+00  3.77870862282E+00  3.89085272981E+00  4.04382186373E+00
  4.23143457826E+00  4.43793591824E+00  4.63840813073E+00  4.80075972325E+00  4.89249669543E+00
  4.89237896569E+00  4.80039761937E+00  4.63785675896E+00  4.43753351093E+00  4.23158236826E+00
  4.04477347893E+00  3.89193639546E+00  3.77886811482E+00  3.70410937314E+00  3.66060058069E+00
  3.63886405930E+00  3.63037894363E+00  3.63051112724E+00  3.63939691179E+00  3.52726046870E+00
  3.46678740125E+00  3.42417828322E+00  3.40893851169E+00  3.42423963532E+00  3.46679420245E+00
  3.52720832210E+00  3.59070861536E+00  3.63944958209E+00  3.65784062326E+00  3.63935158238E+00
  3.59018698630E+00  3.52630931490E+00  3.46634174399E+00  3.42495185476E+00  3.41033141039E+00
  3.42499088426E+00  3.46631403119E+00  3.52622499150E+00  3.59016719170E+00  3.63939965298E+00
  3.65784139366E+00  3.63939691179E+00  3.59070937296E+00  4.10832302645E+00  3.78161425744E+00
  3.48542310841E+00  3.23548612827E+00  3.03873849985E+00  2.89511800739E+00  2.79968946209E+00
  2.74587573113E+00  2.72859442666E+00  2.74598816202E+00  2.79982273647E+00  2.89523729208E+00
  3.03883506861E+00  3.23554070368E+00  3.48545295863E+00  3.78168519512E+00  4.10829913606E+00
  4.43779868009E+00  4.72914392538E+00  4.93279188965E+00  5.00637314689E+00  4.93293797154E+00
  4.72935428331E+00  4.43797576044E+00  3.78161425744E+00  3.35343812602E+00  2.97513383814E+00
  2.66177009524E+00  2.41983143355E+00  2.24860560375E+00  2.14161876097E+00  2.09065179323E+00
  2.09055459672E+00  2.14170728975E+00  2.24943064710E+00  2.42097309791E+00  2.66215615060E+00
  2.97433513686E+00  3.35218459286E+00  3.78091248183E+00  4.23156146195E+00  4.65671282864E+00
  4.99412129980E+00  5.18231403256E+00  5.18225905995E+00  4.99384879178E+00  4.65621493066E+00
  4.23141175216E+00  3.48542310841E+00  2.97513383814E+00  2.53990719262E+00  2.19193384942E+00
  1.93418718107E+00  1.76219718614E+00  1.66601267452E+00  1.63537813297E+00  1.66595262648E+00
  1.76213767913E+00  1.93413314767E+00  2.19191878100E+00  2.53992634583E+00  2.97512243089E+00
  3.48536210748E+00  4.04375180898E+00  4.60120747374E+00  5.08657399325E+00  5.42055976287E+00
  5.53989521784E+00  5.42047741175E+00  5.08649464310E+00  4.60115657848E+00  4.04376805013E+00
  3.23548612827E+00  2.66177009524E+00  2.19193384942E+00  1.83207516858E+00  1.57867044244E+00
  1.42167353476E+00  1.34812450152E+00  1.34835432294E+00  1.42189998824E+00  1.57812509360E+00
  1.83091526220E+00  2.19115501891E+00  2.66216273140E+00  3.23676361339E+00  3.89195630452E+00
  4.58079031495E+00  5.22802781997E+00  5.73862860010E+00  6.02189152135E+00  6.02212276387E+00
  5.73921115347E+00  5.22860018650E+00  4.58065755003E+00  3.89087853991E+00  3.03873849985E+00
  2.41983143355E+00  1.93418718107E+00  1.57867044244E+00  1.34207393770E+00  1.20937180783E+00
  1.16698934181E+00  1.20936541074E+00  1.34206824262E+00  1.57870534807E+00  1.93423325858E+00
  2.41990184606E+00  3.03881953401E+00  3.77880549024E+00  4.60120587966E+00  5.43096854493E+00
  6.15863044291E+00  6.66178076393E+00  6.84217176878E+00  6.66183984009E+00  6.15864606977E+00
  5.43095987672E+00  4.60121362858E+00  3.77877698062E+00  2.89511800739E+00  2.24860560375E+00
  1.76219718614E+00  1.42167353476E+00  1.20937180783E+00  1.10849974097E+00  1.10839560959E+00
  1.20921721405E+00  1.42187423093E+00  1.76291606199E+00  2.24950011207E+00  2.89534933510E+00
  3.70409931267E+00  4.65493914639E+00  5.68419664891E+00  6.67562078354E+00  7.47292266511E+00
  7.92055930524E+00  7.92010293713E+00  7.47206875712E+00  6.67528157047E+00  5.68488713948E+00
  4.65622480016E+00  3.70494826612E+00  2.79968946209E+00  2.14161876097E+00  1.66601267452E+00
  1.34812450152E+00  1.16698934181E+00  1.10839560959E+00  1.16708801981E+00  1.34814813005E+00
  1.66590714927E+00  2.14157904642E+00  2.79975250259E+00  3.66168422862E+00  4.72933254060E+00
  5.96094347076E+00  7.24782578799E+00  8.41008673031E+00  9.23093570197E+00  9.52834414199E+00
  9.23086240215E+00  8.41008822266E+00  7.24798921914E+00  5.96110723287E+00  4.72932854011E+00
  3.66159326620E+00  2.74587573113E+00  2.09065179323E+00  1.63537813297E+00  1.34835432294E+00
  1.20936541074E+00  1.20921721405E+00  1.34814813005E+00  1.63534772766E+00  2.09058513514E+00
  2.74531045225E+00  3.63871656981E+00  4.80073853686E+00  6.22035398638E+00  7.80735825194E+00
  9.37157674939E+00  1.06294141103E+01  1.13485228343E+01  1.13492924354E+01  1.06306352046E+01
  9.37145706172E+00  7.80589338881E+00  6.21917214514E+00  4.80069986725E+00  3.63943708879E+00
  2.72859442666E+00  2.09055459672E+00  1.66595262648E+00  1.42189998824E+00  1.34206824262E+00
  1.42187423093E+00  1.66590714927E+00  2.09058513514E+00  2.72869084167E+00  3.63063412968E+00
  4.85201082197E+00  6.41863954216E+00  8.27074043432E+00  1.01993192557E+01  1.19608390826E+01
  1.32195257386E+01  1.36791035773E+01  1.32193924356E+01  1.19606661027E+01  1.01991496947E+01
  8.27054212034E+00  6.41878857032E+00  4.85219886962E+00  3.63056530474E+00  2.74598816202E+00
  2.14170728975E+00  1.76213767913E+00  1.57812509360E+00  1.57870534807E+00  1.76291606199E+00
  2.14157904642E+00  2.74531045225E+00  3.63063412968E+00  4.87204791094E+00  6.52840835388E+00
  8.57537364987E+00  1.08227562413E+01  1.30773864185E+01  1.49492503229E+01  1.60253558050E+01
  1.60245466444E+01  1.49479438387E+01  1.30773541905E+01  1.08245601961E+01  8.57664190155E+00
  6.52783617190E+00  4.87088100672E+00  3.63032013643E+00  2.79982273647E+00  2.24943064710E+00
  1.93413314767E+00  1.83091526220E+00  1.93423325858E+00  2.24950011207E+00  2.79975250259E+00
  3.63871656981E+00  4.85201082197E+00  6.52840835388E+00  8.66680009281E+00  1.11616896099E+01
  1.38295896467E+01  1.63087917289E+01  1.81338869666E+01  1.88223845677E+01  1.81343097394E+01
  1.63092044211E+01  1.38295559739E+01  1.11617510507E+01  8.66693300828E+00  6.52832848923E+00
  4.85204955128E+00  3.63873453840E+00  2.89523729208E+00  2.42097309791E+00  2.19191878100E+00
  2.19115501891E+00  2.41990184606E+00  2.89534933510E+00  3.66168422862E+00  4.80073853686E+00
  6.41863954216E+00  8.57537364987E+00  1.11616896099E+01  1.40981543896E+01  1.70805201268E+01
  1.97377901907E+01  2.14793280403E+01  2.14802028525E+01  1.97389227851E+01  1.70801137816E+01
  1.40962031719E+01  1.11609160320E+01  8.57661405400E+00  6.41995142796E+00  4.80059585277E+00
  3.66053701719E+00  3.03883506861E+00  2.66215615060E+00  2.53992634583E+00  2.66216273140E+00
  3.03881953401E+00  3.70409931267E+00  4.72933254060E+00  6.22035398638E+00  8.27074043432E+00
  1.08227562413E+01  1.38295896467E+01  1.70805201268E+01  2.03827083759E+01  2.34726233605E+01
  2.49513311260E+01  2.34725146956E+01  2.03826389730E+01  1.70804496448E+01  1.38293190789E+01
  1.08227840127E+01  8.27079028510E+00  6.22037002673E+00  4.72933987944E+00  3.70410483754E+00
  3.23554070368E+00  2.97433513686E+00  2.97512243089E+00  3.23676361339E+00  3.77880549024E+00
  4.65493914639E+00  5.96094347076E+00  7.80735825194E+00  1.01993192557E+01  1.30773864185E+01
  1.63087917289E+01  1.97377901907E+01  2.34726233605E+01  2.67597640021E+01  2.67593184384E+01
  2.34721858310E+01  1.97387299784E+01  1.63101091643E+01  1.30773282282E+01  1.01979689577E+01
  7.80623887326E+00  5.96148810057E+00  4.65615960126E+00  3.77883274652E+00  3.48545295863E+00
  3.35218459286E+00  3.48536210748E+00  3.89195630452E+00  4.60120587966E+00  5.68419664891E+00
  7.24782578799E+00  9.37157674939E+00  1.19608390826E+01  1.49492503229E+01  1.81338869666E+01
  2.14793280403E+01  2.49513311260E+01  2.67593184384E+01  2.49511329564E+01  2.14792927892E+01
  1.81342468025E+01  1.49492265053E+01  1.19607102373E+01  9.37161720959E+00  7.24794632600E+00
  5.68424340185E+00  4.60108038331E+00  3.89191469726E+00  3.78168519512E+00  3.78091248183E+00
  4.04375180898E+00  4.58079031495E+00  5.43096854493E+00  6.67562078354E+00  8.41008673031E+00
  1.06294141103E+01  1.32195257386E+01  1.60253558050E+01  1.88223845677E+01  2.14802028525E+01
  2.34725146956E+01  2.34721858310E+01  2.14792927892E+01  1.88213762616E+01  1.60246784347E+01
  1.32198086893E+01  1.06306298799E+01  8.41095513256E+00  6.67512896201E+00  5.42982268881E+00
  4.58066657554E+00  4.04486897093E+00  4.10829913606E+00  4.23156146195E+00  4.60120747374E+00
  5.22802781997E+00  6.15863044291E+00  7.47292266511E+00  9.23093570197E+00  1.13485228343E+01
  1.36791035773E+01  1.60245466444E+01  1.81343097394E+01  1.97389227851E+01  2.03826389730E+01
  1.97387299784E+01  1.81342468025E+01  1.60246784347E+01  1.36791300010E+01  1.13483673620E+01
  9.23097173717E+00  7.47299219013E+00  6.15848297748E+00  5.22786869432E+00  4.60122690221E+00
  4.23173720076E+00  4.43779868009E+00  4.65671282864E+00  5.08657399325E+00  5.73862860010E+00
  6.66178076393E+00  7.92055930524E+00  9.52834414199E+00  1.13492924354E+01  1.32193924356E+01
  1.49479438387E+01  1.63092044211E+01  1.70801137816E+01  1.70804496448E+01  1.63101091643E+01
  1.49492265053E+01  1.32198086893E+01  1.13483673620E+01  9.52726086757E+00  7.92022374789E+00
  6.66223519322E+00  5.73922046550E+00  5.08662140258E+00  4.65631338616E+00  4.43760944103E+00
  4.72914392538E+00  4.99412129980E+00  5.42055976287E+00  6.02189152135E+00  6.84217176878E+00
  7.92010293713E+00  9.23086240215E+00  1.06306352046E+01  1.19606661027E+01  1.30773541905E+01
  1.38295559739E+01  1.40962031719E+01  1.38293190789E+01  1.30773282282E+01  1.19607102373E+01
  1.06306298799E+01  9.23097173717E+00  7.92022374789E+00  6.84228411270E+00  6.02192399834E+00
  5.42059493620E+00  4.99426225424E+00  4.72945392884E+00  4.63786567276E+00  4.93279188965E+00
  5.18231403256E+00  5.53989521784E+00  6.02212276387E+00  6.66183984009E+00  7.47206875712E+00
  8.41008822266E+00  9.37145706172E+00  1.01991496947E+01  1.08245601961E+01  1.11617510507E+01
  1.11609160320E+01  1.08227840127E+01  1.01979689577E+01  9.37161720959E+00  8.41095513256E+00
  7.47299219013E+00  6.66223519322E+00  6.02192399834E+00  5.53948307817E+00  5.18214795798E+00
  4.93319614948E+00  4.80073019947E+00  4.80043412767E+00  5.00637314689E+00  5.18225905995E+00
  5.42047741175E+00  5.73921115347E+00  6.15864606977E+00  6.67528157047E+00  7.24798921914E+00
  7.80589338881E+00  8.27054212034E+00  8.57664190155E+00  8.66693300828E+00  8.57661405400E+00
  8.27079028510E+00  7.80623887326E+00  7.24794632600E+00  6.67512896201E+00  6.15848297748E+00
  5.73922046550E+00  5.42059493620E+00  5.18214795798E+00  5.00632071642E+00  4.89245377447E+00
  4.85216825698E+00  4.89240530629E+00  4.93293797154E+00  4.99384879178E+00  5.08649464310E+00
  5.22860018650E+00  5.43095987672E+00  5.68488713948E+00  5.96110723287E+00  6.21917214514E+00
  6.41878857032E+00  6.52783617190E+00  6.52832848923E+00  6.41995142796E+00  6.22037002673E+00
  5.96148810057E+00  5.68424340185E+00  5.42982268881E+00  5.22786869432E+00  5.08662140258E+00
  4.99426225424E+00  4.93319614948E+00  4.89245377447E+00  4.87084049417E+00  4.87087047912E+00
  4.89242071603E+00  4.72935428331E+00  4.65621493066E+00  4.60115657848E+00  4.58065755003E+00
  4.60121362858E+00  4.65622480016E+00  4.72932854011E+00  4.80069986725E+00  4.85219886962E+00
  4.87088100672E+00  4.85204955128E+00  4.80059585277E+00  4.72933987944E+00  4.65615960126E+00
  4.60108038331E+00  4.58066657554E+00  4.60122690221E+00  4.65631338616E+00  4.72945392884E+00
  4.80073019947E+00  4.85216825698E+00  4.87087047912E+00  4.85209101002E+00  4.80064756305E+00
  4.43797576044E+00  4.23141175216E+00  4.04376805013E+00  3.89087853991E+00  3.77877698062E+00
  3.70494826612E+00  3.66159326620E+00  3.63943708879E+00  3.63056530474E+00  3.63032013643E+00
  3.63873453840E+00  3.66053701719E+00  3.70410483754E+00  3.77883274652E+00  3.89191469726E+00
  4.04486897093E+00  4.23173720076E+00  4.43760944103E+00  4.63786567276E+00  4.80043412767E+00
  4.89240530629E+00  4.89242071603E+00  4.80064756305E+00  4.63839037533E+00  4.86251568980E+00
  4.33039178293E+00  3.86401012006E+00  3.47905174628E+00  3.17888137060E+00  2.95994941611E+00
  2.81685399603E+00  2.74594566703E+00  2.74598055412E+00  2.81691322673E+00  2.96004711457E+00
  3.17893519535E+00  3.47894040736E+00  3.86379653661E+00  4.33026225887E+00  4.86275699698E+00
  5.42616451533E+00  5.96130715093E+00  6.38885278607E+00  6.62849093476E+00  6.62862156200E+00
  6.38896700442E+00  5.96114036347E+00  5.42576507996E+00  4.33039178293E+00  3.72177151866E+00
  3.20464524694E+00  2.78943988863E+00  2.47760118958E+00  2.26438597606E+00  2.14146465602E+00
  2.10145414689E+00  2.14169565435E+00  2.26523751701E+00  2.47880467615E+00  2.78989805473E+00
  3.20365074532E+00  3.72002325127E+00  4.32950848092E+00  5.00379796726E+00  5.68588459970E+00
  6.28763505957E+00  6.70627026959E+00  6.85703349744E+00  6.70638812236E+00  6.28718590117E+00
  5.68486996528E+00  5.00331261027E+00  3.86401012006E+00  3.20464524694E+00  2.66394952183E+00
  2.24647163968E+00  1.94901617205E+00  1.76222511522E+00  1.67346744318E+00  1.67342917271E+00
  1.76216174563E+00  1.94893545066E+00  2.24642952115E+00  2.66393161136E+00  3.20461063634E+00
  3.86400019320E+00  4.62233183968E+00  5.43095609587E+00  6.20186400025E+00  6.81716774644E+00
  7.16097907350E+00  7.16088253903E+00  6.81702824541E+00  6.20175336362E+00  5.43092586382E+00
  4.62237600805E+00  3.47905174628E+00  2.78943988863E+00  2.24647163968E+00  1.84645148590E+00
  1.57863735273E+00  1.42797485938E+00  1.37990205564E+00  1.42798082805E+00  1.57814961070E+00
  1.84542102503E+00  2.24565509152E+00  2.78971592357E+00  3.48036705181E+00  4.30622419954E+00
  5.22888749469E+00  6.16745520267E+00  6.99755148499E+00  7.57524696657E+00  7.78308711273E+00
  7.57571586085E+00  6.99837399805E+00  6.16811044680E+00  5.22861939080E+00  4.30501734256E+00
  3.17888137060E+00  2.47760118958E+00  1.94901617205E+00  1.57863735273E+00  1.34792908955E+00
  1.23856253657E+00  1.23855855830E+00  1.34792638729E+00  1.57869660727E+00  1.94907099083E+00
  2.47762498287E+00  3.17884967203E+00  4.05606579388E+00  5.08664737314E+00  6.20194153491E+00
  7.27670265136E+00  8.14161757840E+00  8.62772793111E+00  8.62779602373E+00  8.14164226916E+00
  7.27659880304E+00  6.20176505682E+00  5.08652538820E+00  4.05611849208E+00  2.95994941611E+00
  2.26438597606E+00  1.76222511522E+00  1.42797485938E+00  1.23856253657E+00  1.17742799438E+00
  1.23850739724E+00  1.42818597789E+00  1.76290901129E+00  2.26527259972E+00  2.96025619833E+00
  3.86894988876E+00  4.99250029264E+00  6.28615831884E+00  7.63551699463E+00  8.85216957211E+00
  9.71026651699E+00  1.00206435193E+01  9.70926675253E+00  8.85111843787E+00  7.63537997782E+00
  6.28717832527E+00  4.99382703288E+00  3.86970177243E+00  2.81685399603E+00  2.14146465602E+00
  1.67346744318E+00  1.37990205564E+00  1.23855855830E+00  1.23850739724E+00  1.37982175889E+00
  1.67344406112E+00  2.14159530002E+00  2.81702818932E+00  3.73820033620E+00  4.93304843887E+00
  6.38890332721E+00  8.01538741716E+00  9.62078422697E+00  1.09339275340E+01  1.16602328824E+01
  1.16605389936E+01  1.09345859855E+01  9.62121009514E+00  8.01550073929E+00  6.38894521742E+00
  4.93291528994E+00  3.73801578829E+00  2.74594566703E+00  2.10145414689E+00  1.67342917271E+00
  1.42798082805E+00  1.34792638729E+00  1.42818597789E+00  1.67344406112E+00  2.10101279210E+00
  2.74529716525E+00  3.65775299933E+00  4.89325262195E+00  6.47590749696E+00  8.34653813514E+00
  1.03004693944E+01  1.20837551374E+01  1.33587154647E+01  1.38251645582E+01  1.33602642465E+01
  1.20856293100E+01  1.03012840220E+01  8.34559366244E+00  6.47454996268E+00  4.89245943423E+00
  3.65786704756E+00  2.74598055412E+00  2.14169565435E+00  1.76216174563E+00  1.57814961070E+00
  1.57869660727E+00  1.76290901129E+00  2.14159530002E+00  2.74529716525E+00  3.63056091328E+00
  4.87198230464E+00  6.52842060248E+00  8.57544472927E+00  1.08228462333E+01  1.30775064925E+01
  1.49493943129E+01  1.60254470390E+01  1.60245317834E+01  1.49478660997E+01  1.30772690685E+01
  1.08244605591E+01  8.57652905835E+00  6.52777251060E+00  4.87089684592E+00  3.63035184883E+00
  2.81691322673E+00  2.26523751701E+00  1.94893545066E+00  1.84542102503E+00  1.94907099083E+00
  2.26527259972E+00  2.81702818932E+00  3.65775299933E+00  4.87198230464E+00  6.54618092642E+00
  8.67067987561E+00  1.11473733579E+01  1.37951493320E+01  1.62611505447E+01  1.80948423632E+01
  1.87938593310E+01  1.80917676587E+01  1.62588339183E+01  1.37955586686E+01  1.11499976886E+01
  8.67277397766E+00  6.54594413424E+00  4.87075666777E+00  3.65690039379E+00  2.96004711457E+00
  2.47880467615E+00  2.24642952115E+00  2.24565509152E+00  2.47762498287E+00  2.96025619833E+00
  3.73820033620E+00  4.89325262195E+00  6.52842060248E+00  8.67067987561E+00  1.12585866663E+01
  1.41747605814E+01  1.71786796777E+01  2.00641422214E+01  2.22044002920E+01  2.22037534475E+01
  2.00625277533E+01  1.71773374453E+01  1.41743257918E+01  1.12596218712E+01  8.67263213110E+00
  6.52925971296E+00  4.89230658427E+00  3.73665771154E+00  3.17893519535E+00  2.78989805473E+00
  2.66393161136E+00  2.78971592357E+00  3.17884967203E+00  3.86894988876E+00  4.93304843887E+00
  6.47590749696E+00  8.57544472927E+00  1.11473733579E+01  1.41747605814E+01  1.75300513345E+01
  2.16339632019E+01  2.71624969003E+01  3.05468048070E+01  2.71609716411E+01  2.16318779560E+01
  1.75288781128E+01  1.41747378125E+01  1.11480550139E+01  8.57640177748E+00  6.47638365534E+00
  4.93308849248E+00  3.86881268496E+00  3.47894040736E+00  3.20365074532E+00  3.20461063634E+00
  3.48036705181E+00  4.05606579388E+00  4.99250029264E+00  6.38890332721E+00  8.34653813514E+00
  1.08228462333E+01  1.37951493320E+01  1.71786796777E+01  2.16339632019E+01  3.03280636850E+01
  4.28710094180E+01  4.28686384610E+01  3.03238398540E+01  2.16319496426E+01  1.71796791142E+01
  1.37963513907E+01  1.08225173063E+01  8.34609542912E+00  6.38988943249E+00  4.99419196674E+00
  4.05623276600E+00  3.86379653661E+00  3.72002325127E+00  3.86400019320E+00  4.30622419954E+00
  5.08664737314E+00  6.28615831884E+00  8.01538741716E+00  1.03004693944E+01  1.30775064925E+01
  1.62611505447E+01  2.00641422214E+01  2.71624969003E+01  4.28710094180E+01  5.51731566530E+01
  4.28698319130E+01  2.71608945794E+01  2.00628729224E+01  1.62606918855E+01  1.30775354648E+01
  1.03013457366E+01  8.01653314050E+00  6.28684333282E+00  5.08655456148E+00  4.30588093876E+00
  4.33026225887E+00  4.32950848092E+00  4.62233183968E+00  5.22888749469E+00  6.20194153491E+00
  7.63551699463E+00  9.62078422697E+00  1.20837551374E+01  1.49493943129E+01  1.80948423632E+01
  2.22044002920E+01  3.05468048070E+01  4.28686384610E+01  4.28698319130E+01  3.05483162040E+01
  2.22034575800E+01  1.80921862461E+01  1.49477409055E+01  1.20851989886E+01  9.62360255333E+00
  7.63632990801E+00  6.20051730203E+00  5.22787121352E+00  4.62318995480E+00  4.86275699698E+00
  5.00379796726E+00  5.43095609587E+00  6.16745520267E+00  7.27670265136E+00  8.85216957211E+00
  1.09339275340E+01  1.33587154647E+01  1.60254470390E+01  1.87938593310E+01  2.22037534475E+01
  2.71609716411E+01  3.03238398540E+01  2.71608945794E+01  2.22034575800E+01  1.87932365161E+01
  1.60247966125E+01  1.33588676748E+01  1.09352044220E+01  8.85343829339E+00  7.27677689575E+00
  6.16639642054E+00  5.42996004501E+00  5.00342630018E+00  5.42616451533E+00  5.68588459970E+00
  6.20186400025E+00  6.99755148499E+00  8.14161757840E+00  9.71026651699E+00  1.16602328824E+01
  1.38251645582E+01  1.60245317834E+01  1.80917676587E+01  2.00625277533E+01  2.16318779560E+01
  2.16319496426E+01  2.00628729224E+01  1.80921862461E+01  1.60247966125E+01  1.38251176744E+01
  1.16603006254E+01  9.71081861080E+00  8.14221614869E+00  6.99735489962E+00  6.20055448393E+00
  5.68443672355E+00  5.42554874306E+00  5.96130715093E+00  6.28763505957E+00  6.81716774644E+00
  7.57524696657E+00  8.62772793111E+00  1.00206435193E+01  1.16605389936E+01  1.33602642465E+01
  1.49478660997E+01  1.62588339183E+01  1.71773374453E+01  1.75288781128E+01  1.71796791142E+01
  1.62606918855E+01  1.49477409055E+01  1.33588676748E+01  1.16603006254E+01  1.00219713479E+01
  8.62855662661E+00  7.57432747500E+00  6.81530993155E+00  6.28687505542E+00  5.96161907227E+00
  5.84938211101E+00  6.38885278607E+00  6.70627026959E+00  7.16097907350E+00  7.78308711273E+00
  8.62779602373E+00  9.70926675253E+00  1.09345859855E+01  1.20856293100E+01  1.30772690685E+01
  1.37955586686E+01  1.41743257918E+01  1.41747378125E+01  1.37963513907E+01  1.30775354648E+01
  1.20851989886E+01  1.09352044220E+01  9.71081861080E+00  8.62855662661E+00  7.78194342564E+00
  7.15857067599E+00  6.70531351400E+00  6.38990401569E+00  6.22044290293E+00  6.21955642992E+00
  6.62849093476E+00  6.85703349744E+00  7.16088253903E+00  7.57571586085E+00  8.14164226916E+00
  8.85111843787E+00  9.62121009514E+00  1.03012840220E+01  1.08244605591E+01  1.11499976886E+01
  1.12596218712E+01  1.11480550139E+01  1.08225173063E+01  1.03013457366E+01  9.62360255333E+00
  8.85343829339E+00  8.14221614869E+00  7.57432747500E+00  7.15857067599E+00  6.85586058169E+00
  6.62935886318E+00  6.47640603184E+00  6.42001448796E+00  6.47501473037E+00  6.62862156200E+00
  6.70638812236E+00  6.81702824541E+00  6.99837399805E+00  7.27659880304E+00  7.63537997782E+00
  8.01550073929E+00  8.34559366244E+00  8.57652905835E+00  8.67277397766E+00  8.67263213110E+00
  8.57640177748E+00  8.34609542912E+00  8.01653314050E+00  7.63632990801E+00  7.27677689575E+00
  6.99735489962E+00  6.81530993155E+00  6.70531351400E+00  6.62935886318E+00  6.56813732934E+00
  6.52928606296E+00  6.52833834143E+00  6.56630355068E+00  6.38896700442E+00  6.28718590117E+00
  6.20175336362E+00  6.16811044680E+00  6.20176505682E+00  6.28717832527E+00  6.38894521742E+00
  6.47454996268E+00  6.52777251060E+00  6.54594413424E+00  6.52925971296E+00  6.47638365534E+00
  6.38988943249E+00  6.28684333282E+00  6.20051730203E+00  6.16639642054E+00  6.20055448393E+00
  6.28687505542E+00  6.38990401569E+00  6.47640603184E+00  6.52928606296E+00  6.54594268984E+00
  6.52775040040E+00  6.47454860738E+00  5.96114036347E+00  5.68486996528E+00  5.43092586382E+00
  5.22861939080E+00  5.08652538820E+00  4.99382703288E+00  4.93291528994E+00  4.89245943423E+00
  4.87089684592E+00  4.87075666777E+00  4.89230658427E+00  4.93308849248E+00  4.99419196674E+00
  5.08655456148E+00  5.22787121352E+00  5.42996004501E+00  5.68443672355E+00  5.96161907227E+00
  6.22044290293E+00  6.42001448796E+00  6.52833834143E+00  6.52775040040E+00  6.41869393082E+00
  6.21916586384E+00  5.42576507996E+00  5.00331261027E+00  4.62237600805E+00  4.30501734256E+00
  4.05611849208E+00  3.86970177243E+00  3.73801578829E+00  3.65786704756E+00  3.63035184883E+00
  3.65690039379E+00  3.73665771154E+00  3.86881268496E+00  4.05623276600E+00  4.30588093876E+00
  4.62318995480E+00  5.00342630018E+00  5.42554874306E+00  5.84938211101E+00  6.21955642992E+00
  6.47501473037E+00  6.56630355068E+00  6.47454860738E+00  6.21916586384E+00  5.84941769799E+00
  5.52588835314E+00  4.76114720153E+00  4.12077968514E+00  3.61222693019E+00  3.22867424736E+00
  2.95997690743E+00  2.79969651443E+00  2.74627571639E+00  2.79978654407E+00  2.96001864657E+00
  3.22866390815E+00  3.61229058262E+00  4.12101031449E+00  4.76119824054E+00  5.52575455372E+00
  6.37976188974E+00  7.24793749111E+00  8.01544233122E+00  8.54946806719E+00  8.74153512298E+00
  8.54951870264E+00  8.01549175039E+00  7.24799769244E+00  6.37981075416E+00  4.76114720153E+00
  3.97172909450E+00  3.32995329768E+00  2.83463178546E+00  2.47763972555E+00  2.24840841780E+00
  2.13698975377E+00  2.13734795030E+00  2.24942405330E+00  2.47881568255E+00  2.83505352161E+00
  3.32900594829E+00  3.96984817311E+00  4.75998164830E+00  5.68130929318E+00  6.67653322185E+00
  7.63627198281E+00  8.40921203309E+00  8.84386071784E+00  8.84401634157E+00  8.40917811453E+00
  7.63536743982E+00  6.67524757737E+00  5.68087384864E+00  4.12077968514E+00  3.32995329768E+00
  2.70775081850E+00  2.24647000835E+00  1.93420619977E+00  1.75622305908E+00  1.69880218789E+00
  1.75621306379E+00  1.93419545137E+00  2.24647696725E+00  2.70774224020E+00  3.32989292781E+00
  4.12080358544E+00  5.07582855981E+00  6.15849765424E+00  7.27659946279E+00  8.27727742695E+00
  8.97915369791E+00  9.23247005966E+00  8.97908380691E+00  8.27723309827E+00  7.27661837484E+00
  6.15864279187E+00  5.07588797319E+00  3.61222693019E+00  2.83463178546E+00  2.24647000835E+00
  1.83186113423E+00  1.57233829916E+00  1.44908988362E+00  1.44903313266E+00  1.57190917098E+00
  1.83093594500E+00  2.24566209812E+00  2.83492357370E+00  3.61371320526E+00  4.58803502445E+00
  5.73941322051E+00  6.99751514591E+00  8.22169848041E+00  9.21438970767E+00  9.77467324996E+00
  9.77473778721E+00  9.21484806961E+00  8.22274442486E+00  6.99838911285E+00  5.73924092717E+00
  4.58670149553E+00  3.22867424736E+00  2.47763972555E+00  1.93420619977E+00  1.57233829916E+00
  1.36774359753E+00  1.30195326395E+00  1.36778104233E+00  1.57237782772E+00  1.93418274158E+00
  2.47759630907E+00  3.22865015017E+00  4.20904987645E+00  5.42065933079E+00  6.81716315338E+00
  8.27714698725E+00  9.59763849689E+00  1.05315056555E+01  1.08702549209E+01  1.05315679610E+01
  9.59768457069E+00  8.27718202387E+00  6.81700885241E+00  5.42046890275E+00  4.20906354411E+00
  2.95997690743E+00  2.24840841780E+00  1.75622305908E+00  1.44908988362E+00  1.30195326395E+00
  1.30173848495E+00  1.44895995458E+00  1.75683683763E+00  2.24948323547E+00  2.96026034933E+00
  3.92780218739E+00  5.18055485772E+00  6.70540541410E+00  8.40976681770E+00  1.00952701518E+01
  1.14769547203E+01  1.22620540438E+01  1.22615869465E+01  1.14756427881E+01  1.00936606278E+01
  8.40917770133E+00  6.70636872896E+00  5.18221561055E+00  3.92893764522E+00  2.79969651443E+00
  2.13698975377E+00  1.69880218789E+00  1.44903313266E+00  1.36778104233E+00  1.44895995458E+00
  1.69875151464E+00  2.13705529578E+00  2.79978243429E+00  3.73822571590E+00  5.00631078583E+00
  6.62845507213E+00  8.54965335983E+00  1.05897761912E+01  1.24220953200E+01  1.37398310211E+01
  1.42209971932E+01  1.37399912989E+01  1.24224701842E+01  1.05898567821E+01  8.54955438714E+00
  6.62862926560E+00  5.00637093419E+00  3.73818393034E+00  2.74627571639E+00  2.13734795030E+00
  1.75621306379E+00  1.57190917098E+00  1.57237782772E+00  1.75683683763E+00  2.13705529578E+00
  2.74500912828E+00  3.63867908961E+00  4.89323823555E+00  6.56821203740E+00  8.64488258748E+00
  1.09398494399E+01  1.32359044122E+01  1.51457485991E+01  1.62442410663E+01  1.62449218706E+01
  1.51472167148E+01  1.32375032284E+01  1.09405700210E+01  8.64360067628E+00  6.56630959098E+00
  4.89244093869E+00  3.63941206768E+00  2.79978654407E+00  2.24942405330E+00  1.93419545137E+00
  1.83093594500E+00  1.93418274158E+00  2.24948323547E+00  2.79978243429E+00  3.63867908961E+00
  4.85190925447E+00  6.52840371868E+00  8.66694730361E+00  1.11618626319E+01  1.38297169797E+01
  1.63089299869E+01  1.81340131746E+01  1.88223619587E+01  1.81341252654E+01  1.63090131531E+01
  1.38294353639E+01  1.11616342097E+01  8.66682294298E+00  6.52833458763E+00  4.85215998888E+00
  3.63879278180E+00  2.96001864657E+00  2.47881568255E+00  2.24647696725E+00  2.24566209812E+00
  2.47759630907E+00  2.96026034933E+00  3.73822571590E+00  4.89323823555E+00  6.52840371868E+00
  8.67075421061E+00  1.12587326163E+01  1.41748680004E+01  1.71787167177E+01  2.00641531044E+01
  2.22043665090E+01  2.22036179205E+01  2.00623377373E+01  1.71772086023E+01  1.41742789268E+01
  1.12595962672E+01  8.67263016410E+00  6.52932681186E+00  4.89239742547E+00  3.73668017164E+00
  3.22866390815E+00  2.83505352161E+00  2.70774224020E+00  2.83492357370E+00  3.22865015017E+00
  3.92780218739E+00  5.00631078583E+00  6.56821203740E+00  8.66694730361E+00  1.12587326163E+01
  1.42866619685E+01  1.77099545428E+01  2.24002974899E+01  2.98313684240E+01  3.47766245680E+01
  2.98314162070E+01  2.24002245074E+01  1.77101305918E+01  1.42868881520E+01  1.12585567107E+01
  8.66701491436E+00  6.56824632994E+00  5.00629418712E+00  3.92763647919E+00  3.61229058262E+00
  3.32900594829E+00  3.32989292781E+00  3.61371320526E+00  4.20904987645E+00  5.18055485772E+00
  6.62845507213E+00  8.64488258748E+00  1.11618626319E+01  1.41748680004E+01  1.77099545428E+01
  2.37698741104E+01  4.16998806960E+01  7.50991917450E+01  7.50993996070E+01  4.17008695250E+01
  2.37714419649E+01  1.77111854928E+01  1.41742150439E+01  1.11597275336E+01  8.64382049227E+00
  6.62947168418E+00  5.18215973938E+00  4.20907848648E+00  4.12101031449E+00  3.96984817311E+00
  4.12080358544E+00  4.58803502445E+00  5.42065933079E+00  6.70540541410E+00  8.54965335983E+00
  1.09398494399E+01  1.38297169797E+01  1.71787167177E+01  2.24002974899E+01  4.16998806960E+01
  1.13715765580E+02  1.92113684432E+02  1.13715356514E+02  4.16997562490E+01  2.24003613791E+01
  1.71787694170E+01  1.38296397748E+01  1.09397288217E+01  8.54971960344E+00  6.70536799030E+00
  5.42057967700E+00  4.58811021132E+00  4.76119824054E+00  4.75998164830E+00  5.07582855981E+00
  5.73941322051E+00  6.81716315338E+00  8.40976681770E+00  1.05897761912E+01  1.32359044122E+01
  1.63089299869E+01  2.00641531044E+01  2.98313684240E+01  7.50991917450E+01  1.92113684432E+02
  1.92113928474E+02  7.50991950810E+01  2.98301483890E+01  2.00625699762E+01  1.63088248138E+01
  1.32375771813E+01  1.05913011687E+01  8.40909700366E+00  6.81531829065E+00  5.73918553670E+00
  5.07764168551E+00  5.52575455372E+00  5.68130929318E+00  6.15849765424E+00  6.99751514591E+00
  8.27714698725E+00  1.00952701518E+01  1.24220953200E+01  1.51457485991E+01  1.81340131746E+01
  2.22043665090E+01  3.47766245680E+01  7.50993996070E+01  1.13715356514E+02  7.50991950810E+01
  3.47766505580E+01  2.22046474138E+01  1.81340714913E+01  1.51456019590E+01  1.24221824918E+01
  1.00955376921E+01  8.27716996643E+00  6.99733589412E+00  6.15850526368E+00  5.68148123422E+00
  6.37976188974E+00  6.67653322185E+00  7.27659946279E+00  8.22169848041E+00  9.59763849689E+00
  1.14769547203E+01  1.37398310211E+01  1.62442410663E+01  1.88223619587E+01  2.22036179205E+01
  2.98314162070E+01  4.17008695250E+01  4.16997562490E+01  2.98301483890E+01  2.22046474138E+01
  1.88244174206E+01  1.62450189779E+01  1.37385177086E+01  1.14755426451E+01  9.59811951897E+00
  8.22296735270E+00  7.27670091195E+00  6.67520202731E+00  6.37892482056E+00  7.24793749111E+00
  7.63627198281E+00  8.27727742695E+00  9.21438970767E+00  1.05315056555E+01  1.22620540438E+01
  1.42209971932E+01  1.62449218706E+01  1.81341252654E+01  2.00623377373E+01  2.24002245074E+01
  2.37714419649E+01  2.24003613791E+01  2.00625699762E+01  1.81340714913E+01  1.62450189779E+01
  1.42209877910E+01  1.22619472901E+01  1.05315541752E+01  9.21425940216E+00  8.27701049933E+00
  7.63619182561E+00  7.24798230500E+00  7.11571548767E+00  8.01544233122E+00  8.40921203309E+00
  8.97915369791E+00  9.77467324996E+00  1.08702549209E+01  1.22615869465E+01  1.37399912989E+01
  1.51472167148E+01  1.63090131531E+01  1.71772086023E+01  1.77101305918E+01  1.77111854928E+01
  1.71787694170E+01  1.63088248138E+01  1.51456019590E+01  1.37385177086E+01  1.22619472901E+01
  1.08716394274E+01  9.77490277183E+00  8.97823596859E+00  8.40892126326E+00  8.01640177470E+00
  7.80622590006E+00  7.80565186139E+00  8.54946806719E+00  8.84386071784E+00  9.23247005966E+00
  9.77473778721E+00  1.05315679610E+01  1.14756427881E+01  1.24224701842E+01  1.32375032284E+01
  1.38294353639E+01  1.41742789268E+01  1.42868881520E+01  1.41742150439E+01  1.38296397748E+01
  1.32375771813E+01  1.24221824918E+01  1.14755426451E+01  1.05315541752E+01  9.77490277183E+00
  9.23246530865E+00  8.84396764070E+00  8.54958101444E+00  8.34602884552E+00  8.27079882090E+00
  8.34611121122E+00  8.74153512298E+00  8.84401634157E+00  8.97908380691E+00  9.21484806961E+00
  9.59768457069E+00  1.00936606278E+01  1.05898567821E+01  1.09405700210E+01  1.11616342097E+01
  1.12595962672E+01  1.12585567107E+01  1.11597275336E+01  1.09397288217E+01  1.05913011687E+01
  1.00955376921E+01  9.59811951897E+00  9.21425940216E+00  8.97823596859E+00  8.84396764070E+00
  8.74174189559E+00  8.64366497627E+00  8.57638157508E+00  8.57664700470E+00  8.64395775355E+00
  8.54951870264E+00  8.40917811453E+00  8.27723309827E+00  8.22274442486E+00  8.27718202387E+00
  8.40917770133E+00  8.54955438714E+00  8.64360067628E+00  8.66682294298E+00  8.67263016410E+00
  8.66701491436E+00  8.64382049227E+00  8.54971960344E+00  8.40909700366E+00  8.27716996643E+00
  8.22296735270E+00  8.27701049933E+00  8.40892126326E+00  8.54958101444E+00  8.64366497627E+00
  8.66688104026E+00  8.67263037000E+00  8.66692239198E+00  8.64364409568E+00  8.01549175039E+00
  7.63536743982E+00  7.27661837484E+00  6.99838911285E+00  6.81700885241E+00  6.70636872896E+00
  6.62862926560E+00  6.56630959098E+00  6.52833458763E+00  6.52932681186E+00  6.56824632994E+00
  6.62947168418E+00  6.70536799030E+00  6.81531829065E+00  6.99733589412E+00  7.27670091195E+00
  7.63619182561E+00  8.01640177470E+00  8.34602884552E+00  8.57638157508E+00  8.67263037000E+00
  8.67280749046E+00  8.57659587435E+00  8.34563654924E+00  7.24799769244E+00  6.67524757737E+00
  6.15864279187E+00  5.73924092717E+00  5.42046890275E+00  5.18221561055E+00  5.00637093419E+00
  4.89244093869E+00  4.85215998888E+00  4.89239742547E+00  5.00629418712E+00  5.18215973938E+00
  5.42057967700E+00  5.73918553670E+00  6.15850526368E+00  6.67520202731E+00  7.24798230500E+00
  7.80622590006E+00  8.27079882090E+00  8.57664700470E+00  8.66692239198E+00  8.57659587435E+00
  8.27054151834E+00  7.80593790601E+00  6.37981075416E+00  5.68087384864E+00  5.07588797319E+00
  4.58670149553E+00  4.20906354411E+00  3.92893764522E+00  3.73818393034E+00  3.63941206768E+00
  3.63879278180E+00  3.73668017164E+00  3.92763647919E+00  4.20907848648E+00  4.58811021132E+00
  5.07764168551E+00  5.68148123422E+00  6.37892482056E+00  7.11571548767E+00  7.80565186139E+00
  8.34611121122E+00  8.64395775355E+00  8.64364409568E+00  8.34563654924E+00  7.80593790601E+00
  7.11687922330E+00  5.98590629408E+00  4.99940213598E+00  4.21182529402E+00  3.61210010695E+00
  3.17885996401E+00  2.89517790161E+00  2.75380259037E+00  2.75378352120E+00  2.89514143938E+00
  3.17884985625E+00  3.61224623782E+00  4.21222731343E+00  4.99967344826E+00  5.98588679727E+00
  7.14929253593E+00  8.40990828515E+00  9.62075812212E+00  1.05892670673E+01  1.11118157401E+01
  1.11120819680E+01  1.05897649931E+01  9.62113936904E+00  8.41003924006E+00  7.14930157708E+00
  4.99940213598E+00  4.06043897498E+00  3.32994544299E+00  2.78954626181E+00  2.41989132491E+00
  2.20527554968E+00  2.13528480241E+00  2.20612171660E+00  2.42098356281E+00  2.78993747833E+00
  3.32905291869E+00  4.05860390904E+00  4.99821435450E+00  6.15056532516E+00  7.47353521603E+00
  8.85217679692E+00  1.00935785501E+01  1.09676285533E+01  1.12840787231E+01  1.09682382660E+01
  1.00936631298E+01  8.85110479347E+00  7.47203598892E+00  6.15002852558E+00  4.21182529402E+00
  3.32994544299E+00  2.66394073827E+00  2.19192766688E+00  1.89336798269E+00  1.74995211962E+00
  1.74995726236E+00  1.89338134023E+00  2.19200697750E+00  2.66401647396E+00  3.32994744821E+00
  4.21189758539E+00  5.32629355574E+00  6.66164739390E+00  8.14158305876E+00  9.59775809157E+00
  1.07871506459E+01  1.14612402499E+01  1.14612017129E+01  1.07871358565E+01  9.59777347239E+00
  8.14170242506E+00  6.66188090259E+00  5.32632440572E+00  3.61210010695E+00  2.78954626181E+00
  2.19192766688E+00  1.79179226588E+00  1.56474378404E+00  1.49165516018E+00  1.56457959687E+00
  1.79114544779E+00  2.19112811181E+00  2.78968439587E+00  3.61368780836E+00  4.68823833831E+00
  6.02237655075E+00  7.57440761078E+00  9.21320494508E+00  1.07074580625E+01  1.17696360971E+01
  1.21554941165E+01  1.17693474079E+01  1.07080000604E+01  9.21483772811E+00  7.57572982535E+00
  6.02215706257E+00  4.68657532205E+00  3.17885996401E+00  2.41989132491E+00  1.89336798269E+00
  1.56474378404E+00  1.40786158059E+00  1.40788124560E+00  1.56479646700E+00  1.89333218869E+00
  2.41979455206E+00  3.17877603443E+00  4.20901790015E+00  5.54011223906E+00  7.16103042158E+00
  8.97889043858E+00  1.07869874294E+01  1.22779067197E+01  1.31286062934E+01  1.31285799230E+01
  1.22778127386E+01  1.07870011335E+01  8.97899131221E+00  7.16083360823E+00  5.53986119504E+00
  4.20903919671E+00  2.89517790161E+00  2.20527554968E+00  1.74995211962E+00  1.49165516018E+00
  1.40788124560E+00  1.49152636760E+00  1.75022587643E+00  2.20596407091E+00  2.89535034050E+00
  3.86898610786E+00  5.18059984742E+00  6.85599757187E+00  8.84478919382E+00  1.09702658218E+01
  1.29201194156E+01  1.42900148995E+01  1.47945689019E+01  1.42894210036E+01  1.29185988938E+01
  1.09682338940E+01  8.84402082457E+00  6.85703180034E+00  5.18229072366E+00  3.87009397903E+00
  2.75380259037E+00  2.13528480241E+00  1.74995726236E+00  1.56457959687E+00  1.56479646700E+00
  1.75022587643E+00  2.13521198870E+00  2.75345060491E+00  3.66175429252E+00  4.93312388447E+00
  6.62851347153E+00  8.74125875302E+00  1.11116258151E+01  1.34752361454E+01  1.54416926362E+01
  1.65726619857E+01  1.65720157969E+01  1.54406006545E+01  1.34751600475E+01  1.11122043120E+01
  8.74160848338E+00  6.62855176736E+00  4.93284756625E+00  3.66180803494E+00  2.75378352120E+00
  2.20612171660E+00  1.89338134023E+00  1.79114544779E+00  1.89333218869E+00  2.20596407091E+00
  2.75345060491E+00  3.58994443350E+00  4.80069660926E+00  6.47589514646E+00  8.64488862218E+00
  1.11684426304E+01  1.38801407329E+01  1.64003279744E+01  1.82314284366E+01  1.89096280739E+01
  1.82324323480E+01  1.64015898387E+01  1.38808935843E+01  1.11685208969E+01  8.64392235955E+00
  6.47504651667E+00  4.80050173707E+00  3.59020287970E+00  2.89514143938E+00  2.42098356281E+00
  2.19200697750E+00  2.19112811181E+00  2.41979455206E+00  2.89535034050E+00  3.66175429252E+00
  4.80069660926E+00  6.41854981216E+00  8.57545037747E+00  1.11618893569E+01  1.40982517736E+01
  1.70805124568E+01  1.97378393347E+01  2.14793837783E+01  2.14800831035E+01  1.97386967941E+01
  1.70800137316E+01  1.40962235609E+01  1.11608802750E+01  8.57655484260E+00  6.42003442576E+00
  4.80074746647E+00  3.66054368509E+00  3.17884985625E+00  2.78993747833E+00  2.66401647396E+00
  2.78968439587E+00  3.17877603443E+00  3.86898610786E+00  4.93312388447E+00  6.47589514646E+00
  8.57545037747E+00  1.11475429959E+01  1.41749660084E+01  1.75300793415E+01  2.16338561289E+01
  2.71624054593E+01  3.05466795670E+01  2.71607147631E+01  2.16316304600E+01  1.75288349348E+01
  1.41748284695E+01  1.11481058399E+01  8.57644927538E+00  6.47652873294E+00  4.93321774158E+00
  3.86877886996E+00  3.61224623782E+00  3.32905291869E+00  3.32994744821E+00  3.61368780836E+00
  4.20901790015E+00  5.18059984742E+00  6.62851347153E+00  8.64488862218E+00  1.11618893569E+01
  1.41749660084E+01  1.77100078338E+01  2.37697782744E+01  4.16997160760E+01  7.50990682020E+01
  7.50992854320E+01  4.17007277190E+01  2.37713734639E+01  1.77112692328E+01  1.41743522489E+01
  1.11598025306E+01  8.64387124257E+00  6.62955424008E+00  5.18220246498E+00  4.20902777278E+00
  4.21222731343E+00  4.05860390904E+00  4.21189758539E+00  4.68823833831E+00  5.54011223906E+00
  6.85599757187E+00  8.74125875302E+00  1.11684426304E+01  1.40982517736E+01  1.75300793415E+01
  2.37697782744E+01  5.35412455030E+01  1.91646737671E+02  3.74641403764E+02  1.91652319086E+02
  5.35473847720E+01  2.37716291332E+01  1.75275309797E+01  1.40954986822E+01  1.11677166705E+01
  8.74186708959E+00  6.85595645659E+00  5.53947338547E+00  4.68803030366E+00  4.99967344826E+00
  4.99821435450E+00  5.32629355574E+00  6.02237655075E+00  7.16103042158E+00  8.84478919382E+00
  1.11116258151E+01  1.38801407329E+01  1.70805124568E+01  2.16338561289E+01  4.16997160760E+01
  1.91646737671E+02  9.38537349305E+02  9.38540055883E+02  1.91651665001E+02  4.17019927270E+01
  2.16319654913E+01  1.70783492266E+01  1.38807901324E+01  1.11130678518E+01  8.84398734840E+00
  7.15851458539E+00  6.02179265044E+00  5.32830680593E+00  5.98588679727E+00  6.15056532516E+00
  6.66164739390E+00  7.57440761078E+00  8.97889043858E+00  1.09702658218E+01  1.34752361454E+01
  1.64003279744E+01  1.97378393347E+01  2.71624054593E+01  7.50990682020E+01  3.74641403764E+02
  9.38540055883E+02  3.74640857027E+02  7.50986986750E+01  2.71626549245E+01  1.97383548403E+01
  1.64006124261E+01  1.34750865128E+01  1.09697176619E+01  8.97829688689E+00  7.57422226420E+00
  6.66208170332E+00  6.15115410800E+00  7.14929253593E+00  7.47353521603E+00  8.14158305876E+00
  9.21320494508E+00  1.07869874294E+01  1.29201194156E+01  1.54416926362E+01  1.82314284366E+01
  2.14793837783E+01  3.05466795670E+01  7.50992854320E+01  1.91652319086E+02  1.91651665001E+02
  7.50986986750E+01  3.05480794400E+01  2.14817302348E+01  1.82321297466E+01  1.54400827523E+01
  1.29181564060E+01  1.07867860395E+01  9.21431708066E+00  8.14209169009E+00  7.47290925423E+00
  7.14880574832E+00  8.40990828515E+00  8.85217679692E+00  9.59775809157E+00  1.07074580625E+01
  1.22779067197E+01  1.42900148995E+01  1.65726619857E+01  1.89096280739E+01  2.14800831035E+01
  2.71607147631E+01  4.17007277190E+01  5.35473847720E+01  4.17019927270E+01  2.71626549245E+01
  2.14817302348E+01  1.89101484964E+01  1.65722977974E+01  1.42887265164E+01  1.22765630601E+01
  1.07065730788E+01  9.59799195407E+00  8.85322690819E+00  8.41089740416E+00  8.26132987170E+00
  9.62075812212E+00  1.00935785501E+01  1.07871506459E+01  1.17696360971E+01  1.31286062934E+01
  1.47945689019E+01  1.65720157969E+01  1.82324323480E+01  1.97386967941E+01  2.16316304600E+01
  2.37713734639E+01  2.37716291332E+01  2.16319654913E+01  1.97383548403E+01  1.82321297466E+01
  1.65722977974E+01  1.47947355763E+01  1.31279886278E+01  1.17681410691E+01  1.07866405615E+01
  1.00952818031E+01  9.62335427513E+00  9.37154542739E+00  9.37028863651E+00  1.05892670673E+01
  1.09676285533E+01  1.14612402499E+01  1.21554941165E+01  1.31285799230E+01  1.42894210036E+01
  1.54406006545E+01  1.64015898387E+01  1.70800137316E+01  1.75288349348E+01  1.77112692328E+01
  1.75275309797E+01  1.70783492266E+01  1.64006124261E+01  1.54400827523E+01  1.42887265164E+01
  1.31279886278E+01  1.21549426138E+01  1.14620726407E+01  1.09697011209E+01  1.05911548047E+01
  1.03012253436E+01  1.01979646617E+01  1.03002697562E+01  1.11118157401E+01  1.12840787231E+01
  1.14612017129E+01  1.17693474079E+01  1.22778127386E+01  1.29185988938E+01  1.34751600475E+01
  1.38808935843E+01  1.40962235609E+01  1.41748284695E+01  1.41743522489E+01  1.40954986822E+01
  1.38807901324E+01  1.34750865128E+01  1.29181564060E+01  1.22765630601E+01  1.17681410691E+01
  1.14620726407E+01  1.12864567527E+01  1.11131896208E+01  1.09397145977E+01  1.08225569803E+01
  1.08228951817E+01  1.09400056130E+01  1.11120819680E+01  1.09682382660E+01  1.07871358565E+01
  1.07080000604E+01  1.07870011335E+01  1.09682338940E+01  1.11122043120E+01  1.11685208969E+01
  1.11608802750E+01  1.11481058399E+01  1.11598025306E+01  1.11677166705E+01  1.11130678518E+01
  1.09697176619E+01  1.07867860395E+01  1.07065730788E+01  1.07866405615E+01  1.09697011209E+01
  1.11131896208E+01  1.11677162275E+01  1.11596818936E+01  1.11481289559E+01  1.11610394800E+01
  1.11685410059E+01  1.05897649931E+01  1.00936631298E+01  9.59777347239E+00  9.21483772811E+00
  8.97899131221E+00  8.84402082457E+00  8.74160848338E+00  8.64392235955E+00  8.57655484260E+00
  8.57644927538E+00  8.64387124257E+00  8.74186708959E+00  8.84398734840E+00  8.97829688689E+00
  9.21431708066E+00  9.59799195407E+00  1.00952818031E+01  1.05911548047E+01  1.09397145977E+01
  1.11596818936E+01  1.12584976247E+01  1.12596794182E+01  1.11617939397E+01  1.09405913750E+01
  9.62113936904E+00  8.85110479347E+00  8.14170242506E+00  7.57572982535E+00  7.16083360823E+00
  6.85703180034E+00  6.62855176736E+00  6.47504651667E+00  6.42003442576E+00  6.47652873294E+00
  6.62955424008E+00  6.85595645659E+00  7.15851458539E+00  7.57422226420E+00  8.14209169009E+00
  8.85322690819E+00  9.62335427513E+00  1.03012253436E+01  1.08225569803E+01  1.11481289559E+01
  1.12596794182E+01  1.11500987186E+01  1.08245755181E+01  1.03012970540E+01  8.41003924006E+00
  7.47203598892E+00  6.66188090259E+00  6.02215706257E+00  5.53986119504E+00  5.18229072366E+00
  4.93284756625E+00  4.80050173707E+00  4.80074746647E+00  4.93321774158E+00  5.18220246498E+00
  5.53947338547E+00  6.02179265044E+00  6.66208170332E+00  7.47290925423E+00  8.41089740416E+00
  9.37154542739E+00  1.01979646617E+01  1.08228951817E+01  1.11610394800E+01  1.11617939397E+01
  1.08245755181E+01  1.01991961937E+01  9.37147607572E+00  7.14930157708E+00  6.15002852558E+00
  5.32632440572E+00  4.68657532205E+00  4.20903919671E+00  3.87009397903E+00  3.66180803494E+00
  3.59020287970E+00  3.66054368509E+00  3.86877886996E+00  4.20902777278E+00  4.68803030366E+00
  5.32830680593E+00  6.15115410800E+00  7.14880574832E+00  8.26132987170E+00  9.37028863651E+00
  1.03002697562E+01  1.09400056130E+01  1.11685410059E+01  1.09405913750E+01  1.03012970540E+01
  9.37147607572E+00  8.26259844853E+00  6.15103737612E+00  4.99951899855E+00  4.12081595377E+00
  3.47887402855E+00  3.03870364059E+00  2.77937403139E+00  2.69334993212E+00  2.77940627311E+00
  3.03870575031E+00  3.47881529856E+00  4.12094058379E+00  4.99966652496E+00  6.15103177677E+00
  7.58250040769E+00  9.23088329477E+00  1.09344683919E+01  1.24223449443E+01  1.34749740381E+01
  1.38558526980E+01  1.34750021285E+01  1.24223442652E+01  1.09344785325E+01  9.23078540675E+00
  7.58243852448E+00  4.99951899855E+00  3.97177035955E+00  3.20464215830E+00  2.66194143779E+00
  2.31545483937E+00  2.14695325781E+00  2.14738021337E+00  2.31628857199E+00  2.66220697980E+00
  3.20373130862E+00  3.96995788601E+00  4.99829687720E+00  6.31904705302E+00  7.92177289972E+00
  9.71071609063E+00  1.14758829035E+01  1.29178683175E+01  1.37161525984E+01  1.37166529630E+01
  1.29186427238E+01  1.14756817611E+01  9.70928735903E+00  7.92011263313E+00  6.31851959602E+00
  4.12081595377E+00  3.20464215830E+00  2.53988271337E+00  2.09267680100E+00  1.83669287774E+00
  1.75362292093E+00  1.83664573410E+00  2.09270320759E+00  2.54002411473E+00  3.20470113414E+00
  4.12087875424E+00  5.32632628754E+00  6.84207229874E+00  8.62783817738E+00  1.05317274633E+01
  1.22778920622E+01  1.35233328012E+01  1.39767603197E+01  1.35233736951E+01  1.22779671566E+01
  1.05316730530E+01  8.62787726083E+00  6.84224900688E+00  5.32636098013E+00  3.47887402855E+00
  2.66194143779E+00  2.09267680100E+00  1.73586934876E+00  1.56512842306E+00  1.56501373953E+00
  1.73545904046E+00  2.09216424674E+00  2.66207612000E+00  3.48026651591E+00  4.58794700475E+00
  6.02231756125E+00  7.78172865712E+00  9.77254696545E+00  1.17683348803E+01  1.34233001005E+01
  1.43700747179E+01  1.43695364964E+01  1.34227171530E+01  1.17692996779E+01  9.77467670681E+00
  7.78306196993E+00  6.02190773805E+00  4.58628321059E+00  3.03870364059E+00  2.31545483937E+00
  1.83669287774E+00  1.56512842306E+00  1.47732310670E+00  1.56511968562E+00  1.83668689557E+00
  2.31543112302E+00  3.03868674871E+00  4.05596364398E+00  5.42060739169E+00  7.16101311368E+00
  9.23231542973E+00  1.14612418839E+01  1.35235303497E+01  1.50049705389E+01  1.55466011246E+01
  1.50048685169E+01  1.35231940461E+01  1.14610365829E+01  9.23234173846E+00  7.16090477770E+00
  5.42051754127E+00  4.05606776072E+00  2.77937403139E+00  2.14695325781E+00  1.75362292093E+00
  1.56501373953E+00  1.56511968562E+00  1.75399231671E+00  2.14738866543E+00  2.77925251274E+00
  3.70415471277E+00  4.99259511224E+00  6.70552083890E+00  8.84486233482E+00  1.12862237526E+01
  1.37178058679E+01  1.57412243758E+01  1.69047688038E+01  1.69049188613E+01  1.57412300880E+01
  1.37166582610E+01  1.12841131721E+01  8.84389480644E+00  6.70630513239E+00  4.99414616390E+00
  3.70535473873E+00  2.69334993212E+00  2.14738021337E+00  1.83664573410E+00  1.73545904046E+00
  1.83668689557E+00  2.14738866543E+00  2.69334020415E+00  3.52707291252E+00  4.72943821990E+00
  6.38901503481E+00  8.54975299023E+00  1.11116632821E+01  1.38555561901E+01  1.64092277135E+01
  1.82583561030E+01  1.89380415064E+01  1.82581510308E+01  1.64091675145E+01  1.38560592110E+01
  1.11119717201E+01  8.54956408679E+00  6.38894503467E+00  4.72924455988E+00  3.52706066004E+00
  2.77940627311E+00  2.31628857199E+00  2.09270320759E+00  2.09216424674E+00  2.31543112302E+00
  2.77925251274E+00  3.52707291252E+00  4.63893054106E+00  6.22027437588E+00  8.34648527074E+00
  1.09398125819E+01  1.38800868969E+01  1.68552123309E+01  1.93785811508E+01  2.08781271054E+01
  2.08790592694E+01  1.93806813668E+01  1.68568061539E+01  1.38807477229E+01  1.09399633010E+01
  8.34604238822E+00  6.21956664002E+00  4.63792719266E+00  3.52625402680E+00  3.03870575031E+00
  2.66220697980E+00  2.54002411473E+00  2.66207612000E+00  3.03868674871E+00  3.70415471277E+00
  4.72943821990E+00  6.22027437588E+00  8.27061311002E+00  1.08228192303E+01  1.38297106297E+01
  1.70804669138E+01  2.03826163459E+01  2.34727223805E+01  2.49514779130E+01  2.34724685006E+01
  2.03825334290E+01  1.70805207708E+01  1.38294346849E+01  1.08227139427E+01  8.27067328490E+00
  6.22043990513E+00  4.72945705594E+00  3.70403129374E+00  3.47881529856E+00  3.20373130862E+00
  3.20470113414E+00  3.48026651591E+00  4.05596364398E+00  4.99259511224E+00  6.38901503481E+00
  8.34648527074E+00  1.08228192303E+01  1.37953172080E+01  1.71788123107E+01  2.16338390459E+01
  3.03278744260E+01  4.28709748430E+01  4.28686057780E+01  3.03236532540E+01  2.16318262836E+01
  1.71798172611E+01  1.37965407657E+01  1.08225288383E+01  8.34608255772E+00  6.39002197729E+00
  4.99428018704E+00  4.05610601540E+00  4.12094058379E+00  3.96995788601E+00  4.12087875424E+00
  4.58794700475E+00  5.42060739169E+00  6.70552083890E+00  8.54975299023E+00  1.09398125819E+01
  1.38297106297E+01  1.71788123107E+01  2.24002645369E+01  4.16996069390E+01  1.13715495036E+02
  1.92113601103E+02  1.13715318759E+02  4.16996711040E+01  2.24004161551E+01  1.71790435080E+01
  1.38298800188E+01  1.09397617837E+01  8.54971142754E+00  6.70544596180E+00  5.42058730430E+00
  4.58797156332E+00  4.99966652496E+00  4.99829687720E+00  5.32632628754E+00  6.02231756125E+00
  7.16101311368E+00  8.84486233482E+00  1.11116632821E+01  1.38800868969E+01  1.70804669138E+01
  2.16338390459E+01  4.16996069390E+01  1.91646531450E+02  9.38537220748E+02  9.38540083156E+02
  1.91651733448E+02  4.17020459260E+01  2.16320942103E+01  1.70785507836E+01  1.38809009824E+01
  1.11130297998E+01  8.84393678180E+00  7.15852461949E+00  6.02177246984E+00  5.32823326093E+00
  6.15103177677E+00  6.31904705302E+00  6.84207229874E+00  7.78172865711E+00  9.23231542973E+00
  1.12862237526E+01  1.38555561901E+01  1.68552123309E+01  2.03826163459E+01  3.03278744260E+01
  1.13715495036E+02  9.38537220748E+02  9.83230506490E+03  9.38537262522E+02  1.13715539228E+02
  3.03278757470E+01  2.03825216877E+01  1.68550880327E+01  1.38554758781E+01  1.12862098907E+01
  9.23236592985E+00  7.78177386504E+00  6.84203003580E+00  6.31896976114E+00  7.58250040769E+00
  7.92177289972E+00  8.62783817738E+00  9.77254696545E+00  1.14612418839E+01  1.37178058679E+01
  1.64092277135E+01  1.93785811508E+01  2.34727223805E+01  4.28709748430E+01  1.92113601103E+02
  9.38540083156E+02  9.38537262522E+02  1.92108457461E+02  4.28685221360E+01  2.34744205879E+01
  1.93805031847E+01  1.64084222411E+01  1.37163801044E+01  1.14620808877E+01  9.77495946043E+00
  8.62844107351E+00  7.92004133769E+00  7.58121328331E+00  9.23088329477E+00  9.71071609063E+00
  1.05317274633E+01  1.17683348803E+01  1.35235303497E+01  1.57412243758E+01  1.82583561030E+01
  2.08781271054E+01  2.49514779130E+01  4.28686057780E+01  1.13715318759E+02  1.91651733448E+02
  1.13715539228E+02  4.28685221360E+01  2.49512359354E+01  2.08779506418E+01  1.82583645741E+01
  1.57414491659E+01  1.35236508230E+01  1.17683365031E+01  1.05316637972E+01  9.71073401450E+00
  9.23091048817E+00  9.07051358458E+00  1.09344683919E+01  1.14758829035E+01  1.22778920622E+01
  1.34233001005E+01  1.50049705389E+01  1.69047688038E+01  1.89380415064E+01  2.08790592694E+01
  2.34724685006E+01  3.03236532540E+01  4.16996711040E+01  4.17020459260E+01  3.03278757470E+01
  2.34744205879E+01  2.08779506418E+01  1.89366573262E+01  1.69050341659E+01  1.50056362390E+01
  1.34227437111E+01  1.22766267051E+01  1.14754786901E+01  1.09350417790E+01  1.06306056799E+01
  1.06301078463E+01  1.24223449443E+01  1.29178683175E+01  1.35233328012E+01  1.43700747179E+01
  1.55466011246E+01  1.69049188613E+01  1.82581510308E+01  1.93806813668E+01  2.03825334290E+01
  2.16318262836E+01  2.24004161551E+01  2.16320942103E+01  2.03825216877E+01  1.93805031847E+01
  1.82583645741E+01  1.69050341659E+01  1.55464815911E+01  1.43697758708E+01  1.35235824190E+01
  1.29181426030E+01  1.24220558478E+01  1.20850608316E+01  1.19607302423E+01  1.20853808287E+01
  1.34749740381E+01  1.37161525984E+01  1.39767603197E+01  1.43695364964E+01  1.50048685169E+01
  1.57412300880E+01  1.64091675145E+01  1.68568061539E+01  1.70805207708E+01  1.71798172611E+01
  1.71790435080E+01  1.70785507836E+01  1.68550880327E+01  1.64084222411E+01  1.57414491659E+01
  1.50056362390E+01  1.43697758708E+01  1.39770738641E+01  1.37165617844E+01  1.34752690448E+01
  1.32376279303E+01  1.30775926338E+01  1.30774812822E+01  1.32372313313E+01  1.38558526980E+01
  1.37166529630E+01  1.35233736951E+01  1.34227171530E+01  1.35231940461E+01  1.37166582610E+01
  1.38560592110E+01  1.38807477229E+01  1.38294346849E+01  1.37965407657E+01  1.38298800188E+01
  1.38809009824E+01  1.38554758781E+01  1.37163801044E+01  1.35236508230E+01  1.34227437111E+01
  1.35235824190E+01  1.37165617844E+01  1.38558495451E+01  1.38810521854E+01  1.38297694538E+01
  1.37965233487E+01  1.38295495789E+01  1.38806893519E+01  1.34750021285E+01  1.29186427238E+01
  1.22779671566E+01  1.17692996779E+01  1.14610365829E+01  1.12841131721E+01  1.11119717201E+01
  1.09399633010E+01  1.08227139427E+01  1.08225288383E+01  1.09397617837E+01  1.11130297998E+01
  1.12862098907E+01  1.14620808877E+01  1.17683365031E+01  1.22766267051E+01  1.29181426030E+01
  1.34752690448E+01  1.38810521854E+01  1.40955070312E+01  1.41741884979E+01  1.41748274435E+01
  1.40963371929E+01  1.38808315633E+01  1.24223442652E+01  1.14756817611E+01  1.05316730530E+01
  9.77467670681E+00  9.23234173846E+00  8.84389480644E+00  8.54956408679E+00  8.34604238822E+00
  8.27067328490E+00  8.34608255772E+00  8.54971142754E+00  8.84393678180E+00  9.23236592985E+00
  9.77495946043E+00  1.05316637972E+01  1.14754786901E+01  1.24220558478E+01  1.32376279303E+01
  1.38297694538E+01  1.41741884979E+01  1.42867988680E+01  1.41743498498E+01  1.38295596229E+01
  1.32374493564E+01  1.09344785325E+01  9.70928735903E+00  8.62787726083E+00  7.78306196993E+00
  7.16090477770E+00  6.70630513239E+00  6.38894503467E+00  6.21956664002E+00  6.22043990513E+00
  6.39002197729E+00  6.70544596180E+00  7.15852461949E+00  7.78177386504E+00  8.62844107351E+00
  9.71073401450E+00  1.09350417790E+01  1.20850608316E+01  1.30775926338E+01  1.37965233487E+01
  1.41748274435E+01  1.41743498498E+01  1.37956412986E+01  1.30773441795E+01  1.20855656330E+01
  9.23078540675E+00  7.92011263313E+00  6.84224900688E+00  6.02190773805E+00  5.42051754127E+00
  4.99414616390E+00  4.72924455989E+00  4.63792719266E+00  4.72945705594E+00  4.99428018704E+00
  5.42058730430E+00  6.02177246984E+00  6.84203003580E+00  7.92004133769E+00  9.23091048817E+00
  1.06306056799E+01  1.19607302423E+01  1.30774812822E+01  1.38295495789E+01  1.40963371929E+01
  1.38295596229E+01  1.30773441795E+01  1.19606731237E+01  1.06305860496E+01  7.58243852448E+00
  6.31851959602E+00  5.32636098013E+00  4.58628321059E+00  4.05606776072E+00  3.70535473873E+00
  3.52706066004E+00  3.52625402680E+00  3.70403129374E+00  4.05610601540E+00  4.58797156332E+00
  5.32823326093E+00  6.31896976114E+00  7.58121328331E+00  9.07051358458E+00  1.06301078463E+01
  1.20853808287E+01  1.32372313313E+01  1.38806893519E+01  1.38808315633E+01  1.32374493564E+01
  1.20855656330E+01  1.06305860496E+01  9.07181920847E+00  5.98580662140E+00  4.76126826628E+00
  3.86406986076E+00  3.23560244384E+00  2.83306668156E+00  2.63527689136E+00  2.63544822797E+00
  2.83332596222E+00  3.23544384098E+00  3.86368560141E+00  4.76113993214E+00  5.98590648297E+00
  7.58253561509E+00  9.52805374125E+00  1.16602516317E+01  1.37405245214E+01  1.54415699413E+01
  1.64095355490E+01  1.64089867745E+01  1.54404728425E+01  1.37398930269E+01  1.16604500766E+01
  9.52829170409E+00  7.58240148000E+00  4.76126826628E+00  3.72160812412E+00  2.97513920994E+00
  2.47320500349E+00  2.18367321606E+00  2.08920700323E+00  2.18414069479E+00  2.47339144033E+00
  2.97444217726E+00  3.72014807127E+00  4.76014153430E+00  6.15071517966E+00  7.92184570892E+00
  1.00219349367E+01  1.22622403442E+01  1.42894401390E+01  1.57410004250E+01  1.62704826503E+01
  1.57412919970E+01  1.42895350796E+01  1.22616874655E+01  1.00207133843E+01  7.92062306284E+00
  6.15049428742E+00  3.86406986076E+00  2.97513920994E+00  2.35608385114E+00  1.96650155796E+00
  1.77898224799E+00  1.77896165243E+00  1.96647717087E+00  2.35618688608E+00  2.97521862499E+00
  3.86407257750E+00  5.07588501731E+00  6.66166673560E+00  8.62782045368E+00  1.08704969944E+01
  1.31285959121E+01  1.50048370443E+01  1.60795392542E+01  1.60796009857E+01  1.50050484309E+01
  1.31287343840E+01  1.08703477549E+01  8.62778839061E+00  6.66184944673E+00  5.07593160790E+00
  3.23560244384E+00  2.47320500349E+00  1.96650155796E+00  1.67840912417E+00  1.58513724385E+00
  1.67812365813E+00  1.96616423748E+00  2.47329088396E+00  3.23664175519E+00  4.30606861694E+00
  5.73926302101E+00  7.57428062298E+00  9.77246642945E+00  1.21540041480E+01  1.43699033769E+01
  1.59670614889E+01  1.65513043438E+01  1.59660332551E+01  1.43694925664E+01  1.21553985365E+01
  9.77454931046E+00  7.57515391507E+00  5.73859457210E+00  4.30459160521E+00  2.83306668156E+00
  2.18367321606E+00  1.77898224799E+00  1.58513724385E+00  1.58512958614E+00  1.77898647294E+00
  2.18362911521E+00  2.83306984729E+00  3.77869091234E+00  5.08655402004E+00  6.81712163308E+00
  8.97888084058E+00  1.14612375509E+01  1.39770557794E+01  1.60797194785E+01  1.72893722045E+01
  1.72893193875E+01  1.60794452467E+01  1.39766071737E+01  1.14610955329E+01  8.97902697501E+00
  6.81708631824E+00  5.08653575215E+00  3.77870977246E+00  2.63527689136E+00  2.08920700323E+00
  1.77896165243E+00  1.67812365813E+00  1.77898647293E+00  2.08954743691E+00  2.63563844184E+00
  3.46608406571E+00  4.65504231059E+00  6.28630196994E+00  8.40994202000E+00  1.09704000498E+01
  1.37178559599E+01  1.62698525500E+01  1.81164756773E+01  1.87958187313E+01  1.81177043339E+01
  1.62704939053E+01  1.37162372254E+01  1.09677357453E+01  8.40929723539E+00  6.28770860357E+00
  4.65678046244E+00  3.46676604059E+00  2.63544822797E+00  2.18414069479E+00  1.96647717087E+00
  1.96616423748E+00  2.18362911521E+00  2.63563844184E+00  3.36271777371E+00  4.43824066583E+00
  5.96102815576E+00  8.01547632746E+00  1.05898584112E+01  1.34752483774E+01  1.64091850835E+01
  1.88737429769E+01  2.03017071570E+01  2.03024581300E+01  1.88750752621E+01  1.64097153020E+01
  1.34751908061E+01  1.05894267973E+01  8.01552106542E+00  5.96137404263E+00  4.43788239039E+00
  3.36209462458E+00  2.83332596222E+00  2.47339144033E+00  2.35618688608E+00  2.47329088396E+00
  2.83306984729E+00  3.46608406571E+00  4.43824066583E+00  5.85081166143E+00  7.80719559464E+00
  1.03003286784E+01  1.32357786012E+01  1.64001669434E+01  1.93784499488E+01  2.16258958847E+01
  2.24955213255E+01  2.16269764272E+01  1.93804996481E+01  1.64024095781E+01  1.32372289303E+01
  1.03001602422E+01  7.80549715499E+00  5.84930528051E+00  4.43759792183E+00  3.46627408979E+00
  3.23544384098E+00  2.97444217726E+00  2.97521862499E+00  3.23664175519E+00  3.77869091234E+00
  4.65504231059E+00  5.96102815576E+00  7.80719559464E+00  1.01991366687E+01  1.30774301285E+01
  1.63088802100E+01  1.97377334627E+01  2.34726393665E+01  2.67600360581E+01  2.67595775414E+01
  2.34721736340E+01  1.97386457434E+01  1.63101709573E+01  1.30773377962E+01  1.01977481527E+01
  7.80604839966E+00  5.96156504937E+00  4.65627430026E+00  3.77874228092E+00  3.86368560141E+00
  3.72014807127E+00  3.86407257750E+00  4.30606861694E+00  5.08655402004E+00  6.28630196994E+00
  8.01547632746E+00  1.03003286784E+01  1.30774301285E+01  1.62613168207E+01  2.00642590224E+01
  2.71623836443E+01  4.28709509780E+01  5.51733232570E+01  4.28699290070E+01  2.71607467684E+01
  2.00627759614E+01  1.62608275845E+01  1.30776161368E+01  1.03011952376E+01  8.01644002670E+00
  6.28698024382E+00  5.08662786838E+00  4.30571484406E+00  4.76113993214E+00  4.76014153430E+00
  5.07588501731E+00  5.73926302101E+00  6.81712163308E+00  8.40994202000E+00  1.05898584112E+01
  1.32357786012E+01  1.63088802100E+01  2.00642590224E+01  2.98313222740E+01  7.50989225640E+01
  1.92113545348E+02  1.92114055178E+02  7.50992897830E+01  2.98300977790E+01  2.00626533342E+01
  1.63091036948E+01  1.32377053873E+01  1.05911583717E+01  8.40900056986E+00  6.81540014995E+00
  5.73917186700E+00  5.07745183521E+00  5.98590648297E+00  6.15071517966E+00  6.66166673560E+00
  7.57428062298E+00  8.97888084058E+00  1.09704000498E+01  1.34752483774E+01  1.64001669434E+01
  1.97377334627E+01  2.71623836443E+01  7.50989225640E+01  3.74641174916E+02  9.38540044808E+02
  3.74641095962E+02  7.50989034100E+01  2.71627455145E+01  1.97385227093E+01  1.64008340031E+01
  1.34750917728E+01  1.09695032369E+01  8.97816591429E+00  7.57425437370E+00  6.66205573592E+00
  6.15103991970E+00  7.58253561509E+00  7.92184570892E+00  8.62782045368E+00  9.77246642945E+00
  1.14612375509E+01  1.37178559599E+01  1.64091850835E+01  1.93784499488E+01  2.34726393665E+01
  4.28709509780E+01  1.92113545348E+02  9.38540044808E+02  9.38537377148E+02  1.92108678714E+02
  4.28686705780E+01  2.34744690609E+01  1.93805565237E+01  1.64084583221E+01  1.37162860664E+01
  1.14619134917E+01  9.77489405483E+00  8.62848383531E+00  7.92005262359E+00  7.58118315941E+00
  9.52805374125E+00  1.00219349367E+01  1.08704969944E+01  1.21540041480E+01  1.39770557794E+01
  1.62698525500E+01  1.88737429769E+01  2.16258958847E+01  2.67600360581E+01  5.51733232570E+01
  1.92114055178E+02  3.74641095962E+02  1.92108678714E+02  5.51673495440E+01  2.67579616636E+01
  2.16277485359E+01  1.88756189879E+01  1.62702362614E+01  1.39770801621E+01  1.21551336018E+01
  1.08718852244E+01  1.00220436989E+01  9.52724165257E+00  9.36286800848E+00  1.16602516317E+01
  1.22622403442E+01  1.31285959121E+01  1.43699033769E+01  1.60797194785E+01  1.81164756773E+01
  2.03017071570E+01  2.24955213255E+01  2.67595775414E+01  4.28699290070E+01  7.50992897830E+01
  7.50989034100E+01  4.28686705780E+01  2.67579616636E+01  2.24942825371E+01  2.03019110614E+01
  1.81179888011E+01  1.60808184474E+01  1.43699766608E+01  1.31283177258E+01  1.22622018001E+01
  1.16603603064E+01  1.13484295920E+01  1.13483491279E+01  1.37405245214E+01  1.42894401390E+01
  1.50048370443E+01  1.59670614889E+01  1.72893722045E+01  1.87958187313E+01  2.03024581300E+01
  2.16269764272E+01  2.34721736340E+01  2.71607467684E+01  2.98300977790E+01  2.71627455145E+01
  2.34744690609E+01  2.16277485359E+01  2.03019110614E+01  1.87951373944E+01  1.72891467648E+01
  1.59677427497E+01  1.50056868630E+01  1.42888485144E+01  1.37385278126E+01  1.33587823948E+01
  1.32198498683E+01  1.33606649404E+01  1.54415699413E+01  1.57410004250E+01  1.60795392542E+01
  1.65513043438E+01  1.72893193875E+01  1.81177043339E+01  1.88750752621E+01  1.93804996481E+01
  1.97386457434E+01  2.00627759614E+01  2.00626533342E+01  1.97385227093E+01  1.93805565237E+01
  1.88756189879E+01  1.81179888011E+01  1.72891467648E+01  1.65517309875E+01  1.60806598794E+01
  1.57414253909E+01  1.54401262573E+01  1.51455502760E+01  1.49476813575E+01  1.49493143773E+01
  1.51483286107E+01  1.64095355490E+01  1.62704826503E+01  1.60796009857E+01  1.59660332551E+01
  1.60794452467E+01  1.62704939053E+01  1.64097153020E+01  1.64024095781E+01  1.63101709573E+01
  1.62608275845E+01  1.63091036948E+01  1.64008340031E+01  1.64084583221E+01  1.62702362614E+01
  1.60808184474E+01  1.59677427497E+01  1.60806598794E+01  1.62702370794E+01  1.64086137121E+01
  1.64008191351E+01  1.63089184358E+01  1.62607967765E+01  1.63103002133E+01  1.64023828441E+01
  1.64089867745E+01  1.57412919970E+01  1.50050484309E+01  1.43694925664E+01  1.39766071737E+01
  1.37162372254E+01  1.34751908061E+01  1.32372289303E+01  1.30773377962E+01  1.30776161368E+01
  1.32377053873E+01  1.34750917728E+01  1.37162860664E+01  1.39770801621E+01  1.43699766608E+01
  1.50056868630E+01  1.57414253909E+01  1.64086137121E+01  1.68553406497E+01  1.70785025596E+01
  1.71788109450E+01  1.71797741381E+01  1.70806026548E+01  1.68567026729E+01  1.54404728425E+01
  1.42895350796E+01  1.31287343840E+01  1.21553985365E+01  1.14610955329E+01  1.09677357453E+01
  1.05894267973E+01  1.03001602422E+01  1.01977481527E+01  1.03011952376E+01  1.05911583717E+01
  1.09695032369E+01  1.14619134917E+01  1.21551336018E+01  1.31283177258E+01  1.42888485144E+01
  1.54401262573E+01  1.64008191351E+01  1.70785025596E+01  1.75273484057E+01  1.77109890558E+01
  1.75288125208E+01  1.70800984016E+01  1.64014869487E+01  1.37398930269E+01  1.22616874655E+01
  1.08703477549E+01  9.77454931046E+00  8.97902697501E+00  8.40929723539E+00  8.01552106542E+00
  7.80549715499E+00  7.80604839966E+00  8.01644002670E+00  8.40900056986E+00  8.97816591429E+00
  9.77489405483E+00  1.08718852244E+01  1.22622018001E+01  1.37385278126E+01  1.51455502760E+01
  1.63089184358E+01  1.71788109450E+01  1.77109890558E+01  1.77099426468E+01  1.71772709123E+01
  1.63091170801E+01  1.51471260468E+01  1.16604500766E+01  1.00207133843E+01  8.62778839061E+00
  7.57515391507E+00  6.81708631824E+00  6.28770860357E+00  5.96137404263E+00  5.84930528051E+00
  5.96156504937E+00  6.28698024382E+00  6.81540014995E+00  7.57425437370E+00  8.62848383531E+00
  1.00220436989E+01  1.16603603064E+01  1.33587823948E+01  1.49476813575E+01  1.62607967765E+01
  1.71797741381E+01  1.75288125208E+01  1.71772709123E+01  1.62589068533E+01  1.49479170647E+01
  1.33601593275E+01  9.52829170409E+00  7.92062306284E+00  6.66184944673E+00  5.73859457210E+00
  5.08653575215E+00  4.65678046244E+00  4.43788239039E+00  4.43759792183E+00  4.65627430026E+00
  5.08662786838E+00  5.73917186700E+00  6.66205573592E+00  7.92005262359E+00  9.52724165257E+00
  1.13484295920E+01  1.32198498683E+01  1.49493143773E+01  1.63103002133E+01  1.70806026548E+01
  1.70800984016E+01  1.63091170801E+01  1.49479170647E+01  1.32193737596E+01  1.13492087244E+01
  7.58240148000E+00  6.15049428742E+00  5.07593160790E+00  4.30459160521E+00  3.77870977246E+00
  3.46676604059E+00  3.36209462458E+00  3.46627408979E+00  3.77874228092E+00  4.30571484406E+00
  5.07745183521E+00  6.15103991970E+00  7.58118315941E+00  9.36286800848E+00  1.13483491279E+01
  1.33606649404E+01  1.51483286107E+01  1.64023828441E+01  1.68567026729E+01  1.64014869487E+01
  1.51471260468E+01  1.33601593275E+01  1.13492087244E+01  9.36474358513E+00  5.52582458160E+00
  4.33015475392E+00  3.48547489680E+00  2.92137299405E+00  2.59483557821E+00  2.48732295680E+00
  2.59468743157E+00  2.92123847643E+00  3.48541341743E+00  4.33019467787E+00  5.52572471962E+00
  7.14934232483E+00  9.23094910717E+00  1.16602708377E+01  1.42211610190E+01  1.65720113026E+01
  1.82581257230E+01  1.88749548701E+01  1.82580224138E+01  1.65719450959E+01  1.42209551202E+01
  1.16601830044E+01  9.23091349717E+00  7.14934435178E+00  4.33015475392E+00  3.35301011014E+00
  2.67803143694E+00  2.25296994426E+00  2.04720194591E+00  2.04726490704E+00  2.25293358493E+00
  2.67766705370E+00  3.35232548766E+00  4.32965890432E+00  5.68149201408E+00  7.47371760713E+00
  9.71082134183E+00  1.22622592312E+01  1.47948283118E+01  1.69051536958E+01  1.81178202890E+01
  1.81177442209E+01  1.69050327463E+01  1.47947452149E+01  1.22622134458E+01  9.71037446089E+00
  7.47301382311E+00  5.68130383137E+00  3.48547489680E+00  2.67803143694E+00  2.14146221281E+00
  1.83538505358E+00  1.73606803501E+00  1.83542687142E+00  2.14154462939E+00  2.67811802235E+00
  3.48543722178E+00  4.62237246088E+00  6.15851802654E+00  8.14156903206E+00  1.05316656743E+01
  1.31285326191E+01  1.55465063801E+01  1.72893502807E+01  1.79111053039E+01  1.72894418305E+01
  1.55467525806E+01  1.31287420664E+01  1.05315725795E+01  8.14163210130E+00  6.15864838141E+00
  4.62238614101E+00  2.92137299405E+00  2.25296994426E+00  1.83538505358E+00  1.63530767522E+00
  1.63524236976E+00  1.83525473863E+00  2.25291630131E+00  2.92177268247E+00  3.89182508202E+00
  5.22870992989E+00  6.99733684171E+00  9.21304613468E+00  1.17682035193E+01  1.43698296489E+01
  1.65520095757E+01  1.78096630942E+01  1.78092064849E+01  1.65512580398E+01  1.43699922419E+01
  1.17695107981E+01  9.21422630217E+00  6.99740096339E+00  5.22793685947E+00  3.89092997554E+00
  2.59483557821E+00  2.04720194591E+00  1.73606803501E+00  1.63524236976E+00  1.73609218613E+00
  2.04716279245E+00  2.59469419302E+00  3.42414078222E+00  4.60112716476E+00  6.20187899731E+00
  8.27714200225E+00  1.07870196004E+01  1.35235535217E+01  1.60797271455E+01  1.79111880117E+01
  1.85861692887E+01  1.79110079129E+01  1.60794100112E+01  1.35232199612E+01  1.07870591549E+01
  8.27719511535E+00  6.20180896715E+00  4.60119313584E+00  3.42422878800E+00  2.48732295680E+00
  2.04726490704E+00  1.83542687142E+00  1.83525473863E+00  2.04716279245E+00  2.48778992420E+00
  3.19435081230E+00  4.23077587168E+00  5.68430815291E+00  7.63567048193E+00  1.00954719808E+01
  1.29202938686E+01  1.57413048078E+01  1.81164891673E+01  1.94899132298E+01  1.94907776245E+01
  1.81178007680E+01  1.57410349150E+01  1.29179964245E+01  1.00937469241E+01  7.63641145021E+00
  5.68599560750E+00  4.23166227165E+00  3.19403848833E+00  2.59468743157E+00  2.25293358493E+00
  2.14154462939E+00  2.25291630131E+00  2.59469419302E+00  3.19435081230E+00  4.10841798836E+00
  5.42620835339E+00  7.24785325409E+00  9.62081348337E+00  1.24221309680E+01  1.54416640282E+01
  1.82582545760E+01  2.03016288030E+01  2.10548865048E+01  2.03017983704E+01  1.82581675990E+01
  1.54416746353E+01  1.24225092753E+01  9.62088248732E+00  7.24797374931E+00  5.42617787193E+00
  4.10833341606E+00  3.19425226590E+00  2.92123847643E+00  2.67766705370E+00  2.67811802235E+00
  2.92177268247E+00  3.42414078222E+00  4.23077587168E+00  5.42620835339E+00  7.11794806705E+00
  9.37137233389E+00  1.20835675294E+01  1.51455853251E+01  1.82312268456E+01  2.08779295524E+01
  2.24954345585E+01  2.24942730278E+01  2.08764718748E+01  1.82322128697E+01  1.51482603837E+01
  1.20853061737E+01  9.37012029191E+00  7.11549363277E+00  5.42540049606E+00  4.23166712886E+00
  3.42490002406E+00  3.48541341743E+00  3.35232548766E+00  3.48543722178E+00  3.89182508202E+00
  4.60112716476E+00  5.68430815291E+00  7.24785325409E+00  9.37137233389E+00  1.19606929216E+01
  1.49493590469E+01  1.81340245856E+01  2.14793417673E+01  2.49514391000E+01  2.67596089474E+01
  2.49512922164E+01  2.14791455842E+01  1.81340616765E+01  1.49491895223E+01  1.19606146313E+01
  9.37136762569E+00  7.24783522320E+00  5.68441281115E+00  4.60122920061E+00  3.89184933816E+00
  4.33019467787E+00  4.32965890432E+00  4.62237246088E+00  5.22870992989E+00  6.20187899731E+00
  7.63567048193E+00  9.62081348337E+00  1.20835675294E+01  1.49493590469E+01  1.80950898642E+01
  2.22045833590E+01  3.05467771720E+01  4.28686910200E+01  4.28700356110E+01  3.05483191510E+01
  2.22031682270E+01  1.80919831761E+01  1.49477778855E+01  1.20851720106E+01  9.62341817033E+00
  7.63631647951E+00  6.20074946353E+00  5.22797162532E+00  4.62303224890E+00  5.52572471962E+00
  5.68149201408E+00  6.15851802654E+00  6.99733684171E+00  8.27714200225E+00  1.00954719808E+01
  1.24221309680E+01  1.51455853251E+01  1.81340245856E+01  2.22045833590E+01  3.47766673430E+01
  7.50992286930E+01  1.13715342690E+02  7.50993730390E+01  3.47766506890E+01  2.22044417998E+01
  1.81340389603E+01  1.51457778830E+01  1.24221906708E+01  1.00953402251E+01  8.27713782093E+00
  6.99750279272E+00  6.15850006688E+00  5.68127462722E+00  7.14934232483E+00  7.47371760713E+00
  8.14156903206E+00  9.21304613468E+00  1.07870196004E+01  1.29202938686E+01  1.54416640282E+01
  1.82312268456E+01  2.14793417673E+01  3.05467771720E+01  7.50992286930E+01  1.91652181198E+02
  1.91651780435E+02  7.50989981800E+01  3.05481905530E+01  2.14816570888E+01  1.82321776326E+01
  1.54402019683E+01  1.29180329820E+01  1.07865010425E+01  9.21424412306E+00  8.14221285019E+00
  7.47289062683E+00  7.14866784932E+00  9.23094910717E+00  9.71082134183E+00  1.05316656743E+01
  1.17682035193E+01  1.35235535217E+01  1.57413048078E+01  1.82582545760E+01  2.08779295524E+01
  2.49514391000E+01  4.28686910200E+01  1.13715342690E+02  1.91651780435E+02  1.13715789845E+02
  4.28688251920E+01  2.49513073104E+01  2.08778437148E+01  1.82583085761E+01  1.57413968359E+01
  1.35234361520E+01  1.17681033221E+01  1.05316703662E+01  9.71088682950E+00  9.23094180997E+00
  9.07046115448E+00  1.16602708377E+01  1.22622592312E+01  1.31285326191E+01  1.43698296489E+01
  1.60797271455E+01  1.81164891673E+01  2.03016288030E+01  2.24954345585E+01  2.67596089474E+01
  4.28700356110E+01  7.50993730390E+01  7.50989981800E+01  4.28688251920E+01  2.67580671306E+01
  2.24942245551E+01  2.03017684894E+01  1.81178923991E+01  1.60807447454E+01  1.43698683308E+01
  1.31282623888E+01  1.22622867831E+01  1.16604828654E+01  1.13484528210E+01  1.13483194559E+01
  1.42211610190E+01  1.47948283118E+01  1.55465063801E+01  1.65520095757E+01  1.79111880117E+01
  1.94899132298E+01  2.10548865048E+01  2.24942730278E+01  2.49512922164E+01  3.05483191510E+01
  3.47766506890E+01  3.05481905530E+01  2.49513073104E+01  2.24942245551E+01  2.10549004097E+01
  1.94902770813E+01  1.79110081408E+01  1.65518219455E+01  1.55466111291E+01  1.47949911873E+01
  1.42211833490E+01  1.38251371764E+01  1.36791532620E+01  1.38251900022E+01  1.65720113026E+01
  1.69051536958E+01  1.72893502807E+01  1.78096630942E+01  1.85861692887E+01  1.94907776245E+01
  2.03017983704E+01  2.08764718748E+01  2.14791455842E+01  2.22031682270E+01  2.22044417998E+01
  2.14816570888E+01  2.08778437148E+01  2.03017684894E+01  1.94902770813E+01  1.85854873697E+01
  1.78093728292E+01  1.72889971618E+01  1.69049272559E+01  1.65722589764E+01  1.62448828819E+01
  1.60245857375E+01  1.60246034567E+01  1.62448345072E+01  1.82581257230E+01  1.81178202890E+01
  1.79111053039E+01  1.78092064849E+01  1.79110079129E+01  1.81178007680E+01  1.82581675990E+01
  1.82322128697E+01  1.81340616765E+01  1.80919831761E+01  1.81340389603E+01  1.82321776326E+01
  1.82583085761E+01  1.81178923991E+01  1.79110081408E+01  1.78093728292E+01  1.79108096628E+01
  1.81177186921E+01  1.82582196581E+01  1.82320486686E+01  1.81339083333E+01  1.80920333331E+01
  1.81342494065E+01  1.82322996217E+01  1.88749548701E+01  1.81177442209E+01  1.72894418305E+01
  1.65512580398E+01  1.60794100112E+01  1.57410349150E+01  1.54416746353E+01  1.51482603837E+01
  1.49491895223E+01  1.49477778855E+01  1.51457778830E+01  1.54402019683E+01  1.57413968359E+01
  1.60807447454E+01  1.65518219455E+01  1.72889971618E+01  1.81177186921E+01  1.88755246859E+01
  1.93805876727E+01  1.97384483123E+01  2.00625600212E+01  2.00628884434E+01  1.97388353594E+01
  1.93804885161E+01  1.82580224138E+01  1.69050327463E+01  1.55467525806E+01  1.43699922419E+01
  1.35232199612E+01  1.29179964245E+01  1.24225092753E+01  1.20853061737E+01  1.19606146313E+01
  1.20851720106E+01  1.24221906708E+01  1.29180329820E+01  1.35234361520E+01  1.43698683308E+01
  1.55466111291E+01  1.69049272559E+01  1.82582196581E+01  1.93805876727E+01  2.03826320087E+01
  2.16319623503E+01  2.24002508331E+01  2.16319047226E+01  2.03826565320E+01  1.93805783308E+01
  1.65719450959E+01  1.47947452149E+01  1.31287420664E+01  1.17695107981E+01  1.07870591549E+01
  1.00937469241E+01  9.62088248732E+00  9.37012029191E+00  9.37136762569E+00  9.62341817033E+00
  1.00953402251E+01  1.07865010425E+01  1.17681033221E+01  1.31282623888E+01  1.47949911873E+01
  1.65722589764E+01  1.82320486686E+01  1.97384483123E+01  2.16319623503E+01  2.37713425052E+01
  2.37711422059E+01  2.16317179100E+01  1.97388158391E+01  1.82323276950E+01  1.42209551202E+01
  1.22622134458E+01  1.05315725795E+01  9.21422630217E+00  8.27719511535E+00  7.63641145021E+00
  7.24797374931E+00  7.11549363277E+00  7.24783522320E+00  7.63631647951E+00  8.27713782093E+00
  9.21424412306E+00  1.05316703662E+01  1.22622867831E+01  1.42211833490E+01  1.62448828819E+01
  1.81339083333E+01  2.00625600212E+01  2.24002508331E+01  2.37711422059E+01  2.24000865564E+01
  2.00625127543E+01  1.81342661334E+01  1.62448301876E+01  1.16601830044E+01  9.71037446089E+00
  8.14163210130E+00  6.99740096339E+00  6.20180896715E+00  5.68599560750E+00  5.42617787193E+00
  5.42540049606E+00  5.68441281115E+00  6.20074946353E+00  6.99750279272E+00  8.14221285019E+00
  9.71088682950E+00  1.16604828654E+01  1.38251371764E+01  1.60245857375E+01  1.80920333331E+01
  2.00628884434E+01  2.16319047226E+01  2.16317179100E+01  2.00625127543E+01  1.80919472987E+01
  1.60246099464E+01  1.38250462132E+01  9.23091349717E+00  7.47301382311E+00  6.15864838141E+00
  5.22793685947E+00  4.60119313584E+00  4.23166227165E+00  4.10833341606E+00  4.23166712886E+00
  4.60122920061E+00  5.22797162532E+00  6.15850006688E+00  7.47289062683E+00  9.23094180997E+00
  1.13484528210E+01  1.36791532620E+01  1.60246034567E+01  1.81342494065E+01  1.97388353594E+01
  2.03826565320E+01  1.97388158391E+01  1.81342661334E+01  1.60246099464E+01  1.36790986223E+01
  1.13484183143E+01  7.14934435178E+00  5.68130383137E+00  4.62238614101E+00  3.89092997554E+00
  3.42422878800E+00  3.19403848833E+00  3.19425226590E+00  3.42490002406E+00  3.89184933816E+00
  4.62303224890E+00  5.68127462722E+00  7.14866784932E+00  9.07046115448E+00  1.13483194559E+01
  1.38251900022E+01  1.62448345072E+01  1.82322996217E+01  1.93804885161E+01  1.93805783308E+01
  1.82323276950E+01  1.62448301876E+01  1.38250462132E+01  1.13484183143E+01  9.07122431618E+00
  4.86256705503E+00  3.78109774051E+00  3.04332413966E+00  2.58065884957E+00  2.35605196318E+00
  2.35563881720E+00  2.58012119659E+00  3.04336678169E+00  3.78168319882E+00  4.86272778218E+00
  6.37976089914E+00  8.40998921025E+00  1.09345692179E+01  1.37405615824E+01  1.65720055416E+01
  1.89366741362E+01  2.03017667094E+01  2.03023527080E+01  1.89379263774E+01  1.65726175027E+01
  1.37398298251E+01  1.09339104130E+01  8.41007917921E+00  6.38008977919E+00  3.78109774051E+00
  2.92316140151E+00  2.35590350898E+00  2.03194701486E+00  1.92651206104E+00  2.03197260278E+00
  2.35563881720E+00  2.92268400095E+00  3.78104424973E+00  5.00394051576E+00  6.67670866155E+00
  8.85236699082E+00  1.14760061975E+01  1.42894620670E+01  1.69051360308E+01  1.87964682812E+01
  1.94907895595E+01  1.87958519153E+01  1.69048798178E+01  1.42902094645E+01  1.14771498413E+01
  8.85230454461E+00  6.67572142984E+00  5.00322818458E+00  3.04332413966E+00  2.35590350898E+00
  1.92646863304E+00  1.72019032069E+00  1.72021235493E+00  1.92651206104E+00  2.35605196318E+00
  3.04341162918E+00  4.04378286348E+00  5.43095054327E+00  7.27657391459E+00  9.59771145727E+00
  1.22778021412E+01  1.50047266653E+01  1.72892835657E+01  1.85861374984E+01  1.85862047907E+01
  1.72894283225E+01  1.50050581049E+01  1.22779978707E+01  9.59767352069E+00  7.27667491156E+00
  5.43093146153E+00  4.04372266395E+00  2.58065884957E+00  2.03194701486E+00  1.72019032069E+00
  1.61929918329E+00  1.72019032069E+00  2.03194701486E+00  2.58065884957E+00  3.40962571346E+00
  4.58066665195E+00  6.16727910457E+00  8.22152006731E+00  1.07073093145E+01  1.34231778205E+01
  1.59669752479E+01  1.78096326312E+01  1.84861207089E+01  1.78096326312E+01  1.59669752479E+01
  1.34231778205E+01  1.07073093145E+01  8.22152006731E+00  6.16727910457E+00  4.58066665195E+00
  3.40962571346E+00  2.35605196318E+00  1.92651206104E+00  1.72021235493E+00  1.72019032069E+00
  1.92646863304E+00  2.35590350898E+00  3.04332413966E+00  4.04372266395E+00  5.43093146153E+00
  7.27667491156E+00  9.59767352069E+00  1.22779978707E+01  1.50050581049E+01  1.72894283225E+01
  1.85862047907E+01  1.85861374984E+01  1.72892835657E+01  1.50047266653E+01  1.22778021412E+01
  9.59771145727E+00  7.27657391459E+00  5.43095054327E+00  4.04378286348E+00  3.04341162918E+00
  2.35563881720E+00  2.03197260278E+00  1.92651206104E+00  2.03194701486E+00  2.35590350898E+00
  2.92316140151E+00  3.78109774051E+00  5.00322818458E+00  6.67572142984E+00  8.85230454461E+00
  1.14771498413E+01  1.42902094645E+01  1.69048798178E+01  1.87958519153E+01  1.94907895595E+01
  1.87964682812E+01  1.69051360308E+01  1.42894620670E+01  1.14760061975E+01  8.85236699082E+00
  6.67670866155E+00  5.00394051576E+00  3.78104424973E+00  2.92268400095E+00  2.58012119659E+00
  2.35563881720E+00  2.35605196318E+00  2.58065884957E+00  3.04332413966E+00  3.78109774051E+00
  4.86256705503E+00  6.38008977919E+00  8.41007917921E+00  1.09339104130E+01  1.37398298251E+01
  1.65726175027E+01  1.89379263774E+01  2.03023527080E+01  2.03017667094E+01  1.89366741362E+01
  1.65720055416E+01  1.37405615824E+01  1.09345692179E+01  8.40998921025E+00  6.37976089914E+00
  4.86272778218E+00  3.78168319882E+00  3.04336678169E+00  3.04336678169E+00  2.92268400095E+00
  3.04341162918E+00  3.40962571346E+00  4.04372266395E+00  5.00322818458E+00  6.38008977919E+00
  8.26254368235E+00  1.06292529153E+01  1.33585581347E+01  1.62441165963E+01  1.89094797349E+01
  2.08789093244E+01  2.16269238202E+01  2.08765067038E+01  1.89078092716E+01  1.62447608862E+01
  1.33605856014E+01  1.06300223683E+01  8.26116142350E+00  6.37869884346E+00  5.00326761468E+00
  4.04480113003E+00  3.41025817139E+00  3.78168319882E+00  3.78104424973E+00  4.04378286348E+00
  4.58066665195E+00  5.43093146153E+00  6.67572142984E+00  8.41007917921E+00  1.06292529153E+01
  1.32194795546E+01  1.60255033780E+01  1.88224823477E+01  2.14801694625E+01  2.34725576376E+01
  2.34723308190E+01  2.14792819332E+01  1.88211601646E+01  1.60245268057E+01  1.32198140723E+01
  1.06305832079E+01  8.41082149516E+00  6.67515014781E+00  5.43002815371E+00  4.58077558374E+00
  4.04480113003E+00  4.86272778218E+00  5.00394051576E+00  5.43095054327E+00  6.16727910457E+00
  7.27667491156E+00  8.85230454461E+00  1.09339104130E+01  1.33585581347E+01  1.60255033780E+01
  1.87941429010E+01  2.22038948545E+01  2.71608941501E+01  3.03238256950E+01  2.71609511724E+01
  2.22032858050E+01  1.87928731091E+01  1.60246281395E+01  1.33589559908E+01  1.09352387260E+01
  8.85338317909E+00  7.27691077275E+00  6.16667854584E+00  5.43002815371E+00  5.00326761468E+00
  6.37976089914E+00  6.67670866155E+00  7.27657391459E+00  8.22152006731E+00  9.59767352069E+00
  1.14771498413E+01  1.37398298251E+01  1.62441165963E+01  1.88224823477E+01  2.22038948545E+01
  2.98314342550E+01  4.17006546890E+01  4.16996782270E+01  2.98301787750E+01  2.22044626218E+01
  1.88241221916E+01  1.62450133269E+01  1.37387457866E+01  1.14756097011E+01  9.59804262427E+00
  8.22307491640E+00  7.27691077275E+00  6.67515014781E+00  6.37869884346E+00  8.40998921025E+00
  8.85236699082E+00  9.59771145727E+00  1.07073093145E+01  1.22779978707E+01  1.42902094645E+01
  1.65726175027E+01  1.89094797349E+01  2.14801694625E+01  2.71608941501E+01  4.17006546890E+01
  5.35471969500E+01  4.17020368610E+01  2.71628002075E+01  2.14816397208E+01  1.89099617064E+01
  1.65723558244E+01  1.42888883404E+01  1.22764823631E+01  1.07063856998E+01  9.59804262427E+00
  8.85338317909E+00  8.41082149516E+00  8.26116142350E+00  1.09345692179E+01  1.14760061975E+01
  1.22778021412E+01  1.34231778205E+01  1.50050581049E+01  1.69048798178E+01  1.89379263774E+01
  2.08789093244E+01  2.34725576376E+01  3.03238256950E+01  4.16996782270E+01  4.17020368610E+01
  3.03280549630E+01  2.34745736739E+01  2.08778155538E+01  1.89364232632E+01  1.69049798559E+01
  1.50056246290E+01  1.34225657521E+01  1.22764823631E+01  1.14756097011E+01  1.09352387260E+01
  1.06305832079E+01  1.06300223683E+01  1.37405615824E+01  1.42894620670E+01  1.50047266653E+01
  1.59669752479E+01  1.72894283225E+01  1.87958519153E+01  2.03023527080E+01  2.16269238202E+01
  2.34723308190E+01  2.71609511724E+01  2.98301787750E+01  2.71628002075E+01  2.34745736739E+01
  2.16277262929E+01  2.03016591684E+01  1.87948716174E+01  1.72890585408E+01  1.59677213257E+01
  1.50056246290E+01  1.42888883404E+01  1.37387457866E+01  1.33589559908E+01  1.32198140723E+01
  1.33605856014E+01  1.65720055416E+01  1.69051360308E+01  1.72892835657E+01  1.78096326312E+01
  1.85862047907E+01  1.94907895595E+01  2.03017667094E+01  2.08765067038E+01  2.14792819332E+01
  2.22032858050E+01  2.22044626218E+01  2.14816397208E+01  2.08778155538E+01  2.03016591684E+01
  1.94900946783E+01  1.85853708367E+01  1.78093884652E+01  1.72890585408E+01  1.69049798559E+01
  1.65723558244E+01  1.62450133269E+01  1.60246281395E+01  1.60245268057E+01  1.62447608862E+01
  1.89366741362E+01  1.87964682812E+01  1.85861374984E+01  1.84861207089E+01  1.85861374984E+01
  1.87964682812E+01  1.89366741362E+01  1.89078092716E+01  1.88211601646E+01  1.87928731091E+01
  1.88241221916E+01  1.89099617064E+01  1.89364232632E+01  1.87948716174E+01  1.85853708367E+01
  1.84866189622E+01  1.85853708367E+01  1.87948716174E+01  1.89364232632E+01  1.89099617064E+01
  1.88241221916E+01  1.87928731091E+01  1.88211601646E+01  1.89078092716E+01  2.03017667094E+01
  1.94907895595E+01  1.85862047907E+01  1.78096326312E+01  1.72892835657E+01  1.69051360308E+01
  1.65720055416E+01  1.62447608862E+01  1.60245268057E+01  1.60246281395E+01  1.62450133269E+01
  1.65723558244E+01  1.69049798559E+01  1.72890585408E+01  1.78093884652E+01  1.85853708367E+01
  1.94900946783E+01  2.03016591684E+01  2.08778155538E+01  2.14816397208E+01  2.22044626218E+01
  2.22032858050E+01  2.14792819332E+01  2.08765067038E+01  2.03023527080E+01  1.87958519153E+01
  1.72894283225E+01  1.59669752479E+01  1.50047266653E+01  1.42894620670E+01  1.37405615824E+01
  1.33605856014E+01  1.32198140723E+01  1.33589559908E+01  1.37387457866E+01  1.42888883404E+01
  1.50056246290E+01  1.59677213257E+01  1.72890585408E+01  1.87948716174E+01  2.03016591684E+01
  2.16277262929E+01  2.34745736739E+01  2.71628002075E+01  2.98301787750E+01  2.71609511724E+01
  2.34723308190E+01  2.16269238202E+01  1.89379263774E+01  1.69048798178E+01  1.50050581049E+01
  1.34231778205E+01  1.22778021412E+01  1.14760061975E+01  1.09345692179E+01  1.06300223683E+01
  1.06305832079E+01  1.09352387260E+01  1.14756097011E+01  1.22764823631E+01  1.34225657521E+01
  1.50056246290E+01  1.69049798559E+01  1.89364232632E+01  2.08778155538E+01  2.34745736739E+01
  3.03280549630E+01  4.17020368610E+01  4.16996782270E+01  3.03238256950E+01  2.34725576376E+01
  2.08789093244E+01  1.65726175027E+01  1.42902094645E+01  1.22779978707E+01  1.07073093145E+01
  9.59771145727E+00  8.85236699082E+00  8.40998921025E+00  8.26116142350E+00  8.41082149516E+00
  8.85338317909E+00  9.59804262427E+00  1.07063856998E+01  1.22764823631E+01  1.42888883404E+01
  1.65723558244E+01  1.89099617064E+01  2.14816397208E+01  2.71628002075E+01  4.17020368610E+01
  5.35471969500E+01  4.17006546890E+01  2.71608941501E+01  2.14801694625E+01  1.89094797349E+01
  1.37398298251E+01  1.14771498413E+01  9.59767352069E+00  8.22152006731E+00  7.27657391459E+00
  6.67670866155E+00  6.37976089914E+00  6.37869884346E+00  6.67515014781E+00  7.27691077275E+00
  8.22307491640E+00  9.59804262427E+00  1.14756097011E+01  1.37387457866E+01  1.62450133269E+01
  1.88241221916E+01  2.22044626218E+01  2.98301787750E+01  4.16996782270E+01  4.17006546890E+01
  2.98314342550E+01  2.22038948545E+01  1.88224823477E+01  1.62441165963E+01  1.09339104130E+01
  8.85230454461E+00  7.27667491156E+00  6.16727910457E+00  5.43095054327E+00  5.00394051576E+00
  4.86272778218E+00  5.00326761468E+00  5.43002815371E+00  6.16667854584E+00  7.27691077275E+00
  8.85338317909E+00  1.09352387260E+01  1.33589559908E+01  1.60246281395E+01  1.87928731091E+01
  2.22032858050E+01  2.71609511724E+01  3.03238256950E+01  2.71608941501E+01  2.22038948545E+01
  1.87941429010E+01  1.60255033780E+01  1.33585581347E+01  8.41007917921E+00  6.67572142984E+00
  5.43093146153E+00  4.58066665195E+00  4.04378286348E+00  3.78104424973E+00  3.78168319882E+00
  4.04480113003E+00  4.58077558374E+00  5.43002815371E+00  6.67515014781E+00  8.41082149516E+00
  1.06305832079E+01  1.32198140723E+01  1.60245268057E+01  1.88211601646E+01  2.14792819332E+01
  2.34723308190E+01  2.34725576376E+01  2.14801694625E+01  1.88224823477E+01  1.60255033780E+01
  1.32194795546E+01  1.06292529153E+01  6.38008977919E+00  5.00322818458E+00  4.04372266395E+00
  3.40962571346E+00  3.04341162918E+00  2.92268400095E+00  3.04336678169E+00  3.41025817139E+00
  4.04480113003E+00  5.00326761468E+00  6.37869884346E+00  8.26116142350E+00  1.06300223683E+01
  1.33605856014E+01  1.62447608862E+01  1.89078092716E+01  2.08765067038E+01  2.16269238202E+01
  2.08789093244E+01  1.89094797349E+01  1.62441165963E+01  1.33585581347E+01  1.06292529153E+01
  8.26254368235E+00  4.10841798836E+00  3.19435081230E+00  2.59469419302E+00  2.25291630131E+00
  2.14154462939E+00  2.25293358493E+00  2.59468743157E+00  3.19425226590E+00  4.10833341606E+00
  5.42617787193E+00  7.24797374931E+00  9.62088248732E+00  1.24225092753E+01  1.54416746353E+01
  1.82581675990E+01  2.03017983704E+01  2.10548865048E+01  2.03016288030E+01  1.82582545760E+01
  1.54416640282E+01  1.24221309680E+01  9.62081348337E+00  7.24785325409E+00  5.42620835339E+00
  3.19435081230E+00  2.48778992420E+00  2.04716279245E+00  1.83525473863E+00  1.83542687142E+00
  2.04726490704E+00  2.48732295680E+00  3.19403848833E+00  4.23166227165E+00  5.68599560750E+00
  7.63641145021E+00  1.00937469241E+01  1.29179964245E+01  1.57410349150E+01  1.81178007680E+01
  1.94907776245E+01  1.94899132298E+01  1.81164891673E+01  1.57413048078E+01  1.29202938686E+01
  1.00954719808E+01  7.63567048193E+00  5.68430815291E+00  4.23077587168E+00  2.59469419302E+00
  2.04716279245E+00  1.73609218613E+00  1.63524236976E+00  1.73606803501E+00  2.04720194591E+00
  2.59483557821E+00  3.42422878800E+00  4.60119313584E+00  6.20180896715E+00  8.27719511535E+00
  1.07870591549E+01  1.35232199612E+01  1.60794100112E+01  1.79110079129E+01  1.85861692887E+01
  1.79111880117E+01  1.60797271455E+01  1.35235535217E+01  1.07870196004E+01  8.27714200225E+00
  6.20187899731E+00  4.60112716476E+00  3.42414078222E+00  2.25291630131E+00  1.83525473863E+00
  1.63524236976E+00  1.63530767522E+00  1.83538505358E+00  2.25296994426E+00  2.92137299405E+00
  3.89092997554E+00  5.22793685947E+00  6.99740096339E+00  9.21422630217E+00  1.17695107981E+01
  1.43699922419E+01  1.65512580398E+01  1.78092064849E+01  1.78096630942E+01  1.65520095757E+01
  1.43698296489E+01  1.17682035193E+01  9.21304613468E+00  6.99733684171E+00  5.22870992989E+00
  3.89182508202E+00  2.92177268247E+00  2.14154462939E+00  1.83542687142E+00  1.73606803501E+00
  1.83538505358E+00  2.14146221281E+00  2.67803143694E+00  3.48547489680E+00  4.62238614101E+00
  6.15864838141E+00  8.14163210130E+00  1.05315725795E+01  1.31287420664E+01  1.55467525806E+01
  1.72894418305E+01  1.79111053039E+01  1.72893502807E+01  1.55465063801E+01  1.31285326191E+01
  1.05316656743E+01  8.14156903206E+00  6.15851802654E+00  4.62237246088E+00  3.48543722178E+00
  2.67811802235E+00  2.25293358493E+00  2.04726490704E+00  2.04720194591E+00  2.25296994426E+00
  2.67803143694E+00  3.35301011014E+00  4.33015475392E+00  5.68130383137E+00  7.47301382311E+00
  9.71037446089E+00  1.22622134458E+01  1.47947452149E+01  1.69050327463E+01  1.81177442209E+01
  1.81178202890E+01  1.69051536958E+01  1.47948283118E+01  1.22622592312E+01  9.71082134183E+00
  7.47371760713E+00  5.68149201408E+00  4.32965890432E+00  3.35232548766E+00  2.67766705370E+00
  2.59468743157E+00  2.48732295680E+00  2.59483557821E+00  2.92137299405E+00  3.48547489680E+00
  4.33015475392E+00  5.52582458160E+00  7.14934435178E+00  9.23091349717E+00  1.16601830044E+01
  1.42209551202E+01  1.65719450959E+01  1.82580224138E+01  1.88749548701E+01  1.82581257230E+01
  1.65720113026E+01  1.42211610190E+01  1.16602708377E+01  9.23094910717E+00  7.14934232483E+00
  5.52572471962E+00  4.33019467787E+00  3.48541341743E+00  2.92123847643E+00  3.19425226590E+00
  3.19403848833E+00  3.42422878800E+00  3.89092997554E+00  4.62238614101E+00  5.68130383137E+00
  7.14934435178E+00  9.07122431618E+00  1.13484183143E+01  1.38250462132E+01  1.62448301876E+01
  1.82323276950E+01  1.93805783308E+01  1.93804885161E+01  1.82322996217E+01  1.62448345072E+01
  1.38251900022E+01  1.13483194559E+01  9.07046115448E+00  7.14866784932E+00  5.68127462722E+00
  4.62303224890E+00  3.89184933816E+00  3.42490002406E+00  4.10833341606E+00  4.23166227165E+00
  4.60119313584E+00  5.22793685947E+00  6.15864838141E+00  7.47301382311E+00  9.23091349717E+00
  1.13484183143E+01  1.36790986223E+01  1.60246099464E+01  1.81342661334E+01  1.97388158391E+01
  2.03826565320E+01  1.97388353594E+01  1.81342494065E+01  1.60246034567E+01  1.36791532620E+01
  1.13484528210E+01  9.23094180997E+00  7.47289062683E+00  6.15850006688E+00  5.22797162532E+00
  4.60122920061E+00  4.23166712886E+00  5.42617787193E+00  5.68599560750E+00  6.20180896715E+00
  6.99740096339E+00  8.14163210130E+00  9.71037446089E+00  1.16601830044E+01  1.38250462132E+01
  1.60246099464E+01  1.80919472987E+01  2.00625127543E+01  2.16317179100E+01  2.16319047226E+01
  2.00628884434E+01  1.80920333331E+01  1.60245857375E+01  1.38251371764E+01  1.16604828654E+01
  9.71088682950E+00  8.14221285019E+00  6.99750279272E+00  6.20074946354E+00  5.68441281115E+00
  5.42540049606E+00  7.24797374931E+00  7.63641145021E+00  8.27719511535E+00  9.21422630217E+00
  1.05315725795E+01  1.22622134458E+01  1.42209551202E+01  1.62448301876E+01  1.81342661334E+01
  2.00625127543E+01  2.24000865564E+01  2.37711422059E+01  2.24002508331E+01  2.00625600212E+01
  1.81339083333E+01  1.62448828819E+01  1.42211833490E+01  1.22622867831E+01  1.05316703662E+01
  9.21424412306E+00  8.27713782093E+00  7.63631647951E+00  7.24783522320E+00  7.11549363277E+00
  9.62088248732E+00  1.00937469241E+01  1.07870591549E+01  1.17695107981E+01  1.31287420664E+01
  1.47947452149E+01  1.65719450959E+01  1.82323276950E+01  1.97388158391E+01  2.16317179100E+01
  2.37711422059E+01  2.37713425052E+01  2.16319623503E+01  1.97384483123E+01  1.82320486686E+01
  1.65722589764E+01  1.47949911873E+01  1.31282623888E+01  1.17681033221E+01  1.07865010425E+01
  1.00953402251E+01  9.62341817033E+00  9.37136762569E+00  9.37012029191E+00  1.24225092753E+01
  1.29179964245E+01  1.35232199612E+01  1.43699922419E+01  1.55467525806E+01  1.69050327463E+01
  1.82580224138E+01  1.93805783308E+01  2.03826565320E+01  2.16319047226E+01  2.24002508331E+01
  2.16319623503E+01  2.03826320087E+01  1.93805876727E+01  1.82582196581E+01  1.69049272559E+01
  1.55466111291E+01  1.43698683308E+01  1.35234361520E+01  1.29180329820E+01  1.24221906708E+01
  1.20851720106E+01  1.19606146313E+01  1.20853061737E+01  1.54416746353E+01  1.57410349150E+01
  1.60794100112E+01  1.65512580398E+01  1.72894418305E+01  1.81177442209E+01  1.88749548701E+01
  1.93804885161E+01  1.97388353594E+01  2.00628884434E+01  2.00625600212E+01  1.97384483123E+01
  1.93805876727E+01  1.88755246859E+01  1.81177186921E+01  1.72889971618E+01  1.65518219455E+01
  1.60807447454E+01  1.57413968359E+01  1.54402019683E+01  1.51457778830E+01  1.49477778855E+01
  1.49491895223E+01  1.51482603837E+01  1.82581675990E+01  1.81178007680E+01  1.79110079129E+01
  1.78092064849E+01  1.79111053039E+01  1.81178202890E+01  1.82581257230E+01  1.82322996217E+01
  1.81342494065E+01  1.80920333331E+01  1.81339083333E+01  1.82320486686E+01  1.82582196581E+01
  1.81177186921E+01  1.79108096628E+01  1.78093728292E+01  1.79110081408E+01  1.81178923991E+01
  1.82583085761E+01  1.82321776326E+01  1.81340389603E+01  1.80919831761E+01  1.81340616765E+01
  1.82322128697E+01  2.03017983704E+01  1.94907776245E+01  1.85861692887E+01  1.78096630942E+01
  1.72893502807E+01  1.69051536958E+01  1.65720113026E+01  1.62448345072E+01  1.60246034567E+01
  1.60245857375E+01  1.62448828819E+01  1.65722589764E+01  1.69049272559E+01  1.72889971618E+01
  1.78093728292E+01  1.85854873697E+01  1.94902770813E+01  2.03017684894E+01  2.08778437148E+01
  2.14816570888E+01  2.22044417998E+01  2.22031682270E+01  2.14791455842E+01  2.08764718748E+01
  2.10548865048E+01  1.94899132298E+01  1.79111880117E+01  1.65520095757E+01  1.55465063801E+01
  1.47948283118E+01  1.42211610190E+01  1.38251900022E+01  1.36791532620E+01  1.38251371764E+01
  1.42211833490E+01  1.47949911873E+01  1.55466111291E+01  1.65518219455E+01  1.79110081408E+01
  1.94902770813E+01  2.10549004097E+01  2.24942245551E+01  2.49513073104E+01  3.05481905530E+01
  3.47766506890E+01  3.05483191510E+01  2.49512922164E+01  2.24942730278E+01  2.03016288030E+01
  1.81164891673E+01  1.60797271455E+01  1.43698296489E+01  1.31285326191E+01  1.22622592312E+01
  1.16602708377E+01  1.13483194559E+01  1.13484528210E+01  1.16604828654E+01  1.22622867831E+01
  1.31282623888E+01  1.43698683308E+01  1.60807447454E+01  1.81178923991E+01  2.03017684894E+01
  2.24942245551E+01  2.67580671306E+01  4.28688251920E+01  7.50989981800E+01  7.50993730390E+01
  4.28700356110E+01  2.67596089474E+01  2.24954345585E+01  1.82582545760E+01  1.57413048078E+01
  1.35235535217E+01  1.17682035193E+01  1.05316656743E+01  9.71082134183E+00  9.23094910717E+00
  9.07046115448E+00  9.23094180997E+00  9.71088682950E+00  1.05316703662E+01  1.17681033221E+01
  1.35234361520E+01  1.57413968359E+01  1.82583085761E+01  2.08778437148E+01  2.49513073104E+01
  4.28688251920E+01  1.13715789845E+02  1.91651780435E+02  1.13715342690E+02  4.28686910200E+01
  2.49514391000E+01  2.08779295524E+01  1.54416640282E+01  1.29202938686E+01  1.07870196004E+01
  9.21304613468E+00  8.14156903206E+00  7.47371760713E+00  7.14934232483E+00  7.14866784932E+00
  7.47289062683E+00  8.14221285019E+00  9.21424412306E+00  1.07865010425E+01  1.29180329820E+01
  1.54402019683E+01  1.82321776326E+01  2.14816570888E+01  3.05481905530E+01  7.50989981800E+01
  1.91651780435E+02  1.91652181198E+02  7.50992286930E+01  3.05467771720E+01  2.14793417673E+01
  1.82312268456E+01  1.24221309680E+01  1.00954719808E+01  8.27714200225E+00  6.99733684171E+00
  6.15851802654E+00  5.68149201408E+00  5.52572471962E+00  5.68127462722E+00  6.15850006688E+00
  6.99750279272E+00  8.27713782093E+00  1.00953402251E+01  1.24221906708E+01  1.51457778830E+01
  1.81340389603E+01  2.22044417998E+01  3.47766506890E+01  7.50993730390E+01  1.13715342690E+02
  7.50992286930E+01  3.47766673430E+01  2.22045833590E+01  1.81340245856E+01  1.51455853251E+01
  9.62081348337E+00  7.63567048193E+00  6.20187899731E+00  5.22870992989E+00  4.62237246088E+00
  4.32965890432E+00  4.33019467787E+00  4.62303224890E+00  5.22797162532E+00  6.20074946353E+00
  7.63631647951E+00  9.62341817033E+00  1.20851720106E+01  1.49477778855E+01  1.80919831761E+01
  2.22031682270E+01  3.05483191510E+01  4.28700356110E+01  4.28686910200E+01  3.05467771720E+01
  2.22045833590E+01  1.80950898642E+01  1.49493590469E+01  1.20835675294E+01  7.24785325409E+00
  5.68430815291E+00  4.60112716476E+00  3.89182508202E+00  3.48543722178E+00  3.35232548766E+00
  3.48541341743E+00  3.89184933816E+00  4.60122920061E+00  5.68441281115E+00  7.24783522320E+00
  9.37136762569E+00  1.19606146313E+01  1.49491895223E+01  1.81340616765E+01  2.14791455842E+01
  2.49512922164E+01  2.67596089474E+01  2.49514391000E+01  2.14793417673E+01  1.81340245856E+01
  1.49493590469E+01  1.19606929216E+01  9.37137233389E+00  5.42620835339E+00  4.23077587168E+00
  3.42414078222E+00  2.92177268247E+00  2.67811802235E+00  2.67766705370E+00  2.92123847643E+00
  3.42490002406E+00  4.23166712886E+00  5.42540049606E+00  7.11549363277E+00  9.37012029191E+00
  1.20853061737E+01  1.51482603837E+01  1.82322128697E+01  2.08764718748E+01  2.24942730278E+01
  2.24954345585E+01  2.08779295524E+01  1.82312268456E+01  1.51455853251E+01  1.20835675294E+01
  9.37137233389E+00  7.11794806705E+00  3.36271777371E+00  2.63563844184E+00  2.18362911521E+00
  1.96616423748E+00  1.96647717087E+00  2.18414069479E+00  2.63544822797E+00  3.36209462458E+00
  4.43788239039E+00  5.96137404263E+00  8.01552106542E+00  1.05894267973E+01  1.34751908061E+01
  1.64097153020E+01  1.88750752621E+01  2.03024581300E+01  2.03017071570E+01  1.88737429769E+01
  1.64091850835E+01  1.34752483774E+01  1.05898584112E+01  8.01547632746E+00  5.96102815576E+00
  4.43824066583E+00  2.63563844184E+00  2.08954743691E+00  1.77898647294E+00  1.67812365813E+00
  1.77896165243E+00  2.08920700323E+00  2.63527689136E+00  3.46676604059E+00  4.65678046244E+00
  6.28770860357E+00  8.40929723539E+00  1.09677357453E+01  1.37162372254E+01  1.62704939053E+01
  1.81177043339E+01  1.87958187313E+01  1.81164756773E+01  1.62698525500E+01  1.37178559599E+01
  1.09704000498E+01  8.40994202000E+00  6.28630196994E+00  4.65504231059E+00  3.46608406571E+00
  2.18362911521E+00  1.77898647294E+00  1.58512958614E+00  1.58513724385E+00  1.77898224799E+00
  2.18367321606E+00  2.83306668156E+00  3.77870977246E+00  5.08653575215E+00  6.81708631824E+00
  8.97902697501E+00  1.14610955329E+01  1.39766071737E+01  1.60794452467E+01  1.72893193875E+01
  1.72893722045E+01  1.60797194785E+01  1.39770557794E+01  1.14612375509E+01  8.97888084058E+00
  6.81712163308E+00  5.08655402004E+00  3.77869091234E+00  2.83306984729E+00  1.96616423748E+00
  1.67812365813E+00  1.58513724385E+00  1.67840912417E+00  1.96650155796E+00  2.47320500349E+00
  3.23560244384E+00  4.30459160521E+00  5.73859457210E+00  7.57515391507E+00  9.77454931046E+00
  1.21553985365E+01  1.43694925664E+01  1.59660332551E+01  1.65513043438E+01  1.59670614889E+01
  1.43699033769E+01  1.21540041480E+01  9.77246642945E+00  7.57428062298E+00  5.73926302101E+00
  4.30606861694E+00  3.23664175519E+00  2.47329088396E+00  1.96647717087E+00  1.77896165243E+00
  1.77898224799E+00  1.96650155796E+00  2.35608385114E+00  2.97513920994E+00  3.86406986076E+00
  5.07593160790E+00  6.66184944673E+00  8.62778839061E+00  1.08703477549E+01  1.31287343840E+01
  1.50050484309E+01  1.60796009857E+01  1.60795392542E+01  1.50048370443E+01  1.31285959121E+01
  1.08704969944E+01  8.62782045368E+00  6.66166673560E+00  5.07588501731E+00  3.86407257750E+00
  2.97521862499E+00  2.35618688608E+00  2.18414069479E+00  2.08920700323E+00  2.18367321606E+00
  2.47320500349E+00  2.97513920994E+00  3.72160812412E+00  4.76126826628E+00  6.15049428742E+00
  7.92062306284E+00  1.00207133843E+01  1.22616874655E+01  1.42895350796E+01  1.57412919970E+01
  1.62704826503E+01  1.57410004250E+01  1.42894401390E+01  1.22622403442E+01  1.00219349367E+01
  7.92184570892E+00  6.15071517966E+00  4.76014153430E+00  3.72014807127E+00  2.97444217726E+00
  2.47339144033E+00  2.63544822797E+00  2.63527689136E+00  2.83306668156E+00  3.23560244384E+00
  3.86406986076E+00  4.76126826628E+00  5.98580662140E+00  7.58240148000E+00  9.52829170409E+00
  1.16604500766E+01  1.37398930269E+01  1.54404728425E+01  1.64089867745E+01  1.64095355490E+01
  1.54415699413E+01  1.37405245214E+01  1.16602516317E+01  9.52805374125E+00  7.58253561509E+00
  5.98590648297E+00  4.76113993214E+00  3.86368560141E+00  3.23544384098E+00  2.83332596222E+00
  3.36209462458E+00  3.46676604059E+00  3.77870977246E+00  4.30459160521E+00  5.07593160790E+00
  6.15049428742E+00  7.58240148000E+00  9.36474358513E+00  1.13492087244E+01  1.33601593275E+01
  1.51471260468E+01  1.64014869487E+01  1.68567026729E+01  1.64023828441E+01  1.51483286107E+01
  1.33606649404E+01  1.13483491279E+01  9.36286800848E+00  7.58118315941E+00  6.15103991970E+00
  5.07745183521E+00  4.30571484406E+00  3.77874228092E+00  3.46627408979E+00  4.43788239039E+00
  4.65678046244E+00  5.08653575215E+00  5.73859457210E+00  6.66184944673E+00  7.92062306284E+00
  9.52829170409E+00  1.13492087244E+01  1.32193737596E+01  1.49479170647E+01  1.63091170801E+01
  1.70800984016E+01  1.70806026548E+01  1.63103002133E+01  1.49493143773E+01  1.32198498683E+01
  1.13484295920E+01  9.52724165257E+00  7.92005262359E+00  6.66205573592E+00  5.73917186700E+00
  5.08662786838E+00  4.65627430026E+00  4.43759792183E+00  5.96137404263E+00  6.28770860357E+00
  6.81708631824E+00  7.57515391507E+00  8.62778839061E+00  1.00207133843E+01  1.16604500766E+01
  1.33601593275E+01  1.49479170647E+01  1.62589068533E+01  1.71772709123E+01  1.75288125208E+01
  1.71797741381E+01  1.62607967765E+01  1.49476813575E+01  1.33587823948E+01  1.16603603064E+01
  1.00220436989E+01  8.62848383531E+00  7.57425437370E+00  6.81540014995E+00  6.28698024382E+00
  5.96156504937E+00  5.84930528051E+00  8.01552106542E+00  8.40929723539E+00  8.97902697501E+00
  9.77454931046E+00  1.08703477549E+01  1.22616874655E+01  1.37398930269E+01  1.51471260468E+01
  1.63091170801E+01  1.71772709123E+01  1.77099426468E+01  1.77109890558E+01  1.71788109450E+01
  1.63089184358E+01  1.51455502760E+01  1.37385278126E+01  1.22622018001E+01  1.08718852244E+01
  9.77489405483E+00  8.97816591429E+00  8.40900056986E+00  8.01644002670E+00  7.80604839966E+00
  7.80549715499E+00  1.05894267973E+01  1.09677357453E+01  1.14610955329E+01  1.21553985365E+01
  1.31287343840E+01  1.42895350796E+01  1.54404728425E+01  1.64014869487E+01  1.70800984016E+01
  1.75288125208E+01  1.77109890558E+01  1.75273484057E+01  1.70785025596E+01  1.64008191351E+01
  1.54401262573E+01  1.42888485144E+01  1.31283177258E+01  1.21551336018E+01  1.14619134917E+01
  1.09695032369E+01  1.05911583717E+01  1.03011952376E+01  1.01977481527E+01  1.03001602422E+01
  1.34751908061E+01  1.37162372254E+01  1.39766071737E+01  1.43694925664E+01  1.50050484309E+01
  1.57412919970E+01  1.64089867745E+01  1.68567026729E+01  1.70806026548E+01  1.71797741381E+01
  1.71788109450E+01  1.70785025596E+01  1.68553406497E+01  1.64086137121E+01  1.57414253909E+01
  1.50056868630E+01  1.43699766608E+01  1.39770801621E+01  1.37162860664E+01  1.34750917728E+01
  1.32377053873E+01  1.30776161368E+01  1.30773377962E+01  1.32372289303E+01  1.64097153020E+01
  1.62704939053E+01  1.60794452467E+01  1.59660332551E+01  1.60796009857E+01  1.62704826503E+01
  1.64095355490E+01  1.64023828441E+01  1.63103002133E+01  1.62607967765E+01  1.63089184358E+01
  1.64008191351E+01  1.64086137121E+01  1.62702370794E+01  1.60806598794E+01  1.59677427497E+01
  1.60808184474E+01  1.62702362614E+01  1.64084583221E+01  1.64008340031E+01  1.63091036948E+01
  1.62608275845E+01  1.63101709573E+01  1.64024095781E+01  1.88750752621E+01  1.81177043339E+01
  1.72893193875E+01  1.65513043438E+01  1.60795392542E+01  1.57410004250E+01  1.54415699413E+01
  1.51483286107E+01  1.49493143773E+01  1.49476813575E+01  1.51455502760E+01  1.54401262573E+01
  1.57414253909E+01  1.60806598794E+01  1.65517309875E+01  1.72891467648E+01  1.81179888011E+01
  1.88756189879E+01  1.93805565237E+01  1.97385227093E+01  2.00626533342E+01  2.00627759614E+01
  1.97386457434E+01  1.93804996481E+01  2.03024581300E+01  1.87958187313E+01  1.72893722045E+01
  1.59670614889E+01  1.50048370443E+01  1.42894401390E+01  1.37405245214E+01  1.33606649404E+01
  1.32198498683E+01  1.33587823948E+01  1.37385278126E+01  1.42888485144E+01  1.50056868630E+01
  1.59677427497E+01  1.72891467648E+01  1.87951373944E+01  2.03019110614E+01  2.16277485359E+01
  2.34744690609E+01  2.71627455145E+01  2.98300977790E+01  2.71607467684E+01  2.34721736340E+01
  2.16269764272E+01  2.03017071570E+01  1.81164756773E+01  1.60797194785E+01  1.43699033769E+01
  1.31285959121E+01  1.22622403442E+01  1.16602516317E+01  1.13483491279E+01  1.13484295920E+01
  1.16603603064E+01  1.22622018001E+01  1.31283177258E+01  1.43699766608E+01  1.60808184474E+01
  1.81179888011E+01  2.03019110614E+01  2.24942825371E+01  2.67579616636E+01  4.28686705780E+01
  7.50989034100E+01  7.50992897830E+01  4.28699290070E+01  2.67595775414E+01  2.24955213255E+01
  1.88737429769E+01  1.62698525500E+01  1.39770557794E+01  1.21540041480E+01  1.08704969944E+01
  1.00219349367E+01  9.52805374125E+00  9.36286800848E+00  9.52724165257E+00  1.00220436989E+01
  1.08718852244E+01  1.21551336018E+01  1.39770801621E+01  1.62702362614E+01  1.88756189879E+01
  2.16277485359E+01  2.67579616636E+01  5.51673495440E+01  1.92108678714E+02  3.74641095962E+02
  1.92114055178E+02  5.51733232570E+01  2.67600360581E+01  2.16258958847E+01  1.64091850835E+01
  1.37178559599E+01  1.14612375509E+01  9.77246642945E+00  8.62782045368E+00  7.92184570892E+00
  7.58253561509E+00  7.58118315941E+00  7.92005262359E+00  8.62848383531E+00  9.77489405483E+00
  1.14619134917E+01  1.37162860664E+01  1.64084583221E+01  1.93805565237E+01  2.34744690609E+01
  4.28686705780E+01  1.92108678714E+02  9.38537377148E+02  9.38540044808E+02  1.92113545348E+02
  4.28709509780E+01  2.34726393665E+01  1.93784499488E+01  1.34752483774E+01  1.09704000498E+01
  8.97888084058E+00  7.57428062298E+00  6.66166673560E+00  6.15071517966E+00  5.98590648297E+00
  6.15103991970E+00  6.66205573592E+00  7.57425437370E+00  8.97816591429E+00  1.09695032369E+01
  1.34750917728E+01  1.64008340031E+01  1.97385227093E+01  2.71627455145E+01  7.50989034100E+01
  3.74641095962E+02  9.38540044808E+02  3.74641174916E+02  7.50989225640E+01  2.71623836443E+01
  1.97377334627E+01  1.64001669434E+01  1.05898584112E+01  8.40994202000E+00  6.81712163308E+00
  5.73926302101E+00  5.07588501731E+00  4.76014153430E+00  4.76113993214E+00  5.07745183521E+00
  5.73917186700E+00  6.81540014995E+00  8.40900056986E+00  1.05911583717E+01  1.32377053873E+01
  1.63091036948E+01  2.00626533342E+01  2.98300977790E+01  7.50992897830E+01  1.92114055178E+02
  1.92113545348E+02  7.50989225640E+01  2.98313222740E+01  2.00642590224E+01  1.63088802100E+01
  1.32357786012E+01  8.01547632746E+00  6.28630196994E+00  5.08655402004E+00  4.30606861694E+00
  3.86407257750E+00  3.72014807127E+00  3.86368560141E+00  4.30571484406E+00  5.08662786838E+00
  6.28698024382E+00  8.01644002670E+00  1.03011952376E+01  1.30776161368E+01  1.62608275845E+01
  2.00627759614E+01  2.71607467684E+01  4.28699290070E+01  5.51733232570E+01  4.28709509780E+01
  2.71623836443E+01  2.00642590224E+01  1.62613168207E+01  1.30774301285E+01  1.03003286784E+01
  5.96102815576E+00  4.65504231059E+00  3.77869091234E+00  3.23664175519E+00  2.97521862499E+00
  2.97444217726E+00  3.23544384098E+00  3.77874228092E+00  4.65627430026E+00  5.96156504937E+00
  7.80604839966E+00  1.01977481527E+01  1.30773377962E+01  1.63101709573E+01  1.97386457434E+01
  2.34721736340E+01  2.67595775414E+01  2.67600360581E+01  2.34726393665E+01  1.97377334627E+01
  1.63088802100E+01  1.30774301285E+01  1.01991366687E+01  7.80719559464E+00  4.43824066583E+00
  3.46608406571E+00  2.83306984729E+00  2.47329088396E+00  2.35618688608E+00  2.47339144033E+00
  2.83332596222E+00  3.46627408979E+00  4.43759792183E+00  5.84930528051E+00  7.80549715499E+00
  1.03001602422E+01  1.32372289303E+01  1.64024095781E+01  1.93804996481E+01  2.16269764272E+01
  2.24955213255E+01  2.16258958847E+01  1.93784499488E+01  1.64001669434E+01  1.32357786012E+01
  1.03003286784E+01  7.80719559464E+00  5.85081166143E+00  2.69334020415E+00  2.14738866543E+00
  1.83668689557E+00  1.73545904046E+00  1.83664573410E+00  2.14738021337E+00  2.69334993212E+00
  3.52706066004E+00  4.72924455988E+00  6.38894503467E+00  8.54956408679E+00  1.11119717201E+01
  1.38560592110E+01  1.64091675145E+01  1.82581510308E+01  1.89380415064E+01  1.82583561030E+01
  1.64092277135E+01  1.38555561901E+01  1.11116632821E+01  8.54975299023E+00  6.38901503481E+00
  4.72943821990E+00  3.52707291252E+00  2.14738866543E+00  1.75399231671E+00  1.56511968562E+00
  1.56501373953E+00  1.75362292093E+00  2.14695325781E+00  2.77937403139E+00  3.70535473873E+00
  4.99414616390E+00  6.70630513239E+00  8.84389480644E+00  1.12841131721E+01  1.37166582610E+01
  1.57412300880E+01  1.69049188613E+01  1.69047688038E+01  1.57412243758E+01  1.37178058679E+01
  1.12862237526E+01  8.84486233482E+00  6.70552083890E+00  4.99259511224E+00  3.70415471277E+00
  2.77925251274E+00  1.83668689557E+00  1.56511968562E+00  1.47732310670E+00  1.56512842306E+00
  1.83669287774E+00  2.31545483937E+00  3.03870364059E+00  4.05606776072E+00  5.42051754127E+00
  7.16090477770E+00  9.23234173846E+00  1.14610365829E+01  1.35231940461E+01  1.50048685169E+01
  1.55466011246E+01  1.50049705389E+01  1.35235303497E+01  1.14612418839E+01  9.23231542973E+00
  7.16101311368E+00  5.42060739169E+00  4.05596364398E+00  3.03868674871E+00  2.31543112302E+00
  1.73545904046E+00  1.56501373953E+00  1.56512842306E+00  1.73586934876E+00  2.09267680100E+00
  2.66194143779E+00  3.47887402855E+00  4.58628321059E+00  6.02190773805E+00  7.78306196993E+00
  9.77467670681E+00  1.17692996779E+01  1.34227171530E+01  1.43695364964E+01  1.43700747179E+01
  1.34233001005E+01  1.17683348803E+01  9.77254696545E+00  7.78172865712E+00  6.02231756125E+00
  4.58794700475E+00  3.48026651591E+00  2.66207612000E+00  2.09216424674E+00  1.83664573410E+00
  1.75362292093E+00  1.83669287774E+00  2.09267680100E+00  2.53988271337E+00  3.20464215830E+00
  4.12081595377E+00  5.32636098013E+00  6.84224900688E+00  8.62787726083E+00  1.05316730530E+01
  1.22779671566E+01  1.35233736951E+01  1.39767603197E+01  1.35233328012E+01  1.22778920622E+01
  1.05317274633E+01  8.62783817738E+00  6.84207229874E+00  5.32632628754E+00  4.12087875424E+00
  3.20470113414E+00  2.54002411473E+00  2.09270320759E+00  2.14738021337E+00  2.14695325781E+00
  2.31545483937E+00  2.66194143779E+00  3.20464215830E+00  3.97177035955E+00  4.99951899855E+00
  6.31851959602E+00  7.92011263313E+00  9.70928735903E+00  1.14756817611E+01  1.29186427238E+01
  1.37166529630E+01  1.37161525984E+01  1.29178683175E+01  1.14758829035E+01  9.71071609063E+00
  7.92177289972E+00  6.31904705302E+00  4.99829687720E+00  3.96995788601E+00  3.20373130862E+00
  2.66220697980E+00  2.31628857199E+00  2.69334993212E+00  2.77937403139E+00  3.03870364059E+00
  3.47887402855E+00  4.12081595377E+00  4.99951899855E+00  6.15103737612E+00  7.58243852448E+00
  9.23078540675E+00  1.09344785325E+01  1.24223442652E+01  1.34750021285E+01  1.38558526980E+01
  1.34749740381E+01  1.24223449443E+01  1.09344683919E+01  9.23088329477E+00  7.58250040769E+00
  6.15103177677E+00  4.99966652496E+00  4.12094058379E+00  3.47881529856E+00  3.03870575031E+00
  2.77940627311E+00  3.52706066004E+00  3.70535473873E+00  4.05606776072E+00  4.58628321059E+00
  5.32636098013E+00  6.31851959602E+00  7.58243852448E+00  9.07181920847E+00  1.06305860496E+01
  1.20855656330E+01  1.32374493564E+01  1.38808315633E+01  1.38806893519E+01  1.32372313313E+01
  1.20853808287E+01  1.06301078463E+01  9.07051358458E+00  7.58121328331E+00  6.31896976114E+00
  5.32823326093E+00  4.58797156332E+00  4.05610601540E+00  3.70403129374E+00  3.52625402680E+00
  4.72924455988E+00  4.99414616390E+00  5.42051754127E+00  6.02190773805E+00  6.84224900688E+00
  7.92011263313E+00  9.23078540675E+00  1.06305860496E+01  1.19606731237E+01  1.30773441795E+01
  1.38295596229E+01  1.40963371929E+01  1.38295495789E+01  1.30774812822E+01  1.19607302423E+01
  1.06306056799E+01  9.23091048817E+00  7.92004133769E+00  6.84203003580E+00  6.02177246984E+00
  5.42058730430E+00  4.99428018704E+00  4.72945705594E+00  4.63792719266E+00  6.38894503467E+00
  6.70630513239E+00  7.16090477770E+00  7.78306196993E+00  8.62787726083E+00  9.70928735903E+00
  1.09344785325E+01  1.20855656330E+01  1.30773441795E+01  1.37956412986E+01  1.41743498498E+01
  1.41748274435E+01  1.37965233487E+01  1.30775926338E+01  1.20850608316E+01  1.09350417790E+01
  9.71073401450E+00  8.62844107351E+00  7.78177386504E+00  7.15852461949E+00  6.70544596180E+00
  6.39002197729E+00  6.22043990513E+00  6.21956664002E+00  8.54956408679E+00  8.84389480644E+00
  9.23234173846E+00  9.77467670681E+00  1.05316730530E+01  1.14756817611E+01  1.24223442652E+01
  1.32374493564E+01  1.38295596229E+01  1.41743498498E+01  1.42867988680E+01  1.41741884979E+01
  1.38297694538E+01  1.32376279303E+01  1.24220558478E+01  1.14754786901E+01  1.05316637972E+01
  9.77495946043E+00  9.23236592985E+00  8.84393678180E+00  8.54971142754E+00  8.34608255772E+00
  8.27067328490E+00  8.34604238822E+00  1.11119717201E+01  1.12841131721E+01  1.14610365829E+01
  1.17692996779E+01  1.22779671566E+01  1.29186427238E+01  1.34750021285E+01  1.38808315633E+01
  1.40963371929E+01  1.41748274435E+01  1.41741884979E+01  1.40955070312E+01  1.38810521854E+01
  1.34752690448E+01  1.29181426030E+01  1.22766267051E+01  1.17683365031E+01  1.14620808877E+01
  1.12862098907E+01  1.11130297998E+01  1.09397617837E+01  1.08225288383E+01  1.08227139427E+01
  1.09399633010E+01  1.38560592110E+01  1.37166582610E+01  1.35231940461E+01  1.34227171530E+01
  1.35233736951E+01  1.37166529630E+01  1.38558526980E+01  1.38806893519E+01  1.38295495789E+01
  1.37965233487E+01  1.38297694538E+01  1.38810521854E+01  1.38558495451E+01  1.37165617844E+01
  1.35235824190E+01  1.34227437111E+01  1.35236508230E+01  1.37163801044E+01  1.38554758781E+01
  1.38809009824E+01  1.38298800188E+01  1.37965407657E+01  1.38294346849E+01  1.38807477229E+01
  1.64091675145E+01  1.57412300880E+01  1.50048685169E+01  1.43695364964E+01  1.39767603197E+01
  1.37161525984E+01  1.34749740381E+01  1.32372313313E+01  1.30774812822E+01  1.30775926338E+01
  1.32376279303E+01  1.34752690448E+01  1.37165617844E+01  1.39770738641E+01  1.43697758708E+01
  1.50056362390E+01  1.57414491659E+01  1.64084222411E+01  1.68550880327E+01  1.70785507836E+01
  1.71790435080E+01  1.71798172611E+01  1.70805207708E+01  1.68568061539E+01  1.82581510308E+01
  1.69049188613E+01  1.55466011246E+01  1.43700747179E+01  1.35233328012E+01  1.29178683175E+01
  1.24223449443E+01  1.20853808287E+01  1.19607302423E+01  1.20850608316E+01  1.24220558478E+01
  1.29181426030E+01  1.35235824190E+01  1.43697758708E+01  1.55464815911E+01  1.69050341659E+01
  1.82583645741E+01  1.93805031847E+01  2.03825216877E+01  2.16320942103E+01  2.24004161551E+01
  2.16318262836E+01  2.03825334290E+01  1.93806813668E+01  1.89380415064E+01  1.69047688038E+01
  1.50049705389E+01  1.34233001005E+01  1.22778920622E+01  1.14758829035E+01  1.09344683919E+01
  1.06301078463E+01  1.06306056799E+01  1.09350417790E+01  1.14754786901E+01  1.22766267051E+01
  1.34227437111E+01  1.50056362390E+01  1.69050341659E+01  1.89366573262E+01  2.08779506418E+01
  2.34744205879E+01  3.03278757470E+01  4.17020459260E+01  4.16996711040E+01  3.03236532540E+01
  2.34724685006E+01  2.08790592694E+01  1.82583561030E+01  1.57412243758E+01  1.35235303497E+01
  1.17683348803E+01  1.05317274633E+01  9.71071609063E+00  9.23088329477E+00  9.07051358458E+00
  9.23091048817E+00  9.71073401450E+00  1.05316637972E+01  1.17683365031E+01  1.35236508230E+01
  1.57414491659E+01  1.82583645741E+01  2.08779506418E+01  2.49512359354E+01  4.28685221360E+01
  1.13715539228E+02  1.91651733448E+02  1.13715318759E+02  4.28686057780E+01  2.49514779130E+01
  2.08781271054E+01  1.64092277135E+01  1.37178058679E+01  1.14612418839E+01  9.77254696545E+00
  8.62783817738E+00  7.92177289972E+00  7.58250040769E+00  7.58121328331E+00  7.92004133769E+00
  8.62844107351E+00  9.77495946043E+00  1.14620808877E+01  1.37163801044E+01  1.64084222411E+01
  1.93805031847E+01  2.34744205879E+01  4.28685221360E+01  1.92108457461E+02  9.38537262522E+02
  9.38540083156E+02  1.92113601103E+02  4.28709748430E+01  2.34727223805E+01  1.93785811508E+01
  1.38555561901E+01  1.12862237526E+01  9.23231542973E+00  7.78172865711E+00  6.84207229874E+00
  6.31904705302E+00  6.15103177677E+00  6.31896976114E+00  6.84203003580E+00  7.78177386504E+00
  9.23236592985E+00  1.12862098907E+01  1.38554758781E+01  1.68550880327E+01  2.03825216877E+01
  3.03278757470E+01  1.13715539228E+02  9.38537262522E+02  9.83230506490E+03  9.38537220748E+02
  1.13715495036E+02  3.03278744260E+01  2.03826163459E+01  1.68552123309E+01  1.11116632821E+01
  8.84486233482E+00  7.16101311368E+00  6.02231756125E+00  5.32632628754E+00  4.99829687720E+00
  4.99966652496E+00  5.32823326093E+00  6.02177246984E+00  7.15852461949E+00  8.84393678180E+00
  1.11130297998E+01  1.38809009824E+01  1.70785507836E+01  2.16320942103E+01  4.17020459260E+01
  1.91651733448E+02  9.38540083156E+02  9.38537220748E+02  1.91646531450E+02  4.16996069390E+01
  2.16338390459E+01  1.70804669138E+01  1.38800868969E+01  8.54975299023E+00  6.70552083890E+00
  5.42060739169E+00  4.58794700475E+00  4.12087875424E+00  3.96995788601E+00  4.12094058379E+00
  4.58797156332E+00  5.42058730430E+00  6.70544596180E+00  8.54971142754E+00  1.09397617837E+01
  1.38298800188E+01  1.71790435080E+01  2.24004161551E+01  4.16996711040E+01  1.13715318759E+02
  1.92113601103E+02  1.13715495036E+02  4.16996069390E+01  2.24002645369E+01  1.71788123107E+01
  1.38297106297E+01  1.09398125819E+01  6.38901503481E+00  4.99259511224E+00  4.05596364398E+00
  3.48026651591E+00  3.20470113414E+00  3.20373130862E+00  3.47881529856E+00  4.05610601540E+00
  4.99428018704E+00  6.39002197729E+00  8.34608255772E+00  1.08225288383E+01  1.37965407657E+01
  1.71798172611E+01  2.16318262836E+01  3.03236532540E+01  4.28686057780E+01  4.28709748430E+01
  3.03278744260E+01  2.16338390459E+01  1.71788123107E+01  1.37953172080E+01  1.08228192303E+01
  8.34648527074E+00  4.72943821990E+00  3.70415471277E+00  3.03868674871E+00  2.66207612000E+00
  2.54002411473E+00  2.66220697980E+00  3.03870575031E+00  3.70403129374E+00  4.72945705594E+00
  6.22043990513E+00  8.27067328490E+00  1.08227139427E+01  1.38294346849E+01  1.70805207708E+01
  2.03825334290E+01  2.34724685006E+01  2.49514779130E+01  2.34727223805E+01  2.03826163459E+01
  1.70804669138E+01  1.38297106297E+01  1.08228192303E+01  8.27061311002E+00  6.22027437588E+00
  3.52707291252E+00  2.77925251274E+00  2.31543112302E+00  2.09216424674E+00  2.09270320759E+00
  2.31628857199E+00  2.77940627311E+00  3.52625402680E+00  4.63792719266E+00  6.21956664002E+00
  8.34604238822E+00  1.09399633010E+01  1.38807477229E+01  1.68568061539E+01  1.93806813668E+01
  2.08790592694E+01  2.08781271054E+01  1.93785811508E+01  1.68552123309E+01  1.38800868969E+01
  1.09398125819E+01  8.34648527074E+00  6.22027437588E+00  4.63893054106E+00  2.13521198870E+00
  1.75022587643E+00  1.56479646700E+00  1.56457959687E+00  1.74995726236E+00  2.13528480241E+00
  2.75380259037E+00  3.66180803494E+00  4.93284756625E+00  6.62855176736E+00  8.74160848338E+00
  1.11122043120E+01  1.34751600475E+01  1.54406006545E+01  1.65720157969E+01  1.65726619857E+01
  1.54416926362E+01  1.34752361454E+01  1.11116258151E+01  8.74125875302E+00  6.62851347153E+00
  4.93312388447E+00  3.66175429252E+00  2.75345060491E+00  1.75022587643E+00  1.49152636760E+00
  1.40788124560E+00  1.49165516018E+00  1.74995211962E+00  2.20527554968E+00  2.89517790161E+00
  3.87009397903E+00  5.18229072366E+00  6.85703180034E+00  8.84402082457E+00  1.09682338940E+01
  1.29185988938E+01  1.42894210036E+01  1.47945689019E+01  1.42900148995E+01  1.29201194156E+01
  1.09702658218E+01  8.84478919382E+00  6.85599757187E+00  5.18059984742E+00  3.86898610786E+00
  2.89535034050E+00  2.20596407091E+00  1.56479646700E+00  1.40788124560E+00  1.40786158059E+00
  1.56474378404E+00  1.89336798269E+00  2.41989132491E+00  3.17885996401E+00  4.20903919671E+00
  5.53986119504E+00  7.16083360823E+00  8.97899131221E+00  1.07870011335E+01  1.22778127386E+01
  1.31285799230E+01  1.31286062934E+01  1.22779067197E+01  1.07869874294E+01  8.97889043858E+00
  7.16103042158E+00  5.54011223906E+00  4.20901790015E+00  3.17877603443E+00  2.41979455206E+00
  1.89333218869E+00  1.56457959687E+00  1.49165516018E+00  1.56474378404E+00  1.79179226588E+00
  2.19192766688E+00  2.78954626181E+00  3.61210010695E+00  4.68657532205E+00  6.02215706257E+00
  7.57572982535E+00  9.21483772811E+00  1.07080000604E+01  1.17693474079E+01  1.21554941165E+01
  1.17696360971E+01  1.07074580625E+01  9.21320494508E+00  7.57440761078E+00  6.02237655075E+00
  4.68823833831E+00  3.61368780836E+00  2.78968439587E+00  2.19112811181E+00  1.79114544779E+00
  1.74995726236E+00  1.74995211962E+00  1.89336798269E+00  2.19192766688E+00  2.66394073827E+00
  3.32994544299E+00  4.21182529402E+00  5.32632440572E+00  6.66188090259E+00  8.14170242506E+00
  9.59777347239E+00  1.07871358565E+01  1.14612017129E+01  1.14612402499E+01  1.07871506459E+01
  9.59775809157E+00  8.14158305876E+00  6.66164739390E+00  5.32629355574E+00  4.21189758539E+00
  3.32994744821E+00  2.66401647396E+00  2.19200697750E+00  1.89338134023E+00  2.13528480241E+00
  2.20527554968E+00  2.41989132491E+00  2.78954626181E+00  3.32994544299E+00  4.06043897498E+00
  4.99940213598E+00  6.15002852558E+00  7.47203598892E+00  8.85110479347E+00  1.00936631298E+01
  1.09682382660E+01  1.12840787231E+01  1.09676285533E+01  1.00935785501E+01  8.85217679692E+00
  7.47353521603E+00  6.15056532516E+00  4.99821435450E+00  4.05860390904E+00  3.32905291869E+00
  2.78993747833E+00  2.42098356281E+00  2.20612171660E+00  2.75380259037E+00  2.89517790161E+00
  3.17885996401E+00  3.61210010695E+00  4.21182529402E+00  4.99940213598E+00  5.98590629408E+00
  7.14930157708E+00  8.41003924006E+00  9.62113936904E+00  1.05897649931E+01  1.11120819680E+01
  1.11118157401E+01  1.05892670673E+01  9.62075812212E+00  8.40990828515E+00  7.14929253593E+00
  5.98588679727E+00  4.99967344826E+00  4.21222731343E+00  3.61224623782E+00  3.17884985625E+00
  2.89514143938E+00  2.75378352120E+00  3.66180803494E+00  3.87009397903E+00  4.20903919671E+00
  4.68657532205E+00  5.32632440572E+00  6.15002852558E+00  7.14930157708E+00  8.26259844853E+00
  9.37147607572E+00  1.03012970540E+01  1.09405913750E+01  1.11685410059E+01  1.09400056130E+01
  1.03002697562E+01  9.37028863651E+00  8.26132987170E+00  7.14880574832E+00  6.15115410800E+00
  5.32830680593E+00  4.68803030366E+00  4.20902777278E+00  3.86877886996E+00  3.66054368509E+00
  3.59020287970E+00  4.93284756625E+00  5.18229072366E+00  5.53986119504E+00  6.02215706257E+00
  6.66188090259E+00  7.47203598892E+00  8.41003924006E+00  9.37147607572E+00  1.01991961937E+01
  1.08245755181E+01  1.11617939397E+01  1.11610394800E+01  1.08228951817E+01  1.01979646617E+01
  9.37154542739E+00  8.41089740416E+00  7.47290925423E+00  6.66208170332E+00  6.02179265044E+00
  5.53947338547E+00  5.18220246498E+00  4.93321774158E+00  4.80074746647E+00  4.80050173707E+00
  6.62855176736E+00  6.85703180034E+00  7.16083360823E+00  7.57572982535E+00  8.14170242506E+00
  8.85110479347E+00  9.62113936904E+00  1.03012970540E+01  1.08245755181E+01  1.11500987186E+01
  1.12596794182E+01  1.11481289559E+01  1.08225569803E+01  1.03012253436E+01  9.62335427513E+00
  8.85322690819E+00  8.14209169009E+00  7.57422226420E+00  7.15851458539E+00  6.85595645660E+00
  6.62955424008E+00  6.47652873294E+00  6.42003442576E+00  6.47504651667E+00  8.74160848338E+00
  8.84402082457E+00  8.97899131221E+00  9.21483772811E+00  9.59777347239E+00  1.00936631298E+01
  1.05897649931E+01  1.09405913750E+01  1.11617939397E+01  1.12596794182E+01  1.12584976247E+01
  1.11596818936E+01  1.09397145977E+01  1.05911548047E+01  1.00952818031E+01  9.59799195407E+00
  9.21431708066E+00  8.97829688689E+00  8.84398734840E+00  8.74186708959E+00  8.64387124257E+00
  8.57644927538E+00  8.57655484260E+00  8.64392235955E+00  1.11122043120E+01  1.09682338940E+01
  1.07870011335E+01  1.07080000604E+01  1.07871358565E+01  1.09682382660E+01  1.11120819680E+01
  1.11685410059E+01  1.11610394800E+01  1.11481289559E+01  1.11596818936E+01  1.11677162275E+01
  1.11131896208E+01  1.09697011209E+01  1.07866405615E+01  1.07065730788E+01  1.07867860395E+01
  1.09697176619E+01  1.11130678518E+01  1.11677166705E+01  1.11598025306E+01  1.11481058399E+01
  1.11608802750E+01  1.11685208969E+01  1.34751600475E+01  1.29185988938E+01  1.22778127386E+01
  1.17693474079E+01  1.14612017129E+01  1.12840787231E+01  1.11118157401E+01  1.09400056130E+01
  1.08228951817E+01  1.08225569803E+01  1.09397145977E+01  1.11131896208E+01  1.12864567527E+01
  1.14620726407E+01  1.17681410691E+01  1.22765630601E+01  1.29181564060E+01  1.34750865128E+01
  1.38807901324E+01  1.40954986822E+01  1.41743522489E+01  1.41748284695E+01  1.40962235609E+01
  1.38808935843E+01  1.54406006545E+01  1.42894210036E+01  1.31285799230E+01  1.21554941165E+01
  1.14612402499E+01  1.09676285533E+01  1.05892670673E+01  1.03002697562E+01  1.01979646617E+01
  1.03012253436E+01  1.05911548047E+01  1.09697011209E+01  1.14620726407E+01  1.21549426138E+01
  1.31279886278E+01  1.42887265164E+01  1.54400827523E+01  1.64006124261E+01  1.70783492266E+01
  1.75275309797E+01  1.77112692328E+01  1.75288349348E+01  1.70800137316E+01  1.64015898387E+01
  1.65720157969E+01  1.47945689019E+01  1.31286062934E+01  1.17696360971E+01  1.07871506459E+01
  1.00935785501E+01  9.62075812212E+00  9.37028863651E+00  9.37154542739E+00  9.62335427513E+00
  1.00952818031E+01  1.07866405615E+01  1.17681410691E+01  1.31279886278E+01  1.47947355763E+01
  1.65722977974E+01  1.82321297466E+01  1.97383548403E+01  2.16319654913E+01  2.37716291332E+01
  2.37713734639E+01  2.16316304600E+01  1.97386967941E+01  1.82324323480E+01  1.65726619857E+01
  1.42900148995E+01  1.22779067197E+01  1.07074580625E+01  9.59775809157E+00  8.85217679692E+00
  8.40990828515E+00  8.26132987170E+00  8.41089740416E+00  8.85322690819E+00  9.59799195407E+00
  1.07065730788E+01  1.22765630601E+01  1.42887265164E+01  1.65722977974E+01  1.89101484964E+01
  2.14817302348E+01  2.71626549245E+01  4.17019927270E+01  5.35473847720E+01  4.17007277190E+01
  2.71607147631E+01  2.14800831035E+01  1.89096280739E+01  1.54416926362E+01  1.29201194156E+01
  1.07869874294E+01  9.21320494508E+00  8.14158305876E+00  7.47353521603E+00  7.14929253593E+00
  7.14880574832E+00  7.47290925423E+00  8.14209169009E+00  9.21431708066E+00  1.07867860395E+01
  1.29181564060E+01  1.54400827523E+01  1.82321297466E+01  2.14817302348E+01  3.05480794400E+01
  7.50986986750E+01  1.91651665001E+02  1.91652319086E+02  7.50992854320E+01  3.05466795670E+01
  2.14793837783E+01  1.82314284366E+01  1.34752361454E+01  1.09702658218E+01  8.97889043858E+00
  7.57440761078E+00  6.66164739390E+00  6.15056532516E+00  5.98588679727E+00  6.15115410800E+00
  6.66208170332E+00  7.57422226420E+00  8.97829688689E+00  1.09697176619E+01  1.34750865128E+01
  1.64006124261E+01  1.97383548403E+01  2.71626549245E+01  7.50986986750E+01  3.74640857027E+02
  9.38540055883E+02  3.74641403764E+02  7.50990682020E+01  2.71624054593E+01  1.97378393347E+01
  1.64003279744E+01  1.11116258151E+01  8.84478919382E+00  7.16103042158E+00  6.02237655075E+00
  5.32629355574E+00  4.99821435450E+00  4.99967344826E+00  5.32830680593E+00  6.02179265044E+00
  7.15851458539E+00  8.84398734840E+00  1.11130678518E+01  1.38807901324E+01  1.70783492266E+01
  2.16319654913E+01  4.17019927270E+01  1.91651665001E+02  9.38540055883E+02  9.38537349305E+02
  1.91646737671E+02  4.16997160760E+01  2.16338561289E+01  1.70805124568E+01  1.38801407329E+01
  8.74125875302E+00  6.85599757187E+00  5.54011223906E+00  4.68823833831E+00  4.21189758539E+00
  4.05860390904E+00  4.21222731343E+00  4.68803030366E+00  5.53947338547E+00  6.85595645659E+00
  8.74186708959E+00  1.11677166705E+01  1.40954986822E+01  1.75275309797E+01  2.37716291332E+01
  5.35473847720E+01  1.91652319086E+02  3.74641403764E+02  1.91646737671E+02  5.35412455030E+01
  2.37697782744E+01  1.75300793415E+01  1.40982517736E+01  1.11684426304E+01  6.62851347153E+00
  5.18059984742E+00  4.20901790015E+00  3.61368780836E+00  3.32994744821E+00  3.32905291869E+00
  3.61224623782E+00  4.20902777278E+00  5.18220246498E+00  6.62955424008E+00  8.64387124257E+00
  1.11598025306E+01  1.41743522489E+01  1.77112692328E+01  2.37713734639E+01  4.17007277190E+01
  7.50992854320E+01  7.50990682020E+01  4.16997160760E+01  2.37697782744E+01  1.77100078338E+01
  1.41749660084E+01  1.11618893569E+01  8.64488862218E+00  4.93312388447E+00  3.86898610786E+00
  3.17877603443E+00  2.78968439587E+00  2.66401647396E+00  2.78993747833E+00  3.17884985625E+00
  3.86877886996E+00  4.93321774158E+00  6.47652873294E+00  8.57644927538E+00  1.11481058399E+01
  1.41748284695E+01  1.75288349348E+01  2.16316304600E+01  2.71607147631E+01  3.05466795670E+01
  2.71624054593E+01  2.16338561289E+01  1.75300793415E+01  1.41749660084E+01  1.11475429959E+01
  8.57545037747E+00  6.47589514646E+00  3.66175429252E+00  2.89535034050E+00  2.41979455206E+00
  2.19112811181E+00  2.19200697750E+00  2.42098356281E+00  2.89514143938E+00  3.66054368509E+00
  4.80074746647E+00  6.42003442576E+00  8.57655484260E+00  1.11608802750E+01  1.40962235609E+01
  1.70800137316E+01  1.97386967941E+01  2.14800831035E+01  2.14793837783E+01  1.97378393347E+01
  1.70805124568E+01  1.40982517736E+01  1.11618893569E+01  8.57545037747E+00  6.41854981216E+00
  4.80069660926E+00  2.75345060491E+00  2.20596407091E+00  1.89333218869E+00  1.79114544779E+00
  1.89338134023E+00  2.20612171660E+00  2.75378352120E+00  3.59020287970E+00  4.80050173707E+00
  6.47504651667E+00  8.64392235955E+00  1.11685208969E+01  1.38808935843E+01  1.64015898387E+01
  1.82324323480E+01  1.89096280739E+01  1.82314284366E+01  1.64003279744E+01  1.38801407329E+01
  1.11684426304E+01  8.64488862218E+00  6.47589514646E+00  4.80069660926E+00  3.58994443350E+00
  1.69875151464E+00  1.44895995458E+00  1.36778104233E+00  1.44903313266E+00  1.69880218789E+00
  2.13698975377E+00  2.79969651443E+00  3.73818393034E+00  5.00637093419E+00  6.62862926560E+00
  8.54955438714E+00  1.05898567821E+01  1.24224701842E+01  1.37399912989E+01  1.42209971932E+01
  1.37398310211E+01  1.24220953200E+01  1.05897761912E+01  8.54965335983E+00  6.62845507213E+00
  5.00631078583E+00  3.73822571590E+00  2.79978243429E+00  2.13705529578E+00  1.44895995458E+00
  1.30173848495E+00  1.30195326395E+00  1.44908988362E+00  1.75622305908E+00  2.24840841780E+00
  2.95997690743E+00  3.92893764522E+00  5.18221561055E+00  6.70636872896E+00  8.40917770133E+00
  1.00936606278E+01  1.14756427881E+01  1.22615869465E+01  1.22620540438E+01  1.14769547203E+01
  1.00952701518E+01  8.40976681770E+00  6.70540541410E+00  5.18055485772E+00  3.92780218739E+00
  2.96026034933E+00  2.24948323547E+00  1.75683683763E+00  1.36778104233E+00  1.30195326395E+00
  1.36774359753E+00  1.57233829916E+00  1.93420619977E+00  2.47763972555E+00  3.22867424736E+00
  4.20906354411E+00  5.42046890275E+00  6.81700885241E+00  8.27718202387E+00  9.59768457069E+00
  1.05315679610E+01  1.08702549209E+01  1.05315056555E+01  9.59763849689E+00  8.27714698725E+00
  6.81716315338E+00  5.42065933079E+00  4.20904987645E+00  3.22865015017E+00  2.47759630907E+00
  1.93418274158E+00  1.57237782772E+00  1.44903313266E+00  1.44908988362E+00  1.57233829916E+00
  1.83186113423E+00  2.24647000835E+00  2.83463178546E+00  3.61222693019E+00  4.58670149553E+00
  5.73924092717E+00  6.99838911285E+00  8.22274442486E+00  9.21484806961E+00  9.77473778721E+00
  9.77467324996E+00  9.21438970767E+00  8.22169848041E+00  6.99751514591E+00  5.73941322051E+00
  4.58803502445E+00  3.61371320526E+00  2.83492357370E+00  2.24566209812E+00  1.83093594500E+00
  1.57190917098E+00  1.69880218789E+00  1.75622305908E+00  1.93420619977E+00  2.24647000835E+00
  2.70775081850E+00  3.32995329768E+00  4.12077968514E+00  5.07588797319E+00  6.15864279187E+00
  7.27661837484E+00  8.27723309827E+00  8.97908380691E+00  9.23247005966E+00  8.97915369791E+00
  8.27727742695E+00  7.27659946279E+00  6.15849765424E+00  5.07582855981E+00  4.12080358544E+00
  3.32989292781E+00  2.70774224020E+00  2.24647696725E+00  1.93419545137E+00  1.75621306379E+00
  2.13698975377E+00  2.24840841780E+00  2.47763972555E+00  2.83463178546E+00  3.32995329768E+00
  3.97172909450E+00  4.76114720153E+00  5.68087384864E+00  6.67524757737E+00  7.63536743982E+00
  8.40917811453E+00  8.84401634157E+00  8.84386071784E+00  8.40921203309E+00  7.63627198281E+00
  6.67653322185E+00  5.68130929318E+00  4.75998164830E+00  3.96984817311E+00  3.32900594829E+00
  2.83505352161E+00  2.47881568255E+00  2.24942405330E+00  2.13734795030E+00  2.79969651443E+00
  2.95997690743E+00  3.22867424736E+00  3.61222693019E+00  4.12077968514E+00  4.76114720153E+00
  5.52588835314E+00  6.37981075416E+00  7.24799769244E+00  8.01549175039E+00  8.54951870264E+00
  8.74153512298E+00  8.54946806719E+00  8.01544233122E+00  7.24793749111E+00  6.37976188974E+00
  5.52575455372E+00  4.76119824054E+00  4.12101031449E+00  3.61229058262E+00  3.22866390815E+00
  2.96001864657E+00  2.79978654407E+00  2.74627571639E+00  3.73818393034E+00  3.92893764522E+00
  4.20906354411E+00  4.58670149553E+00  5.07588797319E+00  5.68087384864E+00  6.37981075416E+00
  7.11687922330E+00  7.80593790601E+00  8.34563654924E+00  8.64364409568E+00  8.64395775355E+00
  8.34611121122E+00  7.80565186139E+00  7.11571548767E+00  6.37892482056E+00  5.68148123422E+00
  5.07764168551E+00  4.58811021132E+00  4.20907848648E+00  3.92763647919E+00  3.73668017164E+00
  3.63879278180E+00  3.63941206768E+00  5.00637093419E+00  5.18221561055E+00  5.42046890275E+00
  5.73924092717E+00  6.15864279187E+00  6.67524757737E+00  7.24799769244E+00  7.80593790601E+00
  8.27054151834E+00  8.57659587435E+00  8.66692239198E+00  8.57664700470E+00  8.27079882090E+00
  7.80622590006E+00  7.24798230500E+00  6.67520202731E+00  6.15850526368E+00  5.73918553670E+00
  5.42057967700E+00  5.18215973938E+00  5.00629418712E+00  4.89239742547E+00  4.85215998888E+00
  4.89244093869E+00  6.62862926560E+00  6.70636872896E+00  6.81700885241E+00  6.99838911285E+00
  7.27661837484E+00  7.63536743982E+00  8.01549175039E+00  8.34563654924E+00  8.57659587435E+00
  8.67280749046E+00  8.67263037000E+00  8.57638157508E+00  8.34602884552E+00  8.01640177470E+00
  7.63619182561E+00  7.27670091195E+00  6.99733589412E+00  6.81531829065E+00  6.70536799030E+00
  6.62947168418E+00  6.56824632994E+00  6.52932681186E+00  6.52833458763E+00  6.56630959098E+00
  8.54955438714E+00  8.40917770133E+00  8.27718202387E+00  8.22274442486E+00  8.27723309827E+00
  8.40917811453E+00  8.54951870264E+00  8.64364409568E+00  8.66692239198E+00  8.67263037000E+00
  8.66688104026E+00  8.64366497627E+00  8.54958101444E+00  8.40892126326E+00  8.27701049933E+00
  8.22296735270E+00  8.27716996643E+00  8.40909700366E+00  8.54971960344E+00  8.64382049227E+00
  8.66701491436E+00  8.67263016410E+00  8.66682294298E+00  8.64360067628E+00  1.05898567821E+01
  1.00936606278E+01  9.59768457069E+00  9.21484806961E+00  8.97908380691E+00  8.84401634157E+00
  8.74153512298E+00  8.64395775355E+00  8.57664700470E+00  8.57638157508E+00  8.64366497627E+00
  8.74174189559E+00  8.84396764070E+00  8.97823596859E+00  9.21425940216E+00  9.59811951897E+00
  1.00955376921E+01  1.05913011687E+01  1.09397288217E+01  1.11597275336E+01  1.12585567107E+01
  1.12595962672E+01  1.11616342097E+01  1.09405700210E+01  1.24224701842E+01  1.14756427881E+01
  1.05315679610E+01  9.77473778721E+00  9.23247005966E+00  8.84386071784E+00  8.54946806719E+00
  8.34611121122E+00  8.27079882090E+00  8.34602884552E+00  8.54958101444E+00  8.84396764070E+00
  9.23246530865E+00  9.77490277183E+00  1.05315541752E+01  1.14755426451E+01  1.24221824918E+01
  1.32375771813E+01  1.38296397748E+01  1.41742150439E+01  1.42868881520E+01  1.41742789268E+01
  1.38294353639E+01  1.32375032284E+01  1.37399912989E+01  1.22615869465E+01  1.08702549209E+01
  9.77467324996E+00  8.97915369791E+00  8.40921203309E+00  8.01544233122E+00  7.80565186139E+00
  7.80622590006E+00  8.01640177470E+00  8.40892126326E+00  8.97823596859E+00  9.77490277183E+00
  1.08716394274E+01  1.22619472901E+01  1.37385177086E+01  1.51456019590E+01  1.63088248138E+01
  1.71787694170E+01  1.77111854928E+01  1.77101305918E+01  1.71772086023E+01  1.63090131531E+01
  1.51472167148E+01  1.42209971932E+01  1.22620540438E+01  1.05315056555E+01  9.21438970767E+00
  8.27727742695E+00  7.63627198281E+00  7.24793749111E+00  7.11571548767E+00  7.24798230500E+00
  7.63619182561E+00  8.27701049933E+00  9.21425940216E+00  1.05315541752E+01  1.22619472901E+01
  1.42209877910E+01  1.62450189779E+01  1.81340714913E+01  2.00625699762E+01  2.24003613791E+01
  2.37714419649E+01  2.24002245074E+01  2.00623377373E+01  1.81341252654E+01  1.62449218706E+01
  1.37398310211E+01  1.14769547203E+01  9.59763849689E+00  8.22169848041E+00  7.27659946279E+00
  6.67653322185E+00  6.37976188974E+00  6.37892482056E+00  6.67520202731E+00  7.27670091195E+00
  8.22296735270E+00  9.59811951897E+00  1.14755426451E+01  1.37385177086E+01  1.62450189779E+01
  1.88244174206E+01  2.22046474138E+01  2.98301483890E+01  4.16997562490E+01  4.17008695250E+01
  2.98314162070E+01  2.22036179205E+01  1.88223619587E+01  1.62442410663E+01  1.24220953200E+01
  1.00952701518E+01  8.27714698725E+00  6.99751514591E+00  6.15849765424E+00  5.68130929318E+00
  5.52575455372E+00  5.68148123422E+00  6.15850526368E+00  6.99733589412E+00  8.27716996643E+00
  1.00955376921E+01  1.24221824918E+01  1.51456019590E+01  1.81340714913E+01  2.22046474138E+01
  3.47766505580E+01  7.50991950810E+01  1.13715356514E+02  7.50993996070E+01  3.47766245680E+01
  2.22043665090E+01  1.81340131746E+01  1.51457485991E+01  1.05897761912E+01  8.40976681770E+00
  6.81716315338E+00  5.73941322051E+00  5.07582855981E+00  4.75998164830E+00  4.76119824054E+00
  5.07764168551E+00  5.73918553670E+00  6.81531829065E+00  8.40909700366E+00  1.05913011687E+01
  1.32375771813E+01  1.63088248138E+01  2.00625699762E+01  2.98301483890E+01  7.50991950810E+01
  1.92113928474E+02  1.92113684432E+02  7.50991917450E+01  2.98313684240E+01  2.00641531044E+01
  1.63089299869E+01  1.32359044122E+01  8.54965335983E+00  6.70540541410E+00  5.42065933079E+00
  4.58803502445E+00  4.12080358544E+00  3.96984817311E+00  4.12101031449E+00  4.58811021132E+00
  5.42057967700E+00  6.70536799030E+00  8.54971960344E+00  1.09397288217E+01  1.38296397748E+01
  1.71787694170E+01  2.24003613791E+01  4.16997562490E+01  1.13715356514E+02  1.92113684432E+02
  1.13715765580E+02  4.16998806960E+01  2.24002974899E+01  1.71787167177E+01  1.38297169797E+01
  1.09398494399E+01  6.62845507213E+00  5.18055485772E+00  4.20904987645E+00  3.61371320526E+00
  3.32989292781E+00  3.32900594829E+00  3.61229058262E+00  4.20907848648E+00  5.18215973938E+00
  6.62947168418E+00  8.64382049227E+00  1.11597275336E+01  1.41742150439E+01  1.77111854928E+01
  2.37714419649E+01  4.17008695250E+01  7.50993996070E+01  7.50991917450E+01  4.16998806960E+01
  2.37698741104E+01  1.77099545428E+01  1.41748680004E+01  1.11618626319E+01  8.64488258748E+00
  5.00631078583E+00  3.92780218739E+00  3.22865015017E+00  2.83492357370E+00  2.70774224020E+00
  2.83505352161E+00  3.22866390815E+00  3.92763647919E+00  5.00629418712E+00  6.56824632994E+00
  8.66701491436E+00  1.12585567107E+01  1.42868881520E+01  1.77101305918E+01  2.24002245074E+01
  2.98314162070E+01  3.47766245680E+01  2.98313684240E+01  2.24002974899E+01  1.77099545428E+01
  1.42866619685E+01  1.12587326163E+01  8.66694730361E+00  6.56821203740E+00  3.73822571590E+00
  2.96026034933E+00  2.47759630907E+00  2.24566209812E+00  2.24647696725E+00  2.47881568255E+00
  2.96001864657E+00  3.73668017164E+00  4.89239742547E+00  6.52932681186E+00  8.67263016410E+00
  1.12595962672E+01  1.41742789268E+01  1.71772086023E+01  2.00623377373E+01  2.22036179205E+01
  2.22043665090E+01  2.00641531044E+01  1.71787167177E+01  1.41748680004E+01  1.12587326163E+01
  8.67075421061E+00  6.52840371868E+00  4.89323823555E+00  2.79978243429E+00  2.24948323547E+00
  1.93418274158E+00  1.83093594500E+00  1.93419545137E+00  2.24942405330E+00  2.79978654407E+00
  3.63879278180E+00  4.85215998888E+00  6.52833458763E+00  8.66682294298E+00  1.11616342097E+01
  1.38294353639E+01  1.63090131531E+01  1.81341252654E+01  1.88223619587E+01  1.81340131746E+01
  1.63089299869E+01  1.38297169797E+01  1.11618626319E+01  8.66694730361E+00  6.52840371868E+00
  4.85190925447E+00  3.63867908961E+00  2.13705529578E+00  1.75683683763E+00  1.57237782772E+00
  1.57190917098E+00  1.75621306379E+00  2.13734795030E+00  2.74627571639E+00  3.63941206768E+00
  4.89244093869E+00  6.56630959098E+00  8.64360067628E+00  1.09405700210E+01  1.32375032284E+01
  1.51472167148E+01  1.62449218706E+01  1.62442410663E+01  1.51457485991E+01  1.32359044122E+01
  1.09398494399E+01  8.64488258748E+00  6.56821203740E+00  4.89323823555E+00  3.63867908961E+00
  2.74500912828E+00  1.37982175889E+00  1.23850739724E+00  1.23855855830E+00  1.37990205564E+00
  1.67346744318E+00  2.14146465602E+00  2.81685399603E+00  3.73801578829E+00  4.93291528994E+00
  6.38894521742E+00  8.01550073929E+00  9.62121009514E+00  1.09345859855E+01  1.16605389936E+01
  1.16602328824E+01  1.09339275340E+01  9.62078422697E+00  8.01538741716E+00  6.38890332721E+00
  4.93304843887E+00  3.73820033620E+00  2.81702818932E+00  2.14159530002E+00  1.67344406112E+00
  1.23850739724E+00  1.17742799438E+00  1.23856253657E+00  1.42797485938E+00  1.76222511522E+00
  2.26438597606E+00  2.95994941611E+00  3.86970177243E+00  4.99382703288E+00  6.28717832527E+00
  7.63537997782E+00  8.85111843787E+00  9.70926675253E+00  1.00206435193E+01  9.71026651699E+00
  8.85216957211E+00  7.63551699463E+00  6.28615831884E+00  4.99250029264E+00  3.86894988876E+00
  2.96025619833E+00  2.26527259972E+00  1.76290901129E+00  1.42818597789E+00  1.23855855830E+00
  1.23856253657E+00  1.34792908955E+00  1.57863735273E+00  1.94901617205E+00  2.47760118958E+00
  3.17888137060E+00  4.05611849208E+00  5.08652538820E+00  6.20176505682E+00  7.27659880304E+00
  8.14164226916E+00  8.62779602373E+00  8.62772793111E+00  8.14161757840E+00  7.27670265136E+00
  6.20194153491E+00  5.08664737314E+00  4.05606579388E+00  3.17884967203E+00  2.47762498287E+00
  1.94907099083E+00  1.57869660727E+00  1.34792638729E+00  1.37990205564E+00  1.42797485938E+00
  1.57863735273E+00  1.84645148590E+00  2.24647163968E+00  2.78943988863E+00  3.47905174628E+00
  4.30501734256E+00  5.22861939080E+00  6.16811044680E+00  6.99837399805E+00  7.57571586085E+00
  7.78308711273E+00  7.57524696657E+00  6.99755148499E+00  6.16745520267E+00  5.22888749469E+00
  4.30622419954E+00  3.48036705181E+00  2.78971592357E+00  2.24565509152E+00  1.84542102503E+00
  1.57814961070E+00  1.42798082805E+00  1.67346744318E+00  1.76222511522E+00  1.94901617205E+00
  2.24647163968E+00  2.66394952183E+00  3.20464524694E+00  3.86401012006E+00  4.62237600805E+00
  5.43092586382E+00  6.20175336362E+00  6.81702824541E+00  7.16088253903E+00  7.16097907350E+00
  6.81716774644E+00  6.20186400025E+00  5.43095609587E+00  4.62233183968E+00  3.86400019320E+00
  3.20461063634E+00  2.66393161136E+00  2.24642952115E+00  1.94893545066E+00  1.76216174563E+00
  1.67342917271E+00  2.14146465602E+00  2.26438597606E+00  2.47760118958E+00  2.78943988863E+00
  3.20464524694E+00  3.72177151866E+00  4.33039178293E+00  5.00331261027E+00  5.68486996528E+00
  6.28718590117E+00  6.70638812236E+00  6.85703349744E+00  6.70627026959E+00  6.28763505957E+00
  5.68588459970E+00  5.00379796726E+00  4.32950848092E+00  3.72002325127E+00  3.20365074532E+00
  2.78989805473E+00  2.47880467615E+00  2.26523751701E+00  2.14169565435E+00  2.10145414689E+00
  2.81685399603E+00  2.95994941611E+00  3.17888137060E+00  3.47905174628E+00  3.86401012006E+00
  4.33039178293E+00  4.86251568980E+00  5.42576507996E+00  5.96114036347E+00  6.38896700442E+00
  6.62862156200E+00  6.62849093476E+00  6.38885278607E+00  5.96130715093E+00  5.42616451533E+00
  4.86275699698E+00  4.33026225887E+00  3.86379653661E+00  3.47894040736E+00  3.17893519535E+00
  2.96004711457E+00  2.81691322673E+00  2.74598055412E+00  2.74594566703E+00  3.73801578829E+00
  3.86970177243E+00  4.05611849208E+00  4.30501734256E+00  4.62237600805E+00  5.00331261027E+00
  5.42576507996E+00  5.84941769799E+00  6.21916586384E+00  6.47454860738E+00  6.56630355068E+00
  6.47501473037E+00  6.21955642992E+00  5.84938211101E+00  5.42554874306E+00  5.00342630018E+00
  4.62318995480E+00  4.30588093876E+00  4.05623276600E+00  3.86881268496E+00  3.73665771154E+00
  3.65690039379E+00  3.63035184883E+00  3.65786704756E+00  4.93291528994E+00  4.99382703288E+00
  5.08652538820E+00  5.22861939080E+00  5.43092586382E+00  5.68486996528E+00  5.96114036347E+00
  6.21916586384E+00  6.41869393082E+00  6.52775040040E+00  6.52833834143E+00  6.42001448796E+00
  6.22044290293E+00  5.96161907227E+00  5.68443672355E+00  5.42996004501E+00  5.22787121352E+00
  5.08655456148E+00  4.99419196674E+00  4.93308849248E+00  4.89230658427E+00  4.87075666777E+00
  4.87089684592E+00  4.89245943423E+00  6.38894521742E+00  6.28717832527E+00  6.20176505682E+00
  6.16811044680E+00  6.20175336362E+00  6.28718590117E+00  6.38896700442E+00  6.47454860738E+00
  6.52775040040E+00  6.54594268984E+00  6.52928606296E+00  6.47640603184E+00  6.38990401569E+00
  6.28687505542E+00  6.20055448393E+00  6.16639642054E+00  6.20051730203E+00  6.28684333282E+00
  6.38988943249E+00  6.47638365534E+00  6.52925971296E+00  6.54594413424E+00  6.52777251060E+00
  6.47454996268E+00  8.01550073929E+00  7.63537997782E+00  7.27659880304E+00  6.99837399805E+00
  6.81702824541E+00  6.70638812236E+00  6.62862156200E+00  6.56630355068E+00  6.52833834143E+00
  6.52928606296E+00  6.56813732934E+00  6.62935886318E+00  6.70531351400E+00  6.81530993155E+00
  6.99735489962E+00  7.27677689575E+00  7.63632990801E+00  8.01653314050E+00  8.34609542912E+00
  8.57640177748E+00  8.67263213110E+00  8.67277397766E+00  8.57652905835E+00  8.34559366244E+00
  9.62121009514E+00  8.85111843787E+00  8.14164226916E+00  7.57571586085E+00  7.16088253903E+00
  6.85703349744E+00  6.62849093476E+00  6.47501473037E+00  6.42001448796E+00  6.47640603184E+00
  6.62935886318E+00  6.85586058169E+00  7.15857067599E+00  7.57432747500E+00  8.14221614869E+00
  8.85343829339E+00  9.62360255333E+00  1.03013457366E+01  1.08225173063E+01  1.11480550139E+01
  1.12596218712E+01  1.11499976886E+01  1.08244605591E+01  1.03012840220E+01  1.09345859855E+01
  9.70926675253E+00  8.62779602373E+00  7.78308711273E+00  7.16097907350E+00  6.70627026959E+00
  6.38885278607E+00  6.21955642992E+00  6.22044290293E+00  6.38990401569E+00  6.70531351400E+00
  7.15857067599E+00  7.78194342564E+00  8.62855662661E+00  9.71081861080E+00  1.09352044220E+01
  1.20851989886E+01  1.30775354648E+01  1.37963513907E+01  1.41747378125E+01  1.41743257918E+01
  1.37955586686E+01  1.30772690685E+01  1.20856293100E+01  1.16605389936E+01  1.00206435193E+01
  8.62772793111E+00  7.57524696657E+00  6.81716774644E+00  6.28763505957E+00  5.96130715093E+00
  5.84938211101E+00  5.96161907227E+00  6.28687505542E+00  6.81530993155E+00  7.57432747500E+00
  8.62855662661E+00  1.00219713479E+01  1.16603006254E+01  1.33588676748E+01  1.49477409055E+01
  1.62606918855E+01  1.71796791142E+01  1.75288781128E+01  1.71773374453E+01  1.62588339183E+01
  1.49478660997E+01  1.33602642465E+01  1.16602328824E+01  9.71026651699E+00  8.14161757840E+00
  6.99755148499E+00  6.20186400025E+00  5.68588459970E+00  5.42616451533E+00  5.42554874306E+00
  5.68443672355E+00  6.20055448393E+00  6.99735489962E+00  8.14221614869E+00  9.71081861080E+00
  1.16603006254E+01  1.38251176744E+01  1.60247966125E+01  1.80921862461E+01  2.00628729224E+01
  2.16319496426E+01  2.16318779560E+01  2.00625277533E+01  1.80917676587E+01  1.60245317834E+01
  1.38251645582E+01  1.09339275340E+01  8.85216957211E+00  7.27670265136E+00  6.16745520267E+00
  5.43095609587E+00  5.00379796726E+00  4.86275699698E+00  5.00342630018E+00  5.42996004501E+00
  6.16639642054E+00  7.27677689575E+00  8.85343829339E+00  1.09352044220E+01  1.33588676748E+01
  1.60247966125E+01  1.87932365161E+01  2.22034575800E+01  2.71608945794E+01  3.03238398540E+01
  2.71609716411E+01  2.22037534475E+01  1.87938593310E+01  1.60254470390E+01  1.33587154647E+01
  9.62078422697E+00  7.63551699463E+00  6.20194153491E+00  5.22888749469E+00  4.62233183968E+00
  4.32950848092E+00  4.33026225887E+00  4.62318995480E+00  5.22787121352E+00  6.20051730203E+00
  7.63632990801E+00  9.62360255333E+00  1.20851989886E+01  1.49477409055E+01  1.80921862461E+01
  2.22034575800E+01  3.05483162040E+01  4.28698319130E+01  4.28686384610E+01  3.05468048070E+01
  2.22044002920E+01  1.80948423632E+01  1.49493943129E+01  1.20837551374E+01  8.01538741716E+00
  6.28615831884E+00  5.08664737314E+00  4.30622419954E+00  3.86400019320E+00  3.72002325127E+00
  3.86379653661E+00  4.30588093876E+00  5.08655456148E+00  6.28684333282E+00  8.01653314050E+00
  1.03013457366E+01  1.30775354648E+01  1.62606918855E+01  2.00628729224E+01  2.71608945794E+01
  4.28698319130E+01  5.51731566530E+01  4.28710094180E+01  2.71624969003E+01  2.00641422214E+01
  1.62611505447E+01  1.30775064925E+01  1.03004693944E+01  6.38890332721E+00  4.99250029264E+00
  4.05606579388E+00  3.48036705181E+00  3.20461063634E+00  3.20365074532E+00  3.47894040736E+00
  4.05623276600E+00  4.99419196674E+00  6.38988943249E+00  8.34609542912E+00  1.08225173063E+01
  1.37963513907E+01  1.71796791142E+01  2.16319496426E+01  3.03238398540E+01  4.28686384610E+01
  4.28710094180E+01  3.03280636850E+01  2.16339632019E+01  1.71786796777E+01  1.37951493320E+01
  1.08228462333E+01  8.34653813514E+00  4.93304843887E+00  3.86894988876E+00  3.17884967203E+00
  2.78971592357E+00  2.66393161136E+00  2.78989805473E+00  3.17893519535E+00  3.86881268496E+00
  4.93308849248E+00  6.47638365534E+00  8.57640177748E+00  1.11480550139E+01  1.41747378125E+01
  1.75288781128E+01  2.16318779560E+01  2.71609716411E+01  3.05468048070E+01  2.71624969003E+01
  2.16339632019E+01  1.75300513345E+01  1.41747605814E+01  1.11473733579E+01  8.57544472927E+00
  6.47590749696E+00  3.73820033620E+00  2.96025619833E+00  2.47762498287E+00  2.24565509152E+00
  2.24642952115E+00  2.47880467615E+00  2.96004711457E+00  3.73665771154E+00  4.89230658427E+00
  6.52925971296E+00  8.67263213110E+00  1.12596218712E+01  1.41743257918E+01  1.71773374453E+01
  2.00625277533E+01  2.22037534475E+01  2.22044002920E+01  2.00641422214E+01  1.71786796777E+01
  1.41747605814E+01  1.12585866663E+01  8.67067987561E+00  6.52842060248E+00  4.89325262195E+00
  2.81702818932E+00  2.26527259972E+00  1.94907099083E+00  1.84542102503E+00  1.94893545066E+00
  2.26523751701E+00  2.81691322673E+00  3.65690039379E+00  4.87075666777E+00  6.54594413424E+00
  8.67277397766E+00  1.11499976886E+01  1.37955586686E+01  1.62588339183E+01  1.80917676587E+01
  1.87938593310E+01  1.80948423632E+01  1.62611505447E+01  1.37951493320E+01  1.11473733579E+01
  8.67067987561E+00  6.54618092642E+00  4.87198230464E+00  3.65775299933E+00  2.14159530002E+00
  1.76290901129E+00  1.57869660727E+00  1.57814961070E+00  1.76216174563E+00  2.14169565435E+00
  2.74598055412E+00  3.63035184883E+00  4.87089684592E+00  6.52777251060E+00  8.57652905835E+00
  1.08244605591E+01  1.30772690685E+01  1.49478660997E+01  1.60245317834E+01  1.60254470390E+01
  1.49493943129E+01  1.30775064925E+01  1.08228462333E+01  8.57544472927E+00  6.52842060248E+00
  4.87198230464E+00  3.63056091328E+00  2.74529716525E+00  1.67344406112E+00  1.42818597789E+00
  1.34792638729E+00  1.42798082805E+00  1.67342917271E+00  2.10145414689E+00  2.74594566703E+00
  3.65786704756E+00  4.89245943423E+00  6.47454996268E+00  8.34559366244E+00  1.03012840220E+01
  1.20856293100E+01  1.33602642465E+01  1.38251645582E+01  1.33587154647E+01  1.20837551374E+01
  1.03004693944E+01  8.34653813514E+00  6.47590749696E+00  4.89325262195E+00  3.65775299933E+00
  2.74529716525E+00  2.10101279210E+00  1.16708801981E+00  1.10839560959E+00  1.16698934181E+00
  1.34812450152E+00  1.66601267452E+00  2.14161876097E+00  2.79968946209E+00  3.66159326620E+00
  4.72932854011E+00  5.96110723287E+00  7.24798921914E+00  8.41008822266E+00  9.23086240215E+00
  9.52834414199E+00  9.23093570197E+00  8.41008673031E+00  7.24782578799E+00  5.96094347076E+00
  4.72933254060E+00  3.66168422862E+00  2.79975250259E+00  2.14157904642E+00  1.66590714927E+00
  1.34814813005E+00  1.10839560959E+00  1.10849974097E+00  1.20937180783E+00  1.42167353476E+00
  1.76219718614E+00  2.24860560375E+00  2.89511800739E+00  3.70494826612E+00  4.65622480016E+00
  5.68488713948E+00  6.67528157047E+00  7.47206875712E+00  7.92010293713E+00  7.92055930524E+00
  7.47292266511E+00  6.67562078354E+00  5.68419664891E+00  4.65493914639E+00  3.70409931267E+00
  2.89534933510E+00  2.24950011207E+00  1.76291606199E+00  1.42187423093E+00  1.20921721405E+00
  1.16698934181E+00  1.20937180783E+00  1.34207393770E+00  1.57867044244E+00  1.93418718107E+00
  2.41983143355E+00  3.03873849985E+00  3.77877698062E+00  4.60121362858E+00  5.43095987672E+00
  6.15864606977E+00  6.66183984009E+00  6.84217176878E+00  6.66178076393E+00  6.15863044291E+00
  5.43096854493E+00  4.60120587966E+00  3.77880549024E+00  3.03881953401E+00  2.41990184606E+00
  1.93423325858E+00  1.57870534807E+00  1.34206824262E+00  1.20936541074E+00  1.34812450152E+00
  1.42167353476E+00  1.57867044244E+00  1.83207516858E+00  2.19193384942E+00  2.66177009524E+00
  3.23548612827E+00  3.89087853991E+00  4.58065755003E+00  5.22860018650E+00  5.73921115347E+00
  6.02212276387E+00  6.02189152135E+00  5.73862860010E+00  5.22802781997E+00  4.58079031495E+00
  3.89195630452E+00  3.23676361339E+00  2.66216273140E+00  2.19115501891E+00  1.83091526220E+00
  1.57812509360E+00  1.42189998824E+00  1.34835432294E+00  1.66601267452E+00  1.76219718614E+00
  1.93418718107E+00  2.19193384942E+00  2.53990719262E+00  2.97513383814E+00  3.48542310841E+00
  4.04376805013E+00  4.60115657848E+00  5.08649464310E+00  5.42047741175E+00  5.53989521784E+00
  5.42055976288E+00  5.08657399325E+00  4.60120747374E+00  4.04375180898E+00  3.48536210748E+00
  2.97512243089E+00  2.53992634583E+00  2.19191878100E+00  1.93413314767E+00  1.76213767913E+00
  1.66595262648E+00  1.63537813297E+00  2.14161876097E+00  2.24860560375E+00  2.41983143355E+00
  2.66177009524E+00  2.97513383814E+00  3.35343812602E+00  3.78161425744E+00  4.23141175216E+00
  4.65621493066E+00  4.99384879178E+00  5.18225905995E+00  5.18231403256E+00  4.99412129980E+00
  4.65671282864E+00  4.23156146195E+00  3.78091248183E+00  3.35218459286E+00  2.97433513686E+00
  2.66215615060E+00  2.42097309791E+00  2.24943064710E+00  2.14170728975E+00  2.09055459672E+00
  2.09065179323E+00  2.79968946209E+00  2.89511800739E+00  3.03873849985E+00  3.23548612827E+00
  3.48542310841E+00  3.78161425744E+00  4.10832302645E+00  4.43797576044E+00  4.72935428331E+00
  4.93293797154E+00  5.00637314689E+00  4.93279188965E+00  4.72914392538E+00  4.43779868009E+00
  4.10829913606E+00  3.78168519512E+00  3.48545295863E+00  3.23554070368E+00  3.03883506861E+00
  2.89523729208E+00  2.79982273647E+00  2.74598816202E+00  2.72859442666E+00  2.74587573113E+00
  3.66159326620E+00  3.70494826612E+00  3.77877698062E+00  3.89087853991E+00  4.04376805013E+00
  4.23141175216E+00  4.43797576044E+00  4.63839037533E+00  4.80064756305E+00  4.89242071603E+00
  4.89240530629E+00  4.80043412767E+00  4.63786567276E+00  4.43760944103E+00  4.23173720076E+00
  4.04486897093E+00  3.89191469726E+00  3.77883274652E+00  3.70410483754E+00  3.66053701719E+00
  3.63873453840E+00  3.63032013643E+00  3.63056530474E+00  3.63943708879E+00  4.72932854011E+00
  4.65622480016E+00  4.60121362858E+00  4.58065755003E+00  4.60115657848E+00  4.65621493066E+00
  4.72935428331E+00  4.80064756305E+00  4.85209101002E+00  4.87087047912E+00  4.85216825698E+00
  4.80073019947E+00  4.72945392884E+00  4.65631338616E+00  4.60122690221E+00  4.58066657554E+00
  4.60108038331E+00  4.65615960126E+00  4.72933987944E+00  4.80059585277E+00  4.85204955128E+00
  4.87088100672E+00  4.85219886962E+00  4.80069986725E+00  5.96110723287E+00  5.68488713948E+00
  5.43095987672E+00  5.22860018650E+00  5.08649464310E+00  4.99384879178E+00  4.93293797154E+00
  4.89242071603E+00  4.87087047912E+00  4.87084049417E+00  4.89245377447E+00  4.93319614948E+00
  4.99426225424E+00  5.08662140258E+00  5.22786869432E+00  5.42982268881E+00  5.68424340185E+00
  5.96148810057E+00  6.22037002673E+00  6.41995142796E+00  6.52832848923E+00  6.52783617190E+00
  6.41878857032E+00  6.21917214514E+00  7.24798921914E+00  6.67528157047E+00  6.15864606977E+00
  5.73921115347E+00  5.42047741175E+00  5.18225905995E+00  5.00637314689E+00  4.89240530629E+00
  4.85216825698E+00  4.89245377447E+00  5.00632071642E+00  5.18214795798E+00  5.42059493620E+00
  5.73922046550E+00  6.15848297748E+00  6.67512896201E+00  7.24794632600E+00  7.80623887326E+00
  8.27079028510E+00  8.57661405400E+00  8.66693300828E+00  8.57664190155E+00  8.27054212034E+00
  7.80589338881E+00  8.41008822266E+00  7.47206875712E+00  6.66183984009E+00  6.02212276387E+00
  5.53989521784E+00  5.18231403256E+00  4.93279188965E+00  4.80043412767E+00  4.80073019947E+00
  4.93319614948E+00  5.18214795798E+00  5.53948307817E+00  6.02192399834E+00  6.66223519322E+00
  7.47299219013E+00  8.41095513256E+00  9.37161720959E+00  1.01979689577E+01  1.08227840127E+01
  1.11609160320E+01  1.11617510507E+01  1.08245601961E+01  1.01991496947E+01  9.37145706172E+00
  9.23086240215E+00  7.92010293713E+00  6.84217176878E+00  6.02189152135E+00  5.42055976287E+00
  4.99412129980E+00  4.72914392538E+00  4.63786567276E+00  4.72945392884E+00  4.99426225424E+00
  5.42059493620E+00  6.02192399834E+00  6.84228411270E+00  7.92022374789E+00  9.23097173717E+00
  1.06306298799E+01  1.19607102373E+01  1.30773282282E+01  1.38293190789E+01  1.40962031719E+01
  1.38295559739E+01  1.30773541905E+01  1.19606661027E+01  1.06306352046E+01  9.52834414199E+00
  7.92055930524E+00  6.66178076393E+00  5.73862860010E+00  5.08657399325E+00  4.65671282864E+00
  4.43779868009E+00  4.43760944103E+00  4.65631338616E+00  5.08662140258E+00  5.73922046550E+00
  6.66223519322E+00  7.92022374789E+00  9.52726086757E+00  1.13483673620E+01  1.32198086893E+01
  1.49492265053E+01  1.63101091643E+01  1.70804496448E+01  1.70801137816E+01  1.63092044211E+01
  1.49479438387E+01  1.32193924356E+01  1.13492924354E+01  9.23093570197E+00  7.47292266511E+00
  6.15863044291E+00  5.22802781997E+00  4.60120747374E+00  4.23156146195E+00  4.10829913606E+00
  4.23173720076E+00  4.60122690221E+00  5.22786869432E+00  6.15848297748E+00  7.47299219013E+00
  9.23097173717E+00  1.13483673620E+01  1.36791300010E+01  1.60246784347E+01  1.81342468025E+01
  1.97387299784E+01  2.03826389730E+01  1.97389227851E+01  1.81343097394E+01  1.60245466444E+01
  1.36791035773E+01  1.13485228343E+01  8.41008673031E+00  6.67562078354E+00  5.43096854493E+00
  4.58079031495E+00  4.04375180898E+00  3.78091248183E+00  3.78168519512E+00  4.04486897093E+00
  4.58066657554E+00  5.42982268881E+00  6.67512896201E+00  8.41095513256E+00  1.06306298799E+01
  1.32198086893E+01  1.60246784347E+01  1.88213762616E+01  2.14792927892E+01  2.34721858310E+01
  2.34725146956E+01  2.14802028525E+01  1.88223845677E+01  1.60253558050E+01  1.32195257386E+01
  1.06294141103E+01  7.24782578799E+00  5.68419664891E+00  4.60120587966E+00  3.89195630452E+00
  3.48536210748E+00  3.35218459286E+00  3.48545295863E+00  3.89191469726E+00  4.60108038331E+00
  5.68424340185E+00  7.24794632600E+00  9.37161720959E+00  1.19607102373E+01  1.49492265053E+01
  1.81342468025E+01  2.14792927892E+01  2.49511329564E+01  2.67593184384E+01  2.49513311260E+01
  2.14793280403E+01  1.81338869666E+01  1.49492503229E+01  1.19608390826E+01  9.37157674939E+00
  5.96094347076E+00  4.65493914639E+00  3.77880549024E+00  3.23676361339E+00  2.97512243089E+00
  2.97433513686E+00  3.23554070368E+00  3.77883274652E+00  4.65615960126E+00  5.96148810057E+00
  7.80623887326E+00  1.01979689577E+01  1.30773282282E+01  1.63101091643E+01  1.97387299784E+01
  2.34721858310E+01  2.67593184384E+01  2.67597640021E+01  2.34726233605E+01  1.97377901907E+01
  1.63087917289E+01  1.30773864185E+01  1.01993192557E+01  7.80735825194E+00  4.72933254060E+00
  3.70409931267E+00  3.03881953401E+00  2.66216273140E+00  2.53992634583E+00  2.66215615060E+00
  3.03883506861E+00  3.70410483754E+00  4.72933987944E+00  6.22037002673E+00  8.27079028510E+00
  1.08227840127E+01  1.38293190789E+01  1.70804496448E+01  2.03826389730E+01  2.34725146956E+01
  2.49513311260E+01  2.34726233605E+01  2.03827083759E+01  1.70805201268E+01  1.38295896467E+01
  1.08227562413E+01  8.27074043432E+00  6.22035398638E+00  3.66168422862E+00  2.89534933510E+00
  2.41990184606E+00  2.19115501891E+00  2.19191878100E+00  2.42097309791E+00  2.89523729208E+00
  3.66053701719E+00  4.80059585277E+00  6.41995142796E+00  8.57661405400E+00  1.11609160320E+01
  1.40962031719E+01  1.70801137816E+01  1.97389227851E+01  2.14802028525E+01  2.14793280403E+01
  1.97377901907E+01  1.70805201268E+01  1.40981543896E+01  1.11616896099E+01  8.57537364987E+00
  6.41863954216E+00  4.80073853686E+00  2.79975250259E+00  2.24950011207E+00  1.93423325858E+00
  1.83091526220E+00  1.93413314767E+00  2.24943064710E+00  2.79982273647E+00  3.63873453840E+00
  4.85204955128E+00  6.52832848923E+00  8.66693300828E+00  1.11617510507E+01  1.38295559739E+01
  1.63092044211E+01  1.81343097394E+01  1.88223845677E+01  1.81338869666E+01  1.63087917289E+01
  1.38295896467E+01  1.11616896099E+01  8.66680009281E+00  6.52840835388E+00  4.85201082197E+00
  3.63871656981E+00  2.14157904642E+00  1.76291606199E+00  1.57870534807E+00  1.57812509360E+00
  1.76213767913E+00  2.14170728975E+00  2.74598816202E+00  3.63032013643E+00  4.87088100672E+00
  6.52783617190E+00  8.57664190155E+00  1.08245601961E+01  1.30773541905E+01  1.49479438387E+01
  1.60245466444E+01  1.60253558050E+01  1.49492503229E+01  1.30773864185E+01  1.08227562413E+01
  8.57537364987E+00  6.52840835388E+00  4.87204791094E+00  3.63063412968E+00  2.74531045225E+00
  1.66590714927E+00  1.42187423093E+00  1.34206824262E+00  1.42189998824E+00  1.66595262648E+00
  2.09055459672E+00  2.72859442666E+00  3.63056530474E+00  4.85219886962E+00  6.41878857032E+00
  8.27054212034E+00  1.01991496947E+01  1.19606661027E+01  1.32193924356E+01  1.36791035773E+01
  1.32195257386E+01  1.19608390826E+01  1.01993192557E+01  8.27074043432E+00  6.41863954216E+00
  4.85201082197E+00  3.63063412968E+00  2.72869084167E+00  2.09058513514E+00  1.34814813005E+00
  1.20921721405E+00  1.20936541074E+00  1.34835432294E+00  1.63537813297E+00  2.09065179323E+00
  2.74587573113E+00  3.63943708879E+00  4.80069986725E+00  6.21917214514E+00  7.80589338881E+00
  9.37145706172E+00  1.06306352046E+01  1.13492924354E+01  1.13485228343E+01  1.06294141103E+01
  9.37157674939E+00  7.80735825194E+00  6.22035398638E+00  4.80073853686E+00  3.63871656981E+00
  2.74531045225E+00  2.09058513514E+00  1.63534772766E+00  1.04707525632E+00  1.04706405482E+00
  1.14430880969E+00  1.34807814541E+00  1.67344808545E+00  2.13722608860E+00  2.75374918499E+00
  3.52720832210E+00  4.43793591824E+00  5.42571976316E+00  6.37979050356E+00  7.14933989698E+00
  7.58249844178E+00  7.58242033200E+00  7.14931915038E+00  6.38004898639E+00  5.42613873059E+00
  4.43811977003E+00  3.52693967303E+00  2.75336477201E+00  2.13701415428E+00  1.67340923402E+00
  1.34812127855E+00  1.14433982146E+00  1.04706405482E+00  1.08650468344E+00  1.20937044609E+00
  1.42788454764E+00  1.75618253480E+00  2.20544741232E+00  2.77936186709E+00  3.46679420245E+00
  4.23143457826E+00  5.00334369747E+00  5.68092515664E+00  6.15008585328E+00  6.31853405682E+00
  6.15044388242E+00  5.68121805917E+00  5.00313473058E+00  4.23067443138E+00  3.46599047001E+00
  2.77921068454E+00  2.20598586631E+00  1.75687854293E+00  1.42820890429E+00  1.20922544995E+00
  1.08625561247E+00  1.14430880969E+00  1.20937044609E+00  1.34794796304E+00  1.57239415317E+00
  1.89334563307E+00  2.31544115232E+00  2.83308288362E+00  3.42423963532E+00  4.04382186373E+00
  4.62240790925E+00  5.07589677189E+00  5.32629902482E+00  5.32629688183E+00  5.07586078950E+00
  4.62235395261E+00  4.04374210495E+00  3.42419915872E+00  2.83316279089E+00  2.31555188532E+00
  1.89344333899E+00  1.57243771002E+00  1.34793770519E+00  1.20936271454E+00  1.14430717759E+00
  1.34807814541E+00  1.42788454764E+00  1.57239415317E+00  1.79197857702E+00  2.09267286923E+00
  2.47303303337E+00  2.92093728437E+00  3.40893851169E+00  3.89085272981E+00  4.30497369916E+00
  4.58665830283E+00  4.68653844645E+00  4.58625867479E+00  4.30459869131E+00  3.89097870874E+00
  3.40969817406E+00  2.92184450667E+00  2.47335241596E+00  2.09220589724E+00  1.79114847609E+00
  1.57187308458E+00  1.42793776935E+00  1.34833415914E+00  1.32300617389E+00  1.67344808545E+00
  1.75618253480E+00  1.89334563307E+00  2.09267286923E+00  2.35611654087E+00  2.67804580299E+00
  3.04332884247E+00  3.42417828322E+00  3.77870862282E+00  4.05607659358E+00  4.20907273621E+00
  4.20908579991E+00  4.05612098842E+00  3.77874962476E+00  3.42423827840E+00  3.04336889308E+00
  2.67801991735E+00  2.35606297628E+00  2.09258860509E+00  1.89329141233E+00  1.75615414189E+00
  1.67340785761E+00  1.63538331537E+00  1.63540305933E+00  2.13722608860E+00  2.20544741232E+00
  2.31544115232E+00  2.47303303337E+00  2.67804580299E+00  2.92351350474E+00  3.19466698812E+00
  3.46678740125E+00  3.70494788372E+00  3.86973208483E+00  3.92900072152E+00  3.87014887713E+00
  3.70536483213E+00  3.46673369189E+00  3.19397440383E+00  2.92258374575E+00  2.67754392590E+00
  2.47329339063E+00  2.31625111119E+00  2.20613233940E+00  2.13737788730E+00  2.10149145039E+00
  2.09068323763E+00  2.10162710355E+00  2.75374918499E+00  2.77936186709E+00  2.83308288362E+00
  2.92093728437E+00  3.04332884247E+00  3.19466698812E+00  3.36265897716E+00  3.52726046870E+00
  3.66162400210E+00  3.73804338299E+00  3.73820155314E+00  3.66177754364E+00  3.52698688104E+00
  3.36203602558E+00  3.19423960330E+00  3.04337896059E+00  2.92127111743E+00  2.83340711102E+00
  2.77952476891E+00  2.75387718270E+00  2.74631511219E+00  2.74596277203E+00  2.74589259433E+00
  2.74616593375E+00  3.52720832210E+00  3.46679420245E+00  3.42423963532E+00  3.40893851169E+00
  3.42417828322E+00  3.46678740125E+00  3.52726046870E+00  3.59070937296E+00  3.63939691179E+00
  3.65784139366E+00  3.63939965298E+00  3.59016719170E+00  3.52622499150E+00  3.46631403119E+00
  3.42499088426E+00  3.41033141039E+00  3.42495185476E+00  3.46634174399E+00  3.52630931490E+00
  3.59018698630E+00  3.63935158238E+00  3.65784062326E+00  3.63944958209E+00  3.59070861536E+00
  4.43793591824E+00  4.23143457826E+00  4.04382186373E+00  3.89085272981E+00  3.77870862282E+00
  3.70494788372E+00  3.66162400210E+00  3.63939691179E+00  3.63051112724E+00  3.63037894363E+00
  3.63886405930E+00  3.66060058069E+00  3.70410937314E+00  3.77886811482E+00  3.89193639546E+00
  4.04477347893E+00  4.23158236826E+00  4.43753351093E+00  4.63785675896E+00  4.80039761937E+00
  4.89237896569E+00  4.89249669543E+00  4.80075972325E+00  4.63840813073E+00  5.42571976316E+00
  5.00334369747E+00  4.62240790925E+00  4.30497369916E+00  4.05607659358E+00  3.86973208483E+00
  3.73804338299E+00  3.65784139366E+00  3.63037894363E+00  3.65705129199E+00  3.73681279794E+00
  3.86884660066E+00  4.05618979990E+00  4.30582570526E+00  4.62306154390E+00  5.00319537088E+00
  5.42534969856E+00  5.84933088731E+00  6.21959056852E+00  6.47505122797E+00  6.56638621268E+00
  6.47469883168E+00  6.21926502314E+00  5.84939144649E+00  6.37979050356E+00  5.68092515664E+00
  5.07589677189E+00  4.58665830283E+00  4.20907273621E+00  3.92900072152E+00  3.73820155314E+00
  3.63939965298E+00  3.63886405930E+00  3.73681279794E+00  3.92767989229E+00  4.20899977098E+00
  4.58801349012E+00  5.07754861771E+00  5.68132099442E+00  6.37874205936E+00  7.11565593277E+00
  7.80572817989E+00  8.34619761462E+00  8.64401680315E+00  8.64374207988E+00  8.34574282224E+00
  7.80593998051E+00  7.11680072330E+00  7.14933989698E+00  6.15008585328E+00  5.32629902482E+00
  4.68653844645E+00  4.20908579991E+00  3.87014887713E+00  3.66177754364E+00  3.59016719170E+00
  3.66060058069E+00  3.86884660066E+00  4.20899977098E+00  4.68797540286E+00  5.32832104063E+00
  6.15116689160E+00  7.14873057642E+00  8.26125493230E+00  9.37031852701E+00  1.03003267932E+01
  1.09399837890E+01  1.11685063429E+01  1.09406345530E+01  1.03013408990E+01  9.37142782332E+00
  8.26254189373E+00  7.58249844178E+00  6.31853405682E+00  5.32629688183E+00  4.58625867479E+00
  4.05612098842E+00  3.70536483213E+00  3.52698688104E+00  3.52622499150E+00  3.70410937314E+00
  4.05618979990E+00  4.58801349012E+00  5.32832104063E+00  6.31910750644E+00  7.58125685731E+00
  9.07041411418E+00  1.06299942813E+01  1.20853202517E+01  1.32371385163E+01  1.38805522149E+01
  1.38807842423E+01  1.32375297774E+01  1.20856332030E+01  1.06305697926E+01  9.07181921877E+00
  7.58242033200E+00  6.15044388242E+00  5.07586078950E+00  4.30459869131E+00  3.77874962476E+00
  3.46673369189E+00  3.36203602558E+00  3.46631403119E+00  3.77886811482E+00  4.30582570526E+00
  5.07754861771E+00  6.15116689160E+00  7.58125685731E+00  9.36277306678E+00  1.13481427069E+01
  1.33604925124E+01  1.51482077087E+01  1.64022610081E+01  1.68566423799E+01  1.64015792587E+01
  1.51472906988E+01  1.33602401505E+01  1.13492060864E+01  9.36475755103E+00  7.14931915038E+00
  5.68121805917E+00  4.62235395261E+00  3.89097870874E+00  3.42423827840E+00  3.19397440383E+00
  3.19423960330E+00  3.42499088426E+00  3.89193639546E+00  4.62306154390E+00  5.68132099442E+00
  7.14873057642E+00  9.07041411418E+00  1.13481427069E+01  1.38250323312E+01  1.62447744172E+01
  1.82322611747E+01  1.93804541601E+01  1.93806504588E+01  1.82325044630E+01  1.62449508716E+01
  1.38250410522E+01  1.13483957963E+01  9.07124214738E+00  6.38004898639E+00  5.00313473058E+00
  4.04374210495E+00  3.40969817406E+00  3.04336889308E+00  2.92258374575E+00  3.04337896059E+00
  3.41033141039E+00  4.04477347893E+00  5.00319537088E+00  6.37874205936E+00  8.26125493230E+00
  1.06299942813E+01  1.33604925124E+01  1.62447744172E+01  1.89078817096E+01  2.08764803798E+01
  2.16268584452E+01  2.08789663854E+01  1.89095930379E+01  1.62441109163E+01  1.33584851207E+01
  1.06292787593E+01  8.26261616365E+00  5.42613873059E+00  4.23067443138E+00  3.42419915872E+00
  2.92184450667E+00  2.67801991735E+00  2.67754392590E+00  2.92127111743E+00  3.42495185476E+00
  4.23158236826E+00  5.42534969856E+00  7.11565593277E+00  9.37031852701E+00  1.20853202517E+01
  1.51482077087E+01  1.82322611747E+01  2.08764803798E+01  2.24940873068E+01  2.24952394905E+01
  2.08779392644E+01  1.82313110396E+01  1.51455585051E+01  1.20835511884E+01  9.37151195019E+00
  7.11807292665E+00  4.43811977003E+00  3.46599047001E+00  2.83316279089E+00  2.47335241596E+00
  2.35606297628E+00  2.47329339063E+00  2.83340711102E+00  3.46634174399E+00  4.43753351093E+00
  5.84933088731E+00  7.80572817989E+00  1.03003267932E+01  1.32371385163E+01  1.64022610081E+01
  1.93804541601E+01  2.16268584452E+01  2.24952394905E+01  2.16257187847E+01  1.93785537668E+01
  1.64003285674E+01  1.32358090112E+01  1.03003858634E+01  7.80738320164E+00  5.85090680643E+00
  3.52693967303E+00  2.77921068454E+00  2.31555188532E+00  2.09220589724E+00  2.09258860509E+00
  2.31625111119E+00  2.77952476891E+00  3.52630931490E+00  4.63785675896E+00  6.21959056852E+00
  8.34619761462E+00  1.09399837890E+01  1.38805522149E+01  1.68566423799E+01  1.93806504588E+01
  2.08789663854E+01  2.08779392644E+01  1.93785537668E+01  1.68554097439E+01  1.38802424859E+01
  1.09398112749E+01  8.34652541404E+00  6.22041631688E+00  4.63895678356E+00  2.75336477201E+00
  2.20598586631E+00  1.89344333899E+00  1.79114847609E+00  1.89329141233E+00  2.20613233940E+00
  2.75387718270E+00  3.59018698630E+00  4.80039761937E+00  6.47505122797E+00  8.64401680315E+00
  1.11685063429E+01  1.38807842423E+01  1.64015792587E+01  1.82325044630E+01  1.89095930379E+01
  1.82313110396E+01  1.64003285674E+01  1.38802424859E+01  1.11684474274E+01  8.64480935478E+00
  6.47592220296E+00  4.80080937016E+00  3.58994789170E+00  2.13701415428E+00  1.75687854293E+00
  1.57243771002E+00  1.57187308458E+00  1.75615414189E+00  2.13737788730E+00  2.74631511219E+00
  3.63935158238E+00  4.89237896569E+00  6.56638621268E+00  8.64374207988E+00  1.09406345530E+01
  1.32375297774E+01  1.51472906988E+01  1.62449508716E+01  1.62441109163E+01  1.51455585051E+01
  1.32358090112E+01  1.09398112749E+01  8.64480935478E+00  6.56818045900E+00  4.89334121065E+00
  3.63880473031E+00  2.74501472828E+00  1.67340923402E+00  1.42820890429E+00  1.34793770519E+00
  1.42793776935E+00  1.67340785761E+00  2.10149145039E+00  2.74596277203E+00  3.65784062326E+00
  4.89249669543E+00  6.47469883168E+00  8.34574282224E+00  1.03013408990E+01  1.20856332030E+01
  1.33602401505E+01  1.38250410522E+01  1.33584851207E+01  1.20835511884E+01  1.03003858634E+01
  8.34652541404E+00  6.47592220296E+00  4.89334121065E+00  3.65790408323E+00  2.74538615815E+00
  2.10098848060E+00  1.34812127855E+00  1.20922544995E+00  1.20936271454E+00  1.34833415914E+00
  1.63538331537E+00  2.09068323763E+00  2.74589259433E+00  3.63944958209E+00  4.80075972325E+00
  6.21926502314E+00  7.80593998051E+00  9.37142782332E+00  1.06305697926E+01  1.13492060864E+01
  1.13483957963E+01  1.06292787593E+01  9.37151195019E+00  7.80738320164E+00  6.22041631688E+00
  4.80080937016E+00  3.63880473031E+00  2.74538615815E+00  2.09059294624E+00  1.63530228856E+00
  1.14433982146E+00  1.08625561247E+00  1.14430717759E+00  1.32300617389E+00  1.63540305933E+00
  2.10162710355E+00  2.74616593375E+00  3.59070861536E+00  4.63840813073E+00  5.84939144649E+00
  7.11680072330E+00  8.26254189373E+00  9.07181921877E+00  9.36475755103E+00  9.07124214738E+00
  8.26261616365E+00  7.11807292665E+00  5.85090680643E+00  4.63895678356E+00  3.58994789170E+00
  2.74501472828E+00  2.10098848060E+00  1.63530228856E+00  1.32308520065E+00
