qvasp                                   
   1.00000000000000     
     0.000000    1.783400    1.783400
     1.783400    0.000000    1.783400
     1.783400    1.783400    0.000000
   C 
     2
Direct
  0.750000  0.750000  0.750000
  0.500000  0.500000  0.500000
 
   24   24   24
 0.10084823570E+01 0.10469594021E+01 0.11669631617E+01 0.13797616999E+01 0.16987812076E+01
 0.21352173810E+01 0.26932637312E+01 0.33625987800E+01 0.41082656134E+01 0.48624279867E+01
 0.55257823512E+01 0.59858275395E+01 0.61509690420E+01 0.59857113743E+01 0.55256971520E+01
 0.48624639398E+01 0.41083477038E+01 0.33626042990E+01 0.26931666912E+01 0.21350844188E+01
 0.16986886274E+01 0.13797493500E+01 0.11670195534E+01 0.10470210208E+01 0.10469594021E+01
 0.11082703297E+01 0.12385174077E+01 0.14489508116E+01 0.17499581504E+01 0.21469399260E+01
 0.26354397405E+01 0.31946791340E+01 0.37816452777E+01 0.43304225964E+01 0.47611903251E+01
 0.49994545403E+01 0.49995450950E+01 0.47612484290E+01 0.43301202094E+01 0.37810533852E+01
 0.31942696859E+01 0.26355383941E+01 0.21473475345E+01 0.17502417826E+01 0.14489809018E+01
 0.12385132246E+01 0.11083739579E+01 0.10470351346E+01 0.11669631617E+01 0.12385174077E+01
 0.13677292232E+01 0.15647385568E+01 0.18366712806E+01 0.21836940177E+01 0.25947902615E+01
 0.30433811563E+01 0.34854688873E+01 0.38640304845E+01 0.41207767237E+01 0.42118016457E+01
 0.41207685603E+01 0.38640161916E+01 0.34854419954E+01 0.30433371273E+01 0.25947527742E+01
 0.21837087810E+01 0.18367561153E+01 0.15648500846E+01 0.13677984658E+01 0.12385193917E+01
 0.11669380363E+01 0.11442606404E+01 0.13797616999E+01 0.14489508116E+01 0.15647385568E+01
 0.17358444070E+01 0.19664804636E+01 0.22528632687E+01 0.25802444508E+01 0.29209313622E+01
 0.32354564713E+01 0.34789998933E+01 0.36121784141E+01 0.36120704745E+01 0.34788647102E+01
 0.32356231354E+01 0.29214388305E+01 0.25807375354E+01 0.22529575269E+01 0.19661642530E+01
 0.17354427332E+01 0.15645300953E+01 0.14489389593E+01 0.13798065860E+01 0.13480502106E+01
 0.13480312047E+01 0.16987812076E+01 0.17499581504E+01 0.18366712806E+01 0.19664804636E+01
 0.21414741524E+01 0.23559407185E+01 0.25947609629E+01 0.28330419281E+01 0.30386849749E+01
 0.31788449447E+01 0.32286879118E+01 0.31789192882E+01 0.30387808503E+01 0.28331348557E+01
 0.25948630363E+01 0.23560241108E+01 0.21414660232E+01 0.19663592685E+01 0.18365080199E+01
 0.17498366705E+01 0.16987226165E+01 0.16734221286E+01 0.16660029928E+01 0.16734415015E+01
 0.21352173810E+01 0.21469399260E+01 0.21836940177E+01 0.22528632687E+01 0.23559407185E+01
 0.24876848874E+01 0.26354557527E+01 0.27793783995E+01 0.28951339417E+01 0.29599841442E+01
 0.29600396650E+01 0.28952429839E+01 0.27794029613E+01 0.26352729779E+01 0.24873136529E+01
 0.23556049687E+01 0.22528524367E+01 0.21840563942E+01 0.21473529987E+01 0.21353028279E+01
 0.21370144376E+01 0.21415005476E+01 0.21416550744E+01 0.21372417119E+01 0.26932637312E+01
 0.26354397405E+01 0.25947902615E+01 0.25802444508E+01 0.25947609629E+01 0.26354557527E+01
 0.26933341668E+01 0.27538088102E+01 0.27997187474E+01 0.28168693644E+01 0.27997026669E+01
 0.27537626775E+01 0.26932810006E+01 0.26354190533E+01 0.25947034976E+01 0.25801470323E+01
 0.25947493945E+01 0.26355558654E+01 0.26934671519E+01 0.27538822332E+01 0.27997217255E+01
 0.28168539923E+01 0.27996980237E+01 0.27537523577E+01 0.33625987800E+01 0.31946791340E+01
 0.30433811563E+01 0.29209313622E+01 0.28330419281E+01 0.27793783995E+01 0.27538088102E+01
 0.27461637499E+01 0.27458277394E+01 0.27459063478E+01 0.27462424356E+01 0.27537353647E+01
 0.27793663088E+01 0.28333586018E+01 0.29213869315E+01 0.30434956025E+01 0.31943245990E+01
 0.33621701829E+01 0.35271029311E+01 0.36617737804E+01 0.37380839640E+01 0.37379525624E+01
 0.36615784737E+01 0.35271989696E+01 0.41082656134E+01 0.37816452777E+01 0.34854688873E+01
 0.32354564713E+01 0.30386849749E+01 0.28951339417E+01 0.27997187474E+01 0.27458277394E+01
 0.27285225635E+01 0.27459696149E+01 0.27998314403E+01 0.28951570442E+01 0.30387287685E+01
 0.32355710108E+01 0.34855680360E+01 0.37816757549E+01 0.41082504535E+01 0.44378158834E+01
 0.47290956590E+01 0.49326154180E+01 0.50061530597E+01 0.49328131507E+01 0.47292974578E+01
 0.44379043545E+01 0.48624279867E+01 0.43304225964E+01 0.38640304845E+01 0.34789998933E+01
 0.31788449447E+01 0.29599841442E+01 0.28168693644E+01 0.27459063478E+01 0.27459696149E+01
 0.28169972345E+01 0.29600715713E+01 0.31788236293E+01 0.34788137745E+01 0.38637087522E+01
 0.43302100481E+01 0.48625888488E+01 0.54259767170E+01 0.59610904605E+01 0.63884373173E+01
 0.66278927444E+01 0.66280189130E+01 0.63885596895E+01 0.59608704246E+01 0.54255668202E+01
 0.55257823512E+01 0.47611903251E+01 0.41207767237E+01 0.36121784141E+01 0.32286879118E+01
 0.29600396650E+01 0.27997026669E+01 0.27462424356E+01 0.27998314403E+01 0.29600715713E+01
 0.32285673468E+01 0.36120755699E+01 0.41207419838E+01 0.47610979721E+01 0.55256445080E+01
 0.63794071838E+01 0.72473601474E+01 0.80142489557E+01 0.85474518681E+01 0.87390914041E+01
 0.85474045423E+01 0.80140918552E+01 0.72471903568E+01 0.63794064951E+01 0.59858275395E+01
 0.49994545403E+01 0.42118016457E+01 0.36120704745E+01 0.31789192882E+01 0.28952429839E+01
 0.27537626775E+01 0.27537353647E+01 0.28951570442E+01 0.31788236293E+01 0.36120755699E+01
 0.42119259286E+01 0.49995829769E+01 0.59858945490E+01 0.71487696568E+01 0.84084769594E+01
 0.96175789246E+01 0.10583444777E+02 0.11122585904E+02 0.11122778131E+02 0.10583813835E+02
 0.96177947549E+01 0.84084885564E+01 0.71487215262E+01 0.61509690420E+01 0.49995450950E+01
 0.41207685603E+01 0.34788647102E+01 0.30387808503E+01 0.27794029613E+01 0.26932810006E+01
 0.27793663088E+01 0.30387287685E+01 0.34788137745E+01 0.41207419838E+01 0.49995829769E+01
 0.61510683618E+01 0.75818477816E+01 0.92285027461E+01 0.10928431427E+02 0.12435724339E+02
 0.13486128891E+02 0.13864280160E+02 0.13486101966E+02 0.12435743747E+02 0.10928498787E+02
 0.92285224413E+01 0.75817721162E+01 0.59857113743E+01 0.47612484290E+01 0.38640161916E+01
 0.32356231354E+01 0.28331348557E+01 0.26352729779E+01 0.26354190533E+01 0.28333586018E+01
 0.32355710108E+01 0.38637087522E+01 0.47610979721E+01 0.59858945490E+01 0.75818477816E+01
 0.95252766365E+01 0.11670759042E+02 0.13751555479E+02 0.15432757386E+02 0.16378239201E+02
 0.16377648869E+02 0.15431709364E+02 0.13751212428E+02 0.11671214464E+02 0.95256891306E+01
 0.75817635058E+01 0.55256971520E+01 0.43301202094E+01 0.34854419954E+01 0.29214388305E+01
 0.25948630363E+01 0.24873136529E+01 0.25947034976E+01 0.29213869315E+01 0.34855680360E+01
 0.43302100481E+01 0.55256445080E+01 0.71487696568E+01 0.92285027461E+01 0.11670759042E+02
 0.14229485156E+02 0.16540741910E+02 0.18167804627E+02 0.18755289300E+02 0.18167652760E+02
 0.16540673265E+02 0.14229575335E+02 0.11670859064E+02 0.92285543780E+01 0.71488465788E+01
 0.48624639398E+01 0.37810533852E+01 0.30433371273E+01 0.25807375354E+01 0.23560241108E+01
 0.23556049687E+01 0.25801470323E+01 0.30434956025E+01 0.37816757549E+01 0.48625888488E+01
 0.63794071838E+01 0.84084769594E+01 0.10928431427E+02 0.13751555479E+02 0.16540741910E+02
 0.18817082603E+02 0.20102628788E+02 0.20103231204E+02 0.18818221751E+02 0.16541201838E+02
 0.13751014688E+02 0.10927781521E+02 0.84085513639E+01 0.63798351328E+01 0.41083477038E+01
 0.31942696859E+01 0.25947527742E+01 0.22529575269E+01 0.21414660232E+01 0.22528524367E+01
 0.25947493945E+01 0.31943245990E+01 0.41082504535E+01 0.54259767170E+01 0.72473601474E+01
 0.96175789246E+01 0.12435724339E+02 0.15432757386E+02 0.18167804627E+02 0.20102628788E+02
 0.20802442142E+02 0.20102349354E+02 0.18167661641E+02 0.15432819365E+02 0.12435636724E+02
 0.96172849732E+01 0.72472222033E+01 0.54261057779E+01 0.33626042990E+01 0.26355383941E+01
 0.21837087810E+01 0.19661642530E+01 0.19663592685E+01 0.21840563942E+01 0.26355558654E+01
 0.33621701829E+01 0.44378158834E+01 0.59610904605E+01 0.80142489557E+01 0.10583444777E+02
 0.13486128891E+02 0.16378239201E+02 0.18755289300E+02 0.20103231204E+02 0.20102349354E+02
 0.18753790040E+02 0.16377861414E+02 0.13486811400E+02 0.10583843996E+02 0.80139252052E+01
 0.59608448436E+01 0.44381493390E+01 0.26931666912E+01 0.21473475345E+01 0.18367561153E+01
 0.17354427332E+01 0.18365080199E+01 0.21473529987E+01 0.26934671519E+01 0.35271029311E+01
 0.47290956590E+01 0.63884373173E+01 0.85474518681E+01 0.11122585904E+02 0.13864280160E+02
 0.16377648869E+02 0.18167652760E+02 0.18818221751E+02 0.18167661641E+02 0.16377861414E+02
 0.13864555853E+02 0.11122600431E+02 0.85473345054E+01 0.63885618954E+01 0.47293285706E+01
 0.35270104769E+01 0.21350844188E+01 0.17502417826E+01 0.15648500846E+01 0.15645300953E+01
 0.17498366705E+01 0.21353028279E+01 0.27538822332E+01 0.36617737804E+01 0.49326154180E+01
 0.66278927444E+01 0.87390914041E+01 0.11122778131E+02 0.13486101966E+02 0.15431709364E+02
 0.16540673265E+02 0.16541201838E+02 0.15432819365E+02 0.13486811400E+02 0.11122600431E+02
 0.87385676498E+01 0.66278335673E+01 0.49329473661E+01 0.36617445239E+01 0.27533763682E+01
 0.16986886274E+01 0.14489809018E+01 0.13677984658E+01 0.14489389593E+01 0.16987226165E+01
 0.21370144376E+01 0.27997217255E+01 0.37380839640E+01 0.50061530597E+01 0.66280189130E+01
 0.85474045423E+01 0.10583813835E+02 0.12435743747E+02 0.13751212428E+02 0.14229575335E+02
 0.13751014688E+02 0.12435636724E+02 0.10583843996E+02 0.85473345054E+01 0.66278335673E+01
 0.50061189759E+01 0.37382542872E+01 0.27998407170E+01 0.21369738590E+01 0.13797493500E+01
 0.12385132246E+01 0.12385193917E+01 0.13798065860E+01 0.16734221286E+01 0.21415005476E+01
 0.28168539923E+01 0.37379525624E+01 0.49328131507E+01 0.63885596895E+01 0.80140918552E+01
 0.96177947549E+01 0.10928498787E+02 0.11671214464E+02 0.11670859064E+02 0.10927781521E+02
 0.96172849732E+01 0.80139252052E+01 0.63885618954E+01 0.49329473661E+01 0.37382542872E+01
 0.28171528077E+01 0.21415855837E+01 0.16733457303E+01 0.11670195534E+01 0.11083739579E+01
 0.11669380363E+01 0.13480502106E+01 0.16660029928E+01 0.21416550744E+01 0.27996980237E+01
 0.36615784737E+01 0.47292974578E+01 0.59608704246E+01 0.72471903568E+01 0.84084885564E+01
 0.92285224413E+01 0.95256891306E+01 0.92285543780E+01 0.84085513639E+01 0.72472222033E+01
 0.59608448436E+01 0.47293285706E+01 0.36617445239E+01 0.27998407170E+01 0.21415855837E+01
 0.16658245228E+01 0.13480071107E+01 0.10470210208E+01 0.10470351346E+01 0.11442606404E+01
 0.13480312047E+01 0.16734415015E+01 0.21372417119E+01 0.27537523577E+01 0.35271989696E+01
 0.44379043545E+01 0.54255668202E+01 0.63794064951E+01 0.71487215262E+01 0.75817721162E+01
 0.75817635058E+01 0.71488465788E+01 0.63798351328E+01 0.54261057779E+01 0.44381493390E+01
 0.35270104769E+01 0.27533763682E+01 0.21369738590E+01 0.16733457303E+01 0.13480071107E+01
 0.11442368463E+01 0.10469976289E+01 0.11082988230E+01 0.12385180709E+01 0.14489501868E+01
 0.17499750567E+01 0.21469500191E+01 0.26354199074E+01 0.31946425455E+01 0.37816059070E+01
 0.43303730426E+01 0.47611435788E+01 0.49994580654E+01 0.49996195709E+01 0.47613552640E+01
 0.43302169005E+01 0.37811340763E+01 0.31943251789E+01 0.26355317176E+01 0.21472679304E+01
 0.17501379039E+01 0.14489045138E+01 0.12384694466E+01 0.11083534438E+01 0.10470465972E+01
 0.11082988230E+01 0.11773405178E+01 0.13018928644E+01 0.14915854161E+01 0.17536751924E+01
 0.20890941554E+01 0.24876848640E+01 0.29235398060E+01 0.33534819923E+01 0.37218136029E+01
 0.39717778684E+01 0.40604993272E+01 0.39718165751E+01 0.37216073942E+01 0.33529758795E+01
 0.29231282113E+01 0.24877520008E+01 0.20895054151E+01 0.17539529905E+01 0.14915276816E+01
 0.13017705786E+01 0.11774378498E+01 0.11084978679E+01 0.10864981196E+01 0.12385180709E+01
 0.13018928644E+01 0.14078211336E+01 0.15650732768E+01 0.17789729573E+01 0.20472026812E+01
 0.23559662029E+01 0.26780895201E+01 0.29751742580E+01 0.32046543074E+01 0.33299284249E+01
 0.33298964873E+01 0.32045714560E+01 0.29750752816E+01 0.26780137321E+01 0.23559354068E+01
 0.20472208912E+01 0.17790413042E+01 0.15651819965E+01 0.14079280778E+01 0.13019457022E+01
 0.12385129010E+01 0.12093056041E+01 0.12093183209E+01 0.14489501868E+01 0.14915854161E+01
 0.15650732768E+01 0.16782759229E+01 0.18353796541E+01 0.20319651359E+01 0.22528675050E+01
 0.24730289977E+01 0.26617428767E+01 0.27893846741E+01 0.28345717804E+01 0.27895005502E+01
 0.26619240685E+01 0.24732161671E+01 0.22530075091E+01 0.20320052651E+01 0.18353032704E+01
 0.16781452940E+01 0.15649871142E+01 0.14915835078E+01 0.14489923573E+01 0.14278668736E+01
 0.14215928138E+01 0.14278346087E+01 0.17499750567E+01 0.17536751924E+01 0.17789729573E+01
 0.18353796541E+01 0.19264532316E+01 0.20471927287E+01 0.21836819683E+01 0.23154130928E+01
 0.24197952326E+01 0.24775771049E+01 0.24776540449E+01 0.24199502886E+01 0.23155247636E+01
 0.21837356103E+01 0.20472529081E+01 0.19265230650E+01 0.18353785517E+01 0.17788576455E+01
 0.17535112715E+01 0.17498613759E+01 0.17561533906E+01 0.17621916714E+01 0.17621934588E+01
 0.17561894058E+01 0.21469500191E+01 0.20890941554E+01 0.20472026812E+01 0.20319651359E+01
 0.20471927287E+01 0.20890944670E+01 0.21469583027E+01 0.22054642132E+01 0.22486236816E+01
 0.22644134198E+01 0.22484546104E+01 0.22053066620E+01 0.21469521761E+01 0.20891810150E+01
 0.20472250125E+01 0.20319256380E+01 0.20472059144E+01 0.20891686295E+01 0.21469521065E+01
 0.22053014943E+01 0.22484458443E+01 0.22644210943E+01 0.22486437587E+01 0.22054709120E+01
 0.26354199074E+01 0.24876848640E+01 0.23559662029E+01 0.22528675050E+01 0.21836819683E+01
 0.21469583027E+01 0.21352608864E+01 0.21372553530E+01 0.21416248397E+01 0.21414576953E+01
 0.21369596804E+01 0.21352155927E+01 0.21472682359E+01 0.21840411323E+01 0.22529086121E+01
 0.23556787078E+01 0.24873897359E+01 0.26353712275E+01 0.27794935691E+01 0.28952631525E+01
 0.29599932590E+01 0.29599355161E+01 0.28951061409E+01 0.27793439894E+01 0.31946425455E+01
 0.29235398060E+01 0.26780895201E+01 0.24730289977E+01 0.23154130928E+01 0.22054642132E+01
 0.21372553530E+01 0.21015839027E+01 0.20905710818E+01 0.21013806297E+01 0.21372948972E+01
 0.22060482243E+01 0.23162346744E+01 0.24734166331E+01 0.26777030688E+01 0.29227272919E+01
 0.31940790106E+01 0.34668089463E+01 0.37053864777E+01 0.38700383896E+01 0.39288344775E+01
 0.38696209680E+01 0.37049112081E+01 0.34667574051E+01 0.37816059070E+01 0.33534819923E+01
 0.29751742580E+01 0.26617428767E+01 0.24197952326E+01 0.22486236816E+01 0.21416248397E+01
 0.20905710818E+01 0.20904395826E+01 0.21416642527E+01 0.22494154707E+01 0.24209877549E+01
 0.26622586839E+01 0.29745051659E+01 0.33523186895E+01 0.37809923705E+01 0.42315871199E+01
 0.46566692949E+01 0.49940025185E+01 0.51820872871E+01 0.51820472765E+01 0.49937610078E+01
 0.46562091132E+01 0.42313919260E+01 0.43303730426E+01 0.37218136029E+01 0.32046543074E+01
 0.27893846741E+01 0.24775771049E+01 0.22644134198E+01 0.21414576953E+01 0.21013806297E+01
 0.21416642527E+01 0.22652470373E+01 0.24788099971E+01 0.27898854827E+01 0.32036854347E+01
 0.37201508685E+01 0.43295433536E+01 0.50037665165E+01 0.56857774403E+01 0.62874549679E+01
 0.67059782112E+01 0.68566207520E+01 0.67060661773E+01 0.62870206431E+01 0.56847828697E+01
 0.50032312923E+01 0.47611435788E+01 0.39717778684E+01 0.33299284249E+01 0.28345717804E+01
 0.24776540449E+01 0.22484546104E+01 0.21369596804E+01 0.21372948972E+01 0.22494154707E+01
 0.24788099971E+01 0.28349582829E+01 0.33288852236E+01 0.39699356096E+01 0.47600345275E+01
 0.56811874809E+01 0.66763278845E+01 0.76358591624E+01 0.84084911009E+01 0.88427822840E+01
 0.88428702593E+01 0.84083212631E+01 0.76348616723E+01 0.66749434407E+01 0.56807089016E+01
 0.49994580654E+01 0.40604993272E+01 0.33298964873E+01 0.27895005502E+01 0.24199502886E+01
 0.22053066620E+01 0.21352155927E+01 0.22060482243E+01 0.24209877549E+01 0.27898854827E+01
 0.33288852236E+01 0.40586108265E+01 0.49982840721E+01 0.61504386743E+01 0.74732301645E+01
 0.88513894389E+01 0.10091903453E+02 0.10964877368E+02 0.11280661527E+02 0.10965211956E+02
 0.10091696527E+02 0.88500692854E+01 0.74715268630E+01 0.61498582237E+01 0.49996195709E+01
 0.39718165751E+01 0.32045714560E+01 0.26619240685E+01 0.23155247636E+01 0.21469521761E+01
 0.21472682359E+01 0.23162346744E+01 0.26622586839E+01 0.32036854347E+01 0.39699356096E+01
 0.49982840721E+01 0.63189092957E+01 0.79214094175E+01 0.97094397145E+01 0.11472676546E+02
 0.12912062385E+02 0.13726865130E+02 0.13727166611E+02 0.12912508884E+02 0.11472297945E+02
 0.97078266414E+01 0.79195365791E+01 0.63184072299E+01 0.47613552640E+01 0.37216073942E+01
 0.29750752816E+01 0.24732161671E+01 0.21837356103E+01 0.20891810150E+01 0.21840411323E+01
 0.24734166331E+01 0.29745051659E+01 0.37201508685E+01 0.47600345275E+01 0.61504386743E+01
 0.79214094175E+01 0.10020394849E+02 0.12257756491E+02 0.14301345775E+02 0.15754416299E+02
 0.16283122580E+02 0.15754567492E+02 0.14301426525E+02 0.12257218918E+02 0.10019023386E+02
 0.79200776753E+01 0.61503972888E+01 0.43302169005E+01 0.33529758795E+01 0.26780137321E+01
 0.22530075091E+01 0.20472529081E+01 0.20472250125E+01 0.22529086121E+01 0.26777030688E+01
 0.33523186895E+01 0.43295433536E+01 0.56811874809E+01 0.74732301645E+01 0.97094397145E+01
 0.12257756491E+02 0.14807585612E+02 0.16916382824E+02 0.18122418465E+02 0.18122272852E+02
 0.16916223929E+02 0.14807651246E+02 0.12257654202E+02 0.97088265610E+01 0.74725895337E+01
 0.56812348155E+01 0.37811340763E+01 0.29231282113E+01 0.23559354068E+01 0.20320052651E+01
 0.19265230650E+01 0.20319256380E+01 0.23556787078E+01 0.29227272919E+01 0.37809923705E+01
 0.50037665165E+01 0.66763278845E+01 0.88513894389E+01 0.11472676546E+02 0.14301345775E+02
 0.16916382824E+02 0.18795435391E+02 0.19481988768E+02 0.18794602558E+02 0.16916086565E+02
 0.14302167132E+02 0.11473537633E+02 0.88511986635E+01 0.66754324225E+01 0.50032158865E+01
 0.31943251789E+01 0.24877520008E+01 0.20472208912E+01 0.18353032704E+01 0.18353785517E+01
 0.20472059144E+01 0.24873897359E+01 0.31940790106E+01 0.42315871199E+01 0.56857774403E+01
 0.76358591624E+01 0.10091903453E+02 0.12912062385E+02 0.15754416299E+02 0.18122418465E+02
 0.19481988768E+02 0.19480929598E+02 0.18120870734E+02 0.15754845981E+02 0.12914192467E+02
 0.10093226602E+02 0.76351014452E+01 0.56841871378E+01 0.42308400068E+01 0.26355317176E+01
 0.20895054151E+01 0.17790413042E+01 0.16781452940E+01 0.17788576455E+01 0.20891686295E+01
 0.26353712275E+01 0.34668089463E+01 0.46566692949E+01 0.62874549679E+01 0.84084911009E+01
 0.10964877368E+02 0.13726865130E+02 0.16283122580E+02 0.18122272852E+02 0.18794602558E+02
 0.18120870734E+02 0.16282723858E+02 0.13728706482E+02 0.10967231664E+02 0.84090440881E+01
 0.62860977758E+01 0.46550678731E+01 0.34661585568E+01 0.21472679304E+01 0.17539529905E+01
 0.15651819965E+01 0.15649871142E+01 0.17535112715E+01 0.21469521065E+01 0.27794935691E+01
 0.37053864777E+01 0.49940025185E+01 0.67059782112E+01 0.88427822840E+01 0.11280661527E+02
 0.13727166611E+02 0.15754567492E+02 0.16916223929E+02 0.16916086565E+02 0.15754845981E+02
 0.13728706482E+02 0.11282772057E+02 0.88437964890E+01 0.67052277708E+01 0.49924095409E+01
 0.37042143606E+01 0.27792052835E+01 0.17501379039E+01 0.14915276816E+01 0.14079280778E+01
 0.14915835078E+01 0.17498613759E+01 0.22053014943E+01 0.28952631525E+01 0.38700383896E+01
 0.51820872871E+01 0.68566207520E+01 0.88428702593E+01 0.10965211956E+02 0.12912508884E+02
 0.14301426525E+02 0.14807651246E+02 0.14302167132E+02 0.12914192467E+02 0.10967231664E+02
 0.88437964890E+01 0.68557103378E+01 0.51802689892E+01 0.38688951760E+01 0.28953459867E+01
 0.22058868516E+01 0.14489045138E+01 0.13017705786E+01 0.13019457022E+01 0.14489923573E+01
 0.17561533906E+01 0.22484458443E+01 0.29599932590E+01 0.39288344775E+01 0.51820472765E+01
 0.67060661773E+01 0.84083212631E+01 0.10091696527E+02 0.11472297945E+02 0.12257218918E+02
 0.12257654202E+02 0.11473537633E+02 0.10093226602E+02 0.84090440881E+01 0.67052277708E+01
 0.51802689892E+01 0.39276557899E+01 0.29602473356E+01 0.22494727539E+01 0.17567775417E+01
 0.12384694466E+01 0.11774378498E+01 0.12385129010E+01 0.14278668736E+01 0.17621916714E+01
 0.22644210943E+01 0.29599355161E+01 0.38696209680E+01 0.49937610078E+01 0.62870206431E+01
 0.76348616723E+01 0.88500692854E+01 0.97078266414E+01 0.10019023386E+02 0.97088265610E+01
 0.88511986635E+01 0.76351014452E+01 0.62860977758E+01 0.49924095409E+01 0.38688951760E+01
 0.29602473356E+01 0.22652958003E+01 0.17628909615E+01 0.14280871847E+01 0.11083534438E+01
 0.11084978679E+01 0.12093056041E+01 0.14215928138E+01 0.17621934588E+01 0.22486437587E+01
 0.28951061409E+01 0.37049112081E+01 0.46562091132E+01 0.56847828697E+01 0.66749434407E+01
 0.74715268630E+01 0.79195365791E+01 0.79200776753E+01 0.74725895337E+01 0.66754324225E+01
 0.56841871378E+01 0.46550678731E+01 0.37042143606E+01 0.28953459867E+01 0.22494727539E+01
 0.17628909615E+01 0.14217528251E+01 0.12090940914E+01 0.10470465972E+01 0.10864981196E+01
 0.12093183209E+01 0.14278346087E+01 0.17561894058E+01 0.22054709120E+01 0.27793439894E+01
 0.34667574051E+01 0.42313919260E+01 0.50032312923E+01 0.56807089016E+01 0.61498582237E+01
 0.63184072299E+01 0.61503972888E+01 0.56812348155E+01 0.50032158865E+01 0.42308400068E+01
 0.34661585568E+01 0.27792052835E+01 0.22058868516E+01 0.17567775417E+01 0.14280871847E+01
 0.12090940914E+01 0.10861617799E+01 0.11670184635E+01 0.12385417513E+01 0.13677159334E+01
 0.15647303740E+01 0.18366847626E+01 0.21836888485E+01 0.25947425447E+01 0.30433241448E+01
 0.34854353589E+01 0.38640203970E+01 0.41208051735E+01 0.42119055667E+01 0.41209334950E+01
 0.38641626510E+01 0.34855143454E+01 0.30433442907E+01 0.25947034722E+01 0.21835853547E+01
 0.18365833642E+01 0.15647129397E+01 0.13677498120E+01 0.12385307300E+01 0.11669687598E+01
 0.11443084369E+01 0.12385417513E+01 0.13018978111E+01 0.14078139212E+01 0.15650691800E+01
 0.17789729681E+01 0.20471917975E+01 0.23559414204E+01 0.26780706103E+01 0.29751814016E+01
 0.32046927499E+01 0.33299960662E+01 0.33299834992E+01 0.32046483163E+01 0.29751046733E+01
 0.26779825614E+01 0.23558595192E+01 0.20471197972E+01 0.17789312897E+01 0.15650926713E+01
 0.14078942945E+01 0.13019721539E+01 0.12385680100E+01 0.12093574007E+01 0.12093569950E+01
 0.13677159334E+01 0.14078139212E+01 0.14772624577E+01 0.15850757473E+01 0.17360476560E+01
 0.19264553854E+01 0.21414916957E+01 0.23561493841E+01 0.25399410845E+01 0.26639535600E+01
 0.27077148353E+01 0.26638652856E+01 0.25397836353E+01 0.23559813682E+01 0.21413885079E+01
 0.19264520177E+01 0.17361246267E+01 0.15851946270E+01 0.14773847261E+01 0.14078971062E+01
 0.13677373542E+01 0.13478699139E+01 0.13419983292E+01 0.13478825253E+01 0.15647303740E+01
 0.15650691800E+01 0.15850757473E+01 0.16352230610E+01 0.17201896205E+01 0.18353761798E+01
 0.19664796131E+01 0.20926572092E+01 0.21919041250E+01 0.22464231044E+01 0.22464147048E+01
 0.21918870548E+01 0.20926508323E+01 0.19664983711E+01 0.18354164847E+01 0.17202422565E+01
 0.16352908722E+01 0.15851541475E+01 0.15651161341E+01 0.15646995998E+01 0.15722566695E+01
 0.15785458647E+01 0.15785916849E+01 0.15723408334E+01 0.18366847626E+01 0.17789729681E+01
 0.17360476560E+01 0.17201896205E+01 0.17360437637E+01 0.17789594674E+01 0.18366535452E+01
 0.18933049590E+01 0.19341453628E+01 0.19489895268E+01 0.19342198103E+01 0.18934129203E+01
 0.18367506726E+01 0.17790264245E+01 0.17360781922E+01 0.17201864541E+01 0.17360010715E+01
 0.17788933509E+01 0.18366005037E+01 0.18932914102E+01 0.19341603998E+01 0.19489955806E+01
 0.19341902566E+01 0.18933533146E+01 0.21836888485E+01 0.20471917975E+01 0.19264553854E+01
 0.18353761798E+01 0.17789594674E+01 0.17536584308E+01 0.17499563408E+01 0.17561684357E+01
 0.17621900937E+01 0.17622352783E+01 0.17562434509E+01 0.17499607926E+01 0.17535821850E+01
 0.17788826905E+01 0.18353488515E+01 0.19264359868E+01 0.20471304178E+01 0.21836212490E+01
 0.23154523584E+01 0.24199289101E+01 0.24776800488E+01 0.24776373782E+01 0.24198593874E+01
 0.23154497066E+01 0.25947425447E+01 0.23559414204E+01 0.21414916957E+01 0.19664796131E+01
 0.18366535452E+01 0.17499563408E+01 0.16987920407E+01 0.16734330272E+01 0.16659822456E+01
 0.16734258775E+01 0.16987467773E+01 0.17498432719E+01 0.18364956845E+01 0.19663586545E+01
 0.21414731220E+01 0.23560079141E+01 0.25948328894E+01 0.28331305033E+01 0.30388010021E+01
 0.31789278440E+01 0.32286839549E+01 0.31788580117E+01 0.30387085271E+01 0.28330415508E+01
 0.30433241448E+01 0.26780706103E+01 0.23561493841E+01 0.20926572092E+01 0.18933049590E+01
 0.17561684357E+01 0.16734330272E+01 0.16353243431E+01 0.16352693723E+01 0.16733416334E+01
 0.17561314544E+01 0.18932897606E+01 0.20926156054E+01 0.23561441407E+01 0.26781629180E+01
 0.30434423866E+01 0.34242376267E+01 0.37787415964E+01 0.40560740126E+01 0.42089896209E+01
 0.42089708800E+01 0.40560532359E+01 0.37787384971E+01 0.34241889090E+01 0.34854353589E+01
 0.29751814016E+01 0.25399410845E+01 0.21919041250E+01 0.19341453628E+01 0.17621900937E+01
 0.16659822456E+01 0.16352693723E+01 0.16658513076E+01 0.17621231250E+01 0.19342123933E+01
 0.21919938573E+01 0.25400104414E+01 0.29752833155E+01 0.34855071249E+01 0.40437106009E+01
 0.46010432799E+01 0.50864305200E+01 0.54203929887E+01 0.55397110720E+01 0.54203633595E+01
 0.50865186167E+01 0.46012313005E+01 0.40438001474E+01 0.38640203970E+01 0.32046927499E+01
 0.26639535600E+01 0.22464231044E+01 0.19489895268E+01 0.17622352783E+01 0.16734258775E+01
 0.16733416334E+01 0.17621231250E+01 0.19490209940E+01 0.22465223040E+01 0.26639852961E+01
 0.32046973029E+01 0.38640430303E+01 0.46222980945E+01 0.54307593289E+01 0.62016452429E+01
 0.68169677519E+01 0.71607246324E+01 0.71606652876E+01 0.68169339372E+01 0.62017968012E+01
 0.54309686512E+01 0.46223713953E+01 0.41208051735E+01 0.33299960662E+01 0.27077148353E+01
 0.22464147048E+01 0.19342198103E+01 0.17562434509E+01 0.16987467773E+01 0.17561314544E+01
 0.19342123933E+01 0.22465223040E+01 0.27077269472E+01 0.33298890715E+01 0.41207615282E+01
 0.50758590033E+01 0.61585003759E+01 0.72764271593E+01 0.82770529758E+01 0.89787903998E+01
 0.92319634628E+01 0.89786174262E+01 0.82769802713E+01 0.72765206199E+01 0.61585580519E+01
 0.50758309424E+01 0.42119055667E+01 0.33299834992E+01 0.26638652856E+01 0.21918870548E+01
 0.18934129203E+01 0.17499607926E+01 0.17498432719E+01 0.18932897606E+01 0.21919938573E+01
 0.26639852961E+01 0.33298890715E+01 0.42118134976E+01 0.53264285917E+01 0.66618870608E+01
 0.81414216309E+01 0.95972234758E+01 0.10786310234E+02 0.11460029533E+02 0.11459878240E+02
 0.10786099072E+02 0.95972204596E+01 0.81414435306E+01 0.66617234118E+01 0.53262899688E+01
 0.41209334950E+01 0.32046483163E+01 0.25397836353E+01 0.20926508323E+01 0.18367506726E+01
 0.17535821850E+01 0.18364956845E+01 0.20926156054E+01 0.25400104414E+01 0.32046973029E+01
 0.41207615282E+01 0.53264285917E+01 0.68424142702E+01 0.86276878627E+01 0.10530805035E+02
 0.12276286277E+02 0.13520956576E+02 0.13973918805E+02 0.13520817030E+02 0.12276311158E+02
 0.10530926936E+02 0.86275522676E+01 0.68421154300E+01 0.53263915304E+01 0.38641626510E+01
 0.29751046733E+01 0.23559813682E+01 0.19664983711E+01 0.17790264245E+01 0.17788826905E+01
 0.19663586545E+01 0.23561441407E+01 0.29752833155E+01 0.38640430303E+01 0.50758590033E+01
 0.66618870608E+01 0.86276878627E+01 0.10869466359E+02 0.13126428174E+02 0.15001241529E+02
 0.16074768609E+02 0.16074728278E+02 0.15001299861E+02 0.13126692376E+02 0.10869611890E+02
 0.86275204844E+01 0.66617508494E+01 0.50760096697E+01 0.34855143454E+01 0.26779825614E+01
 0.21413885079E+01 0.18354164847E+01 0.17360781922E+01 0.18353488515E+01 0.21414731220E+01
 0.26781629180E+01 0.34855071249E+01 0.46222980945E+01 0.61585003759E+01 0.81414216309E+01
 0.10530805035E+02 0.13126428174E+02 0.15542401118E+02 0.17283122553E+02 0.17920112727E+02
 0.17283068708E+02 0.15542548516E+02 0.13126728006E+02 0.10530926403E+02 0.81413468647E+01
 0.61585324036E+01 0.46224626616E+01 0.30433442907E+01 0.23558595192E+01 0.19264520177E+01
 0.17202422565E+01 0.17201864541E+01 0.19264359868E+01 0.23560079141E+01 0.30434423866E+01
 0.40437106009E+01 0.54307593289E+01 0.72764271593E+01 0.95972234758E+01 0.12276286277E+02
 0.15001241529E+02 0.17283122553E+02 0.18596677106E+02 0.18596602952E+02 0.17283052581E+02
 0.15001321019E+02 0.12276355551E+02 0.95971518792E+01 0.72764044531E+01 0.54309270734E+01
 0.40438460154E+01 0.25947034722E+01 0.20471197972E+01 0.17361246267E+01 0.16352908722E+01
 0.17360010715E+01 0.20471304178E+01 0.25948328894E+01 0.34242376267E+01 0.46010432799E+01
 0.62016452429E+01 0.82770529758E+01 0.10786310234E+02 0.13520956576E+02 0.16074768609E+02
 0.17920112727E+02 0.18596602952E+02 0.17920048842E+02 0.16074735073E+02 0.13520890030E+02
 0.10786104472E+02 0.82768771712E+01 0.62017453017E+01 0.46012867725E+01 0.34242866576E+01
 0.21835853547E+01 0.17789312897E+01 0.15851946270E+01 0.15851541475E+01 0.17788933509E+01
 0.21836212490E+01 0.28331305033E+01 0.37787415964E+01 0.50864305200E+01 0.68169677519E+01
 0.89787903998E+01 0.11460029533E+02 0.13973918805E+02 0.16074728278E+02 0.17283068708E+02
 0.17283052581E+02 0.16074735073E+02 0.13973972979E+02 0.11460018479E+02 0.89786707965E+01
 0.68168955638E+01 0.50865135984E+01 0.37788504691E+01 0.28331280525E+01 0.18365833642E+01
 0.15650926713E+01 0.14773847261E+01 0.15651161341E+01 0.18366005037E+01 0.23154523584E+01
 0.30388010021E+01 0.40560740126E+01 0.54203929887E+01 0.71607246324E+01 0.92319634628E+01
 0.11459878240E+02 0.13520817030E+02 0.15001299861E+02 0.15542548516E+02 0.15001321019E+02
 0.13520890030E+02 0.11460018479E+02 0.92321213346E+01 0.71608063985E+01 0.54203566741E+01
 0.40559808878E+01 0.30387384673E+01 0.23154334050E+01 0.15647129397E+01 0.14078942945E+01
 0.14078971062E+01 0.15646995998E+01 0.18932914102E+01 0.24199289101E+01 0.31789278440E+01
 0.42089896209E+01 0.55397110720E+01 0.71606652876E+01 0.89786174262E+01 0.10786099072E+02
 0.12276311158E+02 0.13126692376E+02 0.13126728006E+02 0.12276355551E+02 0.10786104472E+02
 0.89786707965E+01 0.71608063985E+01 0.55397893880E+01 0.42088768490E+01 0.31787325978E+01
 0.24198323773E+01 0.18932995658E+01 0.13677498120E+01 0.13019721539E+01 0.13677373542E+01
 0.15722566695E+01 0.19341603998E+01 0.24776800488E+01 0.32286839549E+01 0.42089708800E+01
 0.54203633595E+01 0.68169339372E+01 0.82769802713E+01 0.95972204596E+01 0.10530926936E+02
 0.10869611890E+02 0.10530926403E+02 0.95971518792E+01 0.82768771712E+01 0.68168955638E+01
 0.54203566741E+01 0.42088768490E+01 0.32285348335E+01 0.24776352507E+01 0.19342455124E+01
 0.15723371008E+01 0.12385307300E+01 0.12385680100E+01 0.13478699139E+01 0.15785458647E+01
 0.19489955806E+01 0.24776373782E+01 0.31788580117E+01 0.40560532359E+01 0.50865186167E+01
 0.62017968012E+01 0.72765206199E+01 0.81414435306E+01 0.86275522676E+01 0.86275204844E+01
 0.81413468647E+01 0.72764044531E+01 0.62017453017E+01 0.50865135984E+01 0.40559808878E+01
 0.31787325978E+01 0.24776352507E+01 0.19491674271E+01 0.15787006105E+01 0.13478712746E+01
 0.11669687598E+01 0.12093574007E+01 0.13419983292E+01 0.15785916849E+01 0.19341902566E+01
 0.24198593874E+01 0.30387085271E+01 0.37787384971E+01 0.46012313005E+01 0.54309686512E+01
 0.61585580519E+01 0.66617234118E+01 0.68421154300E+01 0.66617508494E+01 0.61585324036E+01
 0.54309270734E+01 0.46012867725E+01 0.37788504691E+01 0.30387384673E+01 0.24198323773E+01
 0.19342455124E+01 0.15787006105E+01 0.13420049908E+01 0.12092783888E+01 0.11443084369E+01
 0.12093569950E+01 0.13478825253E+01 0.15723408334E+01 0.18933533146E+01 0.23154497066E+01
 0.28330415508E+01 0.34241889090E+01 0.40438001474E+01 0.46223713953E+01 0.50758309424E+01
 0.53262899688E+01 0.53263915304E+01 0.50760096697E+01 0.46224626616E+01 0.40438460154E+01
 0.34242866576E+01 0.28331280525E+01 0.23154334050E+01 0.18932995658E+01 0.15723371008E+01
 0.13478712746E+01 0.12092783888E+01 0.11442542755E+01 0.13797876640E+01 0.14489498835E+01
 0.15647135332E+01 0.17358340372E+01 0.19664899850E+01 0.22528528549E+01 0.25802054598E+01
 0.29209086994E+01 0.32354784512E+01 0.34790500638E+01 0.36122485803E+01 0.36121711125E+01
 0.34789671911E+01 0.32356625833E+01 0.29213950781E+01 0.25806517563E+01 0.22528590579E+01
 0.19660503600E+01 0.17353398939E+01 0.15644960395E+01 0.14489809419E+01 0.13798659497E+01
 0.13480871907E+01 0.13480596869E+01 0.14489498835E+01 0.14915717102E+01 0.15650566390E+01
 0.16782680140E+01 0.18353756942E+01 0.20319517416E+01 0.22528528549E+01 0.24730433005E+01
 0.26618038397E+01 0.27894793458E+01 0.28346708896E+01 0.27895705934E+01 0.26619294558E+01
 0.24731373590E+01 0.22528637535E+01 0.20318430348E+01 0.18351630471E+01 0.16780541004E+01
 0.15649698015E+01 0.14916483833E+01 0.14491053308E+01 0.14279692199E+01 0.14216512234E+01
 0.14278556103E+01 0.15647135332E+01 0.15650566390E+01 0.15850692255E+01 0.16352198813E+01
 0.17201868735E+01 0.18353756942E+01 0.19664899850E+01 0.20926874731E+01 0.21919523293E+01
 0.22464710078E+01 0.22464352565E+01 0.21918598261E+01 0.20925744056E+01 0.19663915574E+01
 0.18353087054E+01 0.17201613794E+01 0.16352564239E+01 0.15851747800E+01 0.15651855825E+01
 0.15647936734E+01 0.15723411965E+01 0.15785954654E+01 0.15786033456E+01 0.15723294851E+01
 0.17358340372E+01 0.16782680140E+01 0.16352198813E+01 0.16192726565E+01 0.16352198813E+01
 0.16782680140E+01 0.17358340372E+01 0.17919395107E+01 0.18320216909E+01 0.18463858006E+01
 0.18318034060E+01 0.17917511491E+01 0.17358557090E+01 0.16784172412E+01 0.16353237842E+01
 0.16193209294E+01 0.16353237842E+01 0.16784172412E+01 0.17358557090E+01 0.17917511491E+01
 0.18318034060E+01 0.18463858006E+01 0.18320216909E+01 0.17919395107E+01 0.19664899850E+01
 0.18353756942E+01 0.17201868735E+01 0.16352198813E+01 0.15850692255E+01 0.15650566390E+01
 0.15647135332E+01 0.15723294851E+01 0.15786033456E+01 0.15785954654E+01 0.15723411965E+01
 0.15647936734E+01 0.15651855825E+01 0.15851747800E+01 0.16352564239E+01 0.17201613794E+01
 0.18353087054E+01 0.19663915574E+01 0.20925744056E+01 0.21918598261E+01 0.22464352565E+01
 0.22464710078E+01 0.21919523293E+01 0.20926874731E+01 0.22528528549E+01 0.20319517416E+01
 0.18353756942E+01 0.16782680140E+01 0.15650566390E+01 0.14915717102E+01 0.14489498835E+01
 0.14278556103E+01 0.14216512234E+01 0.14279692199E+01 0.14491053308E+01 0.14916483833E+01
 0.15649698015E+01 0.16780541004E+01 0.18351630471E+01 0.20318430348E+01 0.22528637535E+01
 0.24731373590E+01 0.26619294558E+01 0.27895705934E+01 0.28346708896E+01 0.27894793458E+01
 0.26618038397E+01 0.24730433005E+01 0.25802054598E+01 0.22528528549E+01 0.19664899850E+01
 0.17358340372E+01 0.15647135332E+01 0.14489498835E+01 0.13797876640E+01 0.13480596869E+01
 0.13480871907E+01 0.13798659497E+01 0.14489809419E+01 0.15644960395E+01 0.17353398939E+01
 0.19660503600E+01 0.22528590579E+01 0.25806517563E+01 0.29213950781E+01 0.32356625833E+01
 0.34789671911E+01 0.36121711125E+01 0.36122485803E+01 0.34790500638E+01 0.32354784512E+01
 0.29209086994E+01 0.29209086994E+01 0.24730433005E+01 0.20926874731E+01 0.17919395107E+01
 0.15723294851E+01 0.14278556103E+01 0.13480596869E+01 0.13229468507E+01 0.13482680630E+01
 0.14279180005E+01 0.15718827788E+01 0.17911124855E+01 0.20921647840E+01 0.24733811035E+01
 0.29218503323E+01 0.34096671504E+01 0.38909560696E+01 0.43046228341E+01 0.45863151723E+01
 0.46865439209E+01 0.45866468120E+01 0.43049986947E+01 0.38908881930E+01 0.34089280878E+01
 0.32354784512E+01 0.26618038397E+01 0.21919523293E+01 0.18320216909E+01 0.15786033456E+01
 0.14216512234E+01 0.13480871907E+01 0.13482680630E+01 0.14218422394E+01 0.15781879007E+01
 0.18309990753E+01 0.21912167692E+01 0.26622342621E+01 0.32368043482E+01 0.38918959698E+01
 0.45806702168E+01 0.52279236129E+01 0.57385528737E+01 0.60218413944E+01 0.60220602477E+01
 0.57392089180E+01 0.52286874013E+01 0.45807459789E+01 0.38908881930E+01 0.34790500638E+01
 0.27894793458E+01 0.22464710078E+01 0.18463858006E+01 0.15785954654E+01 0.14279692199E+01
 0.13798659497E+01 0.14279180005E+01 0.15781879007E+01 0.18455366847E+01 0.22457614436E+01
 0.27897494704E+01 0.34803347590E+01 0.43062088432E+01 0.52287398040E+01 0.61672347842E+01
 0.69973449972E+01 0.75751122252E+01 0.77830165612E+01 0.75756585663E+01 0.69984257285E+01
 0.61682294468E+01 0.52286874013E+01 0.43049986947E+01 0.36122485803E+01 0.28346708896E+01
 0.22464352565E+01 0.18318034060E+01 0.15723411965E+01 0.14491053308E+01 0.14489809419E+01
 0.15718827788E+01 0.18309990753E+01 0.22457614436E+01 0.28349351252E+01 0.36136329105E+01
 0.45880892832E+01 0.57393471093E+01 0.69971864099E+01 0.82213495856E+01 0.92140718627E+01
 0.97744003732E+01 0.97744780114E+01 0.92146790940E+01 0.82227308011E+01 0.69984257285E+01
 0.57392089180E+01 0.45866468120E+01 0.36121711125E+01 0.27895705934E+01 0.21918598261E+01
 0.17917511491E+01 0.15647936734E+01 0.14916483833E+01 0.15644960395E+01 0.17911124855E+01
 0.21912167692E+01 0.27897494704E+01 0.36136329105E+01 0.46883519496E+01 0.60224531712E+01
 0.75741373670E+01 0.92128202398E+01 0.10707014803E+02 0.11769080248E+02 0.12154817858E+02
 0.11768643723E+02 0.10707550508E+02 0.92146790940E+01 0.75756585663E+01 0.60220602477E+01
 0.46865439209E+01 0.34789671911E+01 0.26619294558E+01 0.20925744056E+01 0.17358557090E+01
 0.15651855825E+01 0.15649698015E+01 0.17353398939E+01 0.20921647840E+01 0.26622342621E+01
 0.34803347590E+01 0.45880892832E+01 0.60224531712E+01 0.77815946884E+01 0.97722417266E+01
 0.11767720058E+02 0.13422249975E+02 0.14368763963E+02 0.14368115019E+02 0.13421501124E+02
 0.11768643723E+02 0.97744780114E+01 0.77830165612E+01 0.60218413944E+01 0.45863151723E+01
 0.32356625833E+01 0.24731373590E+01 0.19663915574E+01 0.16784172412E+01 0.15851747800E+01
 0.16780541004E+01 0.19660503600E+01 0.24733811035E+01 0.32368043482E+01 0.43062088432E+01
 0.57393471093E+01 0.75741373670E+01 0.97722417266E+01 0.12153344191E+02 0.14368402688E+02
 0.15964968303E+02 0.16549021028E+02 0.15963963021E+02 0.14368115019E+02 0.12154817858E+02
 0.97744003732E+01 0.75751122252E+01 0.57385528737E+01 0.43046228341E+01 0.29213950781E+01
 0.22528637535E+01 0.18353087054E+01 0.16353237842E+01 0.16352564239E+01 0.18351630471E+01
 0.22528590579E+01 0.29218503323E+01 0.38918959698E+01 0.52287398040E+01 0.69971864099E+01
 0.92128202398E+01 0.11767720058E+02 0.14368402688E+02 0.16549601580E+02 0.17806691761E+02
 0.17806275030E+02 0.16549021028E+02 0.14368763963E+02 0.11769080248E+02 0.92140718627E+01
 0.69973449972E+01 0.52279236129E+01 0.38909560696E+01 0.25806517563E+01 0.20318430348E+01
 0.17201613794E+01 0.16193209294E+01 0.17201613794E+01 0.20318430348E+01 0.25806517563E+01
 0.34096671504E+01 0.45806702168E+01 0.61672347842E+01 0.82213495856E+01 0.10707014803E+02
 0.13422249975E+02 0.15964968303E+02 0.17806691761E+02 0.18482772267E+02 0.17806691761E+02
 0.15964968303E+02 0.13422249975E+02 0.10707014803E+02 0.82213495856E+01 0.61672347842E+01
 0.45806702168E+01 0.34096671504E+01 0.22528590579E+01 0.18351630471E+01 0.16352564239E+01
 0.16353237842E+01 0.18353087054E+01 0.22528637535E+01 0.29213950781E+01 0.38909560696E+01
 0.52279236129E+01 0.69973449972E+01 0.92140718627E+01 0.11769080248E+02 0.14368763963E+02
 0.16549021028E+02 0.17806275030E+02 0.17806691761E+02 0.16549601580E+02 0.14368402688E+02
 0.11767720058E+02 0.92128202398E+01 0.69971864099E+01 0.52287398040E+01 0.38918959698E+01
 0.29218503323E+01 0.19660503600E+01 0.16780541004E+01 0.15851747800E+01 0.16784172412E+01
 0.19663915574E+01 0.24731373590E+01 0.32356625833E+01 0.43046228341E+01 0.57385528737E+01
 0.75751122252E+01 0.97744003732E+01 0.12154817858E+02 0.14368115019E+02 0.15963963021E+02
 0.16549021028E+02 0.15964968303E+02 0.14368402688E+02 0.12153344191E+02 0.97722417266E+01
 0.75741373670E+01 0.57393471093E+01 0.43062088432E+01 0.32368043482E+01 0.24733811035E+01
 0.17353398939E+01 0.15649698015E+01 0.15651855825E+01 0.17358557090E+01 0.20925744056E+01
 0.26619294558E+01 0.34789671911E+01 0.45863151723E+01 0.60218413944E+01 0.77830165612E+01
 0.97744780114E+01 0.11768643723E+02 0.13421501124E+02 0.14368115019E+02 0.14368763963E+02
 0.13422249975E+02 0.11767720058E+02 0.97722417266E+01 0.77815946884E+01 0.60224531712E+01
 0.45880892832E+01 0.34803347590E+01 0.26622342621E+01 0.20921647840E+01 0.15644960395E+01
 0.14916483833E+01 0.15647936734E+01 0.17917511491E+01 0.21918598261E+01 0.27895705934E+01
 0.36121711125E+01 0.46865439209E+01 0.60220602477E+01 0.75756585663E+01 0.92146790940E+01
 0.10707550508E+02 0.11768643723E+02 0.12154817858E+02 0.11769080248E+02 0.10707014803E+02
 0.92128202398E+01 0.75741373670E+01 0.60224531712E+01 0.46883519496E+01 0.36136329105E+01
 0.27897494704E+01 0.21912167692E+01 0.17911124855E+01 0.14489809419E+01 0.14491053308E+01
 0.15723411965E+01 0.18318034060E+01 0.22464352565E+01 0.28346708896E+01 0.36122485803E+01
 0.45866468120E+01 0.57392089180E+01 0.69984257285E+01 0.82227308011E+01 0.92146790940E+01
 0.97744780114E+01 0.97744003732E+01 0.92140718627E+01 0.82213495856E+01 0.69971864099E+01
 0.57393471093E+01 0.45880892832E+01 0.36136329105E+01 0.28349351252E+01 0.22457614436E+01
 0.18309990753E+01 0.15718827788E+01 0.13798659497E+01 0.14279692199E+01 0.15785954654E+01
 0.18463858006E+01 0.22464710078E+01 0.27894793458E+01 0.34790500638E+01 0.43049986947E+01
 0.52286874013E+01 0.61682294468E+01 0.69984257285E+01 0.75756585663E+01 0.77830165612E+01
 0.75751122252E+01 0.69973449972E+01 0.61672347842E+01 0.52287398040E+01 0.43062088432E+01
 0.34803347590E+01 0.27897494704E+01 0.22457614436E+01 0.18455366847E+01 0.15781879007E+01
 0.14279180005E+01 0.13480871907E+01 0.14216512234E+01 0.15786033456E+01 0.18320216909E+01
 0.21919523293E+01 0.26618038397E+01 0.32354784512E+01 0.38908881930E+01 0.45807459789E+01
 0.52286874013E+01 0.57392089180E+01 0.60220602477E+01 0.60218413944E+01 0.57385528737E+01
 0.52279236129E+01 0.45806702168E+01 0.38918959698E+01 0.32368043482E+01 0.26622342621E+01
 0.21912167692E+01 0.18309990753E+01 0.15781879007E+01 0.14218422394E+01 0.13482680630E+01
 0.13480596869E+01 0.14278556103E+01 0.15723294851E+01 0.17919395107E+01 0.20926874731E+01
 0.24730433005E+01 0.29209086994E+01 0.34089280878E+01 0.38908881930E+01 0.43049986947E+01
 0.45866468120E+01 0.46865439209E+01 0.45863151723E+01 0.43046228341E+01 0.38909560696E+01
 0.34096671504E+01 0.29218503323E+01 0.24733811035E+01 0.20921647840E+01 0.17911124855E+01
 0.15718827788E+01 0.14279180005E+01 0.13482680630E+01 0.13229468507E+01 0.16987920407E+01
 0.17499563408E+01 0.18366535452E+01 0.19664796131E+01 0.21414916957E+01 0.23559414204E+01
 0.25947425447E+01 0.28330415508E+01 0.30387085271E+01 0.31788580117E+01 0.32286839549E+01
 0.31789278440E+01 0.30388010021E+01 0.28331305033E+01 0.25948328894E+01 0.23560079141E+01
 0.21414731220E+01 0.19663586545E+01 0.18364956845E+01 0.17498432719E+01 0.16987467773E+01
 0.16734258775E+01 0.16659822456E+01 0.16734330272E+01 0.17499563408E+01 0.17536584308E+01
 0.17789594674E+01 0.18353761798E+01 0.19264553854E+01 0.20471917975E+01 0.21836888485E+01
 0.23154497066E+01 0.24198593874E+01 0.24776373782E+01 0.24776800488E+01 0.24199289101E+01
 0.23154523584E+01 0.21836212490E+01 0.20471304178E+01 0.19264359868E+01 0.18353488515E+01
 0.17788826905E+01 0.17535821850E+01 0.17499607926E+01 0.17562434509E+01 0.17622352783E+01
 0.17621900937E+01 0.17561684357E+01 0.18366535452E+01 0.17789594674E+01 0.17360437637E+01
 0.17201896205E+01 0.17360476560E+01 0.17789729681E+01 0.18366847626E+01 0.18933533146E+01
 0.19341902566E+01 0.19489955806E+01 0.19341603998E+01 0.18932914102E+01 0.18366005037E+01
 0.17788933509E+01 0.17360010715E+01 0.17201864541E+01 0.17360781922E+01 0.17790264245E+01
 0.18367506726E+01 0.18934129203E+01 0.19342198103E+01 0.19489895268E+01 0.19341453628E+01
 0.18933049590E+01 0.19664796131E+01 0.18353761798E+01 0.17201896205E+01 0.16352230610E+01
 0.15850757473E+01 0.15650691800E+01 0.15647303740E+01 0.15723408334E+01 0.15785916849E+01
 0.15785458647E+01 0.15722566695E+01 0.15646995998E+01 0.15651161341E+01 0.15851541475E+01
 0.16352908722E+01 0.17202422565E+01 0.18354164847E+01 0.19664983711E+01 0.20926508323E+01
 0.21918870548E+01 0.22464147048E+01 0.22464231044E+01 0.21919041250E+01 0.20926572092E+01
 0.21414916957E+01 0.19264553854E+01 0.17360476560E+01 0.15850757473E+01 0.14772624577E+01
 0.14078139212E+01 0.13677159334E+01 0.13478825253E+01 0.13419983292E+01 0.13478699139E+01
 0.13677373542E+01 0.14078971062E+01 0.14773847261E+01 0.15851946270E+01 0.17361246267E+01
 0.19264520177E+01 0.21413885079E+01 0.23559813682E+01 0.25397836353E+01 0.26638652856E+01
 0.27077148353E+01 0.26639535600E+01 0.25399410845E+01 0.23561493841E+01 0.23559414204E+01
 0.20471917975E+01 0.17789729681E+01 0.15650691800E+01 0.14078139212E+01 0.13018978111E+01
 0.12385417513E+01 0.12093569950E+01 0.12093574007E+01 0.12385680100E+01 0.13019721539E+01
 0.14078942945E+01 0.15650926713E+01 0.17789312897E+01 0.20471197972E+01 0.23558595192E+01
 0.26779825614E+01 0.29751046733E+01 0.32046483163E+01 0.33299834992E+01 0.33299960662E+01
 0.32046927499E+01 0.29751814016E+01 0.26780706103E+01 0.25947425447E+01 0.21836888485E+01
 0.18366847626E+01 0.15647303740E+01 0.13677159334E+01 0.12385417513E+01 0.11670184635E+01
 0.11443084369E+01 0.11669687598E+01 0.12385307300E+01 0.13677498120E+01 0.15647129397E+01
 0.18365833642E+01 0.21835853547E+01 0.25947034722E+01 0.30433442907E+01 0.34855143454E+01
 0.38641626510E+01 0.41209334950E+01 0.42119055667E+01 0.41208051735E+01 0.38640203970E+01
 0.34854353589E+01 0.30433241448E+01 0.28330415508E+01 0.23154497066E+01 0.18933533146E+01
 0.15723408334E+01 0.13478825253E+01 0.12093569950E+01 0.11443084369E+01 0.11442542755E+01
 0.12092783888E+01 0.13478712746E+01 0.15723371008E+01 0.18932995658E+01 0.23154334050E+01
 0.28331280525E+01 0.34242866576E+01 0.40438460154E+01 0.46224626616E+01 0.50760096697E+01
 0.53263915304E+01 0.53262899688E+01 0.50758309424E+01 0.46223713953E+01 0.40438001474E+01
 0.34241889090E+01 0.30387085271E+01 0.24198593874E+01 0.19341902566E+01 0.15785916849E+01
 0.13419983292E+01 0.12093574007E+01 0.11669687598E+01 0.12092783888E+01 0.13420049908E+01
 0.15787006105E+01 0.19342455124E+01 0.24198323773E+01 0.30387384673E+01 0.37788504691E+01
 0.46012867725E+01 0.54309270734E+01 0.61585324036E+01 0.66617508494E+01 0.68421154300E+01
 0.66617234118E+01 0.61585580519E+01 0.54309686512E+01 0.46012313005E+01 0.37787384971E+01
 0.31788580117E+01 0.24776373782E+01 0.19489955806E+01 0.15785458647E+01 0.13478699139E+01
 0.12385680100E+01 0.12385307300E+01 0.13478712746E+01 0.15787006105E+01 0.19491674271E+01
 0.24776352507E+01 0.31787325978E+01 0.40559808878E+01 0.50865135984E+01 0.62017453017E+01
 0.72764044531E+01 0.81413468647E+01 0.86275204844E+01 0.86275522676E+01 0.81414435306E+01
 0.72765206199E+01 0.62017968012E+01 0.50865186167E+01 0.40560532359E+01 0.32286839549E+01
 0.24776800488E+01 0.19341603998E+01 0.15722566695E+01 0.13677373542E+01 0.13019721539E+01
 0.13677498120E+01 0.15723371008E+01 0.19342455124E+01 0.24776352507E+01 0.32285348335E+01
 0.42088768490E+01 0.54203566741E+01 0.68168955638E+01 0.82768771712E+01 0.95971518792E+01
 0.10530926403E+02 0.10869611890E+02 0.10530926936E+02 0.95972204596E+01 0.82769802713E+01
 0.68169339372E+01 0.54203633595E+01 0.42089708800E+01 0.31789278440E+01 0.24199289101E+01
 0.18932914102E+01 0.15646995998E+01 0.14078971062E+01 0.14078942945E+01 0.15647129397E+01
 0.18932995658E+01 0.24198323773E+01 0.31787325978E+01 0.42088768490E+01 0.55397893880E+01
 0.71608063985E+01 0.89786707965E+01 0.10786104472E+02 0.12276355551E+02 0.13126728006E+02
 0.13126692376E+02 0.12276311158E+02 0.10786099072E+02 0.89786174262E+01 0.71606652876E+01
 0.55397110720E+01 0.42089896209E+01 0.30388010021E+01 0.23154523584E+01 0.18366005037E+01
 0.15651161341E+01 0.14773847261E+01 0.15650926713E+01 0.18365833642E+01 0.23154334050E+01
 0.30387384673E+01 0.40559808878E+01 0.54203566741E+01 0.71608063985E+01 0.92321213346E+01
 0.11460018479E+02 0.13520890030E+02 0.15001321019E+02 0.15542548516E+02 0.15001299861E+02
 0.13520817030E+02 0.11459878240E+02 0.92319634628E+01 0.71607246324E+01 0.54203929887E+01
 0.40560740126E+01 0.28331305033E+01 0.21836212490E+01 0.17788933509E+01 0.15851541475E+01
 0.15851946270E+01 0.17789312897E+01 0.21835853547E+01 0.28331280525E+01 0.37788504691E+01
 0.50865135984E+01 0.68168955638E+01 0.89786707965E+01 0.11460018479E+02 0.13973972979E+02
 0.16074735073E+02 0.17283052581E+02 0.17283068708E+02 0.16074728278E+02 0.13973918805E+02
 0.11460029533E+02 0.89787903998E+01 0.68169677519E+01 0.50864305200E+01 0.37787415964E+01
 0.25948328894E+01 0.20471304178E+01 0.17360010715E+01 0.16352908722E+01 0.17361246267E+01
 0.20471197972E+01 0.25947034722E+01 0.34242866576E+01 0.46012867725E+01 0.62017453017E+01
 0.82768771712E+01 0.10786104472E+02 0.13520890030E+02 0.16074735073E+02 0.17920048842E+02
 0.18596602952E+02 0.17920112727E+02 0.16074768609E+02 0.13520956576E+02 0.10786310234E+02
 0.82770529758E+01 0.62016452429E+01 0.46010432799E+01 0.34242376267E+01 0.23560079141E+01
 0.19264359868E+01 0.17201864541E+01 0.17202422565E+01 0.19264520177E+01 0.23558595192E+01
 0.30433442907E+01 0.40438460154E+01 0.54309270734E+01 0.72764044531E+01 0.95971518792E+01
 0.12276355551E+02 0.15001321019E+02 0.17283052581E+02 0.18596602952E+02 0.18596677106E+02
 0.17283122553E+02 0.15001241529E+02 0.12276286277E+02 0.95972234758E+01 0.72764271593E+01
 0.54307593289E+01 0.40437106009E+01 0.30434423866E+01 0.21414731220E+01 0.18353488515E+01
 0.17360781922E+01 0.18354164847E+01 0.21413885079E+01 0.26779825614E+01 0.34855143454E+01
 0.46224626616E+01 0.61585324036E+01 0.81413468647E+01 0.10530926403E+02 0.13126728006E+02
 0.15542548516E+02 0.17283068708E+02 0.17920112727E+02 0.17283122553E+02 0.15542401118E+02
 0.13126428174E+02 0.10530805035E+02 0.81414216309E+01 0.61585003759E+01 0.46222980945E+01
 0.34855071249E+01 0.26781629180E+01 0.19663586545E+01 0.17788826905E+01 0.17790264245E+01
 0.19664983711E+01 0.23559813682E+01 0.29751046733E+01 0.38641626510E+01 0.50760096697E+01
 0.66617508494E+01 0.86275204844E+01 0.10869611890E+02 0.13126692376E+02 0.15001299861E+02
 0.16074728278E+02 0.16074768609E+02 0.15001241529E+02 0.13126428174E+02 0.10869466359E+02
 0.86276878627E+01 0.66618870608E+01 0.50758590033E+01 0.38640430303E+01 0.29752833155E+01
 0.23561441407E+01 0.18364956845E+01 0.17535821850E+01 0.18367506726E+01 0.20926508323E+01
 0.25397836353E+01 0.32046483163E+01 0.41209334950E+01 0.53263915304E+01 0.68421154300E+01
 0.86275522676E+01 0.10530926936E+02 0.12276311158E+02 0.13520817030E+02 0.13973918805E+02
 0.13520956576E+02 0.12276286277E+02 0.10530805035E+02 0.86276878627E+01 0.68424142702E+01
 0.53264285917E+01 0.41207615282E+01 0.32046973029E+01 0.25400104414E+01 0.20926156054E+01
 0.17498432719E+01 0.17499607926E+01 0.18934129203E+01 0.21918870548E+01 0.26638652856E+01
 0.33299834992E+01 0.42119055667E+01 0.53262899688E+01 0.66617234118E+01 0.81414435306E+01
 0.95972204596E+01 0.10786099072E+02 0.11459878240E+02 0.11460029533E+02 0.10786310234E+02
 0.95972234758E+01 0.81414216309E+01 0.66618870608E+01 0.53264285917E+01 0.42118134976E+01
 0.33298890715E+01 0.26639852961E+01 0.21919938573E+01 0.18932897606E+01 0.16987467773E+01
 0.17562434509E+01 0.19342198103E+01 0.22464147048E+01 0.27077148353E+01 0.33299960662E+01
 0.41208051735E+01 0.50758309424E+01 0.61585580519E+01 0.72765206199E+01 0.82769802713E+01
 0.89786174262E+01 0.92319634628E+01 0.89787903998E+01 0.82770529758E+01 0.72764271593E+01
 0.61585003759E+01 0.50758590033E+01 0.41207615282E+01 0.33298890715E+01 0.27077269472E+01
 0.22465223040E+01 0.19342123933E+01 0.17561314544E+01 0.16734258775E+01 0.17622352783E+01
 0.19489895268E+01 0.22464231044E+01 0.26639535600E+01 0.32046927499E+01 0.38640203970E+01
 0.46223713953E+01 0.54309686512E+01 0.62017968012E+01 0.68169339372E+01 0.71606652876E+01
 0.71607246324E+01 0.68169677519E+01 0.62016452429E+01 0.54307593289E+01 0.46222980945E+01
 0.38640430303E+01 0.32046973029E+01 0.26639852961E+01 0.22465223040E+01 0.19490209940E+01
 0.17621231250E+01 0.16733416334E+01 0.16659822456E+01 0.17621900937E+01 0.19341453628E+01
 0.21919041250E+01 0.25399410845E+01 0.29751814016E+01 0.34854353589E+01 0.40438001474E+01
 0.46012313005E+01 0.50865186167E+01 0.54203633595E+01 0.55397110720E+01 0.54203929887E+01
 0.50864305200E+01 0.46010432799E+01 0.40437106009E+01 0.34855071249E+01 0.29752833155E+01
 0.25400104414E+01 0.21919938573E+01 0.19342123933E+01 0.17621231250E+01 0.16658513076E+01
 0.16352693723E+01 0.16734330272E+01 0.17561684357E+01 0.18933049590E+01 0.20926572092E+01
 0.23561493841E+01 0.26780706103E+01 0.30433241448E+01 0.34241889090E+01 0.37787384971E+01
 0.40560532359E+01 0.42089708800E+01 0.42089896209E+01 0.40560740126E+01 0.37787415964E+01
 0.34242376267E+01 0.30434423866E+01 0.26781629180E+01 0.23561441407E+01 0.20926156054E+01
 0.18932897606E+01 0.17561314544E+01 0.16733416334E+01 0.16352693723E+01 0.16353243431E+01
 0.21352608864E+01 0.21469583027E+01 0.21836819683E+01 0.22528675050E+01 0.23559662029E+01
 0.24876848640E+01 0.26354199074E+01 0.27793439894E+01 0.28951061409E+01 0.29599355161E+01
 0.29599932590E+01 0.28952631525E+01 0.27794935691E+01 0.26353712275E+01 0.24873897359E+01
 0.23556787078E+01 0.22529086121E+01 0.21840411323E+01 0.21472682359E+01 0.21352155927E+01
 0.21369596804E+01 0.21414576953E+01 0.21416248397E+01 0.21372553530E+01 0.21469583027E+01
 0.20890944670E+01 0.20471927287E+01 0.20319651359E+01 0.20472026812E+01 0.20890941554E+01
 0.21469500191E+01 0.22054709120E+01 0.22486437587E+01 0.22644210943E+01 0.22484458443E+01
 0.22053014943E+01 0.21469521065E+01 0.20891686295E+01 0.20472059144E+01 0.20319256380E+01
 0.20472250125E+01 0.20891810150E+01 0.21469521761E+01 0.22053066620E+01 0.22484546104E+01
 0.22644134198E+01 0.22486236816E+01 0.22054642132E+01 0.21836819683E+01 0.20471927287E+01
 0.19264532316E+01 0.18353796541E+01 0.17789729573E+01 0.17536751924E+01 0.17499750567E+01
 0.17561894058E+01 0.17621934588E+01 0.17621916714E+01 0.17561533906E+01 0.17498613759E+01
 0.17535112715E+01 0.17788576455E+01 0.18353785517E+01 0.19265230650E+01 0.20472529081E+01
 0.21837356103E+01 0.23155247636E+01 0.24199502886E+01 0.24776540449E+01 0.24775771049E+01
 0.24197952326E+01 0.23154130928E+01 0.22528675050E+01 0.20319651359E+01 0.18353796541E+01
 0.16782759229E+01 0.15650732768E+01 0.14915854161E+01 0.14489501868E+01 0.14278346087E+01
 0.14215928138E+01 0.14278668736E+01 0.14489923573E+01 0.14915835078E+01 0.15649871142E+01
 0.16781452940E+01 0.18353032704E+01 0.20320052651E+01 0.22530075091E+01 0.24732161671E+01
 0.26619240685E+01 0.27895005502E+01 0.28345717804E+01 0.27893846741E+01 0.26617428767E+01
 0.24730289977E+01 0.23559662029E+01 0.20472026812E+01 0.17789729573E+01 0.15650732768E+01
 0.14078211336E+01 0.13018928644E+01 0.12385180709E+01 0.12093183209E+01 0.12093056041E+01
 0.12385129010E+01 0.13019457022E+01 0.14079280778E+01 0.15651819965E+01 0.17790413042E+01
 0.20472208912E+01 0.23559354068E+01 0.26780137321E+01 0.29750752816E+01 0.32045714560E+01
 0.33298964873E+01 0.33299284249E+01 0.32046543074E+01 0.29751742580E+01 0.26780895201E+01
 0.24876848640E+01 0.20890941554E+01 0.17536751924E+01 0.14915854161E+01 0.13018928644E+01
 0.11773405178E+01 0.11082988230E+01 0.10864981196E+01 0.11084978679E+01 0.11774378498E+01
 0.13017705786E+01 0.14915276816E+01 0.17539529905E+01 0.20895054151E+01 0.24877520008E+01
 0.29231282113E+01 0.33529758795E+01 0.37216073942E+01 0.39718165751E+01 0.40604993272E+01
 0.39717778684E+01 0.37218136029E+01 0.33534819923E+01 0.29235398060E+01 0.26354199074E+01
 0.21469500191E+01 0.17499750567E+01 0.14489501868E+01 0.12385180709E+01 0.11082988230E+01
 0.10469976289E+01 0.10470465972E+01 0.11083534438E+01 0.12384694466E+01 0.14489045138E+01
 0.17501379039E+01 0.21472679304E+01 0.26355317176E+01 0.31943251789E+01 0.37811340763E+01
 0.43302169005E+01 0.47613552640E+01 0.49996195709E+01 0.49994580654E+01 0.47611435788E+01
 0.43303730426E+01 0.37816059070E+01 0.31946425455E+01 0.27793439894E+01 0.22054709120E+01
 0.17561894058E+01 0.14278346087E+01 0.12093183209E+01 0.10864981196E+01 0.10470465972E+01
 0.10861617799E+01 0.12090940914E+01 0.14280871847E+01 0.17567775417E+01 0.22058868516E+01
 0.27792052835E+01 0.34661585568E+01 0.42308400068E+01 0.50032158865E+01 0.56812348155E+01
 0.61503972888E+01 0.63184072299E+01 0.61498582237E+01 0.56807089016E+01 0.50032312923E+01
 0.42313919260E+01 0.34667574051E+01 0.28951061409E+01 0.22486437587E+01 0.17621934588E+01
 0.14215928138E+01 0.12093056041E+01 0.11084978679E+01 0.11083534438E+01 0.12090940914E+01
 0.14217528251E+01 0.17628909615E+01 0.22494727539E+01 0.28953459867E+01 0.37042143606E+01
 0.46550678731E+01 0.56841871378E+01 0.66754324225E+01 0.74725895337E+01 0.79200776753E+01
 0.79195365791E+01 0.74715268630E+01 0.66749434407E+01 0.56847828697E+01 0.46562091132E+01
 0.37049112081E+01 0.29599355161E+01 0.22644210943E+01 0.17621916714E+01 0.14278668736E+01
 0.12385129010E+01 0.11774378498E+01 0.12384694466E+01 0.14280871847E+01 0.17628909615E+01
 0.22652958003E+01 0.29602473356E+01 0.38688951760E+01 0.49924095409E+01 0.62860977758E+01
 0.76351014452E+01 0.88511986635E+01 0.97088265610E+01 0.10019023386E+02 0.97078266414E+01
 0.88500692854E+01 0.76348616723E+01 0.62870206431E+01 0.49937610078E+01 0.38696209680E+01
 0.29599932590E+01 0.22484458443E+01 0.17561533906E+01 0.14489923573E+01 0.13019457022E+01
 0.13017705786E+01 0.14489045138E+01 0.17567775417E+01 0.22494727539E+01 0.29602473356E+01
 0.39276557899E+01 0.51802689892E+01 0.67052277708E+01 0.84090440881E+01 0.10093226602E+02
 0.11473537633E+02 0.12257654202E+02 0.12257218918E+02 0.11472297945E+02 0.10091696527E+02
 0.84083212631E+01 0.67060661773E+01 0.51820472765E+01 0.39288344775E+01 0.28952631525E+01
 0.22053014943E+01 0.17498613759E+01 0.14915835078E+01 0.14079280778E+01 0.14915276816E+01
 0.17501379039E+01 0.22058868516E+01 0.28953459867E+01 0.38688951760E+01 0.51802689892E+01
 0.68557103378E+01 0.88437964890E+01 0.10967231664E+02 0.12914192467E+02 0.14302167132E+02
 0.14807651246E+02 0.14301426525E+02 0.12912508884E+02 0.10965211956E+02 0.88428702593E+01
 0.68566207520E+01 0.51820872871E+01 0.38700383896E+01 0.27794935691E+01 0.21469521065E+01
 0.17535112715E+01 0.15649871142E+01 0.15651819965E+01 0.17539529905E+01 0.21472679304E+01
 0.27792052835E+01 0.37042143606E+01 0.49924095409E+01 0.67052277708E+01 0.88437964890E+01
 0.11282772057E+02 0.13728706482E+02 0.15754845981E+02 0.16916086565E+02 0.16916223929E+02
 0.15754567492E+02 0.13727166611E+02 0.11280661527E+02 0.88427822840E+01 0.67059782112E+01
 0.49940025185E+01 0.37053864777E+01 0.26353712275E+01 0.20891686295E+01 0.17788576455E+01
 0.16781452940E+01 0.17790413042E+01 0.20895054151E+01 0.26355317176E+01 0.34661585568E+01
 0.46550678731E+01 0.62860977758E+01 0.84090440881E+01 0.10967231664E+02 0.13728706482E+02
 0.16282723858E+02 0.18120870734E+02 0.18794602558E+02 0.18122272852E+02 0.16283122580E+02
 0.13726865130E+02 0.10964877368E+02 0.84084911009E+01 0.62874549679E+01 0.46566692949E+01
 0.34668089463E+01 0.24873897359E+01 0.20472059144E+01 0.18353785517E+01 0.18353032704E+01
 0.20472208912E+01 0.24877520008E+01 0.31943251789E+01 0.42308400068E+01 0.56841871378E+01
 0.76351014452E+01 0.10093226602E+02 0.12914192467E+02 0.15754845981E+02 0.18120870734E+02
 0.19480929598E+02 0.19481988768E+02 0.18122418465E+02 0.15754416299E+02 0.12912062385E+02
 0.10091903453E+02 0.76358591624E+01 0.56857774403E+01 0.42315871199E+01 0.31940790106E+01
 0.23556787078E+01 0.20319256380E+01 0.19265230650E+01 0.20320052651E+01 0.23559354068E+01
 0.29231282113E+01 0.37811340763E+01 0.50032158865E+01 0.66754324225E+01 0.88511986635E+01
 0.11473537633E+02 0.14302167132E+02 0.16916086565E+02 0.18794602558E+02 0.19481988768E+02
 0.18795435391E+02 0.16916382824E+02 0.14301345775E+02 0.11472676546E+02 0.88513894389E+01
 0.66763278845E+01 0.50037665165E+01 0.37809923705E+01 0.29227272919E+01 0.22529086121E+01
 0.20472250125E+01 0.20472529081E+01 0.22530075091E+01 0.26780137321E+01 0.33529758795E+01
 0.43302169005E+01 0.56812348155E+01 0.74725895337E+01 0.97088265610E+01 0.12257654202E+02
 0.14807651246E+02 0.16916223929E+02 0.18122272852E+02 0.18122418465E+02 0.16916382824E+02
 0.14807585612E+02 0.12257756491E+02 0.97094397145E+01 0.74732301645E+01 0.56811874809E+01
 0.43295433536E+01 0.33523186895E+01 0.26777030688E+01 0.21840411323E+01 0.20891810150E+01
 0.21837356103E+01 0.24732161671E+01 0.29750752816E+01 0.37216073942E+01 0.47613552640E+01
 0.61503972888E+01 0.79200776753E+01 0.10019023386E+02 0.12257218918E+02 0.14301426525E+02
 0.15754567492E+02 0.16283122580E+02 0.15754416299E+02 0.14301345775E+02 0.12257756491E+02
 0.10020394849E+02 0.79214094175E+01 0.61504386743E+01 0.47600345275E+01 0.37201508685E+01
 0.29745051659E+01 0.24734166331E+01 0.21472682359E+01 0.21469521761E+01 0.23155247636E+01
 0.26619240685E+01 0.32045714560E+01 0.39718165751E+01 0.49996195709E+01 0.63184072299E+01
 0.79195365791E+01 0.97078266414E+01 0.11472297945E+02 0.12912508884E+02 0.13727166611E+02
 0.13726865130E+02 0.12912062385E+02 0.11472676546E+02 0.97094397145E+01 0.79214094175E+01
 0.63189092957E+01 0.49982840721E+01 0.39699356096E+01 0.32036854347E+01 0.26622586839E+01
 0.23162346744E+01 0.21352155927E+01 0.22053066620E+01 0.24199502886E+01 0.27895005502E+01
 0.33298964873E+01 0.40604993272E+01 0.49994580654E+01 0.61498582237E+01 0.74715268630E+01
 0.88500692854E+01 0.10091696527E+02 0.10965211956E+02 0.11280661527E+02 0.10964877368E+02
 0.10091903453E+02 0.88513894389E+01 0.74732301645E+01 0.61504386743E+01 0.49982840721E+01
 0.40586108265E+01 0.33288852236E+01 0.27898854827E+01 0.24209877549E+01 0.22060482243E+01
 0.21369596804E+01 0.22484546104E+01 0.24776540449E+01 0.28345717804E+01 0.33299284249E+01
 0.39717778684E+01 0.47611435788E+01 0.56807089016E+01 0.66749434407E+01 0.76348616723E+01
 0.84083212631E+01 0.88428702593E+01 0.88427822840E+01 0.84084911009E+01 0.76358591624E+01
 0.66763278845E+01 0.56811874809E+01 0.47600345275E+01 0.39699356096E+01 0.33288852236E+01
 0.28349582829E+01 0.24788099971E+01 0.22494154707E+01 0.21372948972E+01 0.21414576953E+01
 0.22644134198E+01 0.24775771049E+01 0.27893846741E+01 0.32046543074E+01 0.37218136029E+01
 0.43303730426E+01 0.50032312923E+01 0.56847828697E+01 0.62870206431E+01 0.67060661773E+01
 0.68566207520E+01 0.67059782112E+01 0.62874549679E+01 0.56857774403E+01 0.50037665165E+01
 0.43295433536E+01 0.37201508685E+01 0.32036854347E+01 0.27898854827E+01 0.24788099971E+01
 0.22652470373E+01 0.21416642527E+01 0.21013806297E+01 0.21416248397E+01 0.22486236816E+01
 0.24197952326E+01 0.26617428767E+01 0.29751742580E+01 0.33534819923E+01 0.37816059070E+01
 0.42313919260E+01 0.46562091132E+01 0.49937610078E+01 0.51820472765E+01 0.51820872871E+01
 0.49940025185E+01 0.46566692949E+01 0.42315871199E+01 0.37809923705E+01 0.33523186895E+01
 0.29745051659E+01 0.26622586839E+01 0.24209877549E+01 0.22494154707E+01 0.21416642527E+01
 0.20904395826E+01 0.20905710818E+01 0.21372553530E+01 0.22054642132E+01 0.23154130928E+01
 0.24730289977E+01 0.26780895201E+01 0.29235398060E+01 0.31946425455E+01 0.34667574051E+01
 0.37049112081E+01 0.38696209680E+01 0.39288344775E+01 0.38700383896E+01 0.37053864777E+01
 0.34668089463E+01 0.31940790106E+01 0.29227272919E+01 0.26777030688E+01 0.24734166331E+01
 0.23162346744E+01 0.22060482243E+01 0.21372948972E+01 0.21013806297E+01 0.20905710818E+01
 0.21015839027E+01 0.26933341668E+01 0.26354557527E+01 0.25947609629E+01 0.25802444508E+01
 0.25947902615E+01 0.26354397405E+01 0.26932637312E+01 0.27537523577E+01 0.27996980237E+01
 0.28168539923E+01 0.27997217255E+01 0.27538822332E+01 0.26934671519E+01 0.26355558654E+01
 0.25947493945E+01 0.25801470323E+01 0.25947034976E+01 0.26354190533E+01 0.26932810006E+01
 0.27537626775E+01 0.27997026669E+01 0.28168693644E+01 0.27997187474E+01 0.27538088102E+01
 0.26354557527E+01 0.24876848874E+01 0.23559407185E+01 0.22528632687E+01 0.21836940177E+01
 0.21469399260E+01 0.21352173810E+01 0.21372417119E+01 0.21416550744E+01 0.21415005476E+01
 0.21370144376E+01 0.21353028279E+01 0.21473529987E+01 0.21840563942E+01 0.22528524367E+01
 0.23556049687E+01 0.24873136529E+01 0.26352729779E+01 0.27794029613E+01 0.28952429839E+01
 0.29600396650E+01 0.29599841442E+01 0.28951339417E+01 0.27793783995E+01 0.25947609629E+01
 0.23559407185E+01 0.21414741524E+01 0.19664804636E+01 0.18366712806E+01 0.17499581504E+01
 0.16987812076E+01 0.16734415015E+01 0.16660029928E+01 0.16734221286E+01 0.16987226165E+01
 0.17498366705E+01 0.18365080199E+01 0.19663592685E+01 0.21414660232E+01 0.23560241108E+01
 0.25948630363E+01 0.28331348557E+01 0.30387808503E+01 0.31789192882E+01 0.32286879118E+01
 0.31788449447E+01 0.30386849749E+01 0.28330419281E+01 0.25802444508E+01 0.22528632687E+01
 0.19664804636E+01 0.17358444070E+01 0.15647385568E+01 0.14489508116E+01 0.13797616999E+01
 0.13480312047E+01 0.13480502106E+01 0.13798065860E+01 0.14489389593E+01 0.15645300953E+01
 0.17354427332E+01 0.19661642530E+01 0.22529575269E+01 0.25807375354E+01 0.29214388305E+01
 0.32356231354E+01 0.34788647102E+01 0.36120704745E+01 0.36121784141E+01 0.34789998933E+01
 0.32354564713E+01 0.29209313622E+01 0.25947902615E+01 0.21836940177E+01 0.18366712806E+01
 0.15647385568E+01 0.13677292232E+01 0.12385174077E+01 0.11669631617E+01 0.11442606404E+01
 0.11669380363E+01 0.12385193917E+01 0.13677984658E+01 0.15648500846E+01 0.18367561153E+01
 0.21837087810E+01 0.25947527742E+01 0.30433371273E+01 0.34854419954E+01 0.38640161916E+01
 0.41207685603E+01 0.42118016457E+01 0.41207767237E+01 0.38640304845E+01 0.34854688873E+01
 0.30433811563E+01 0.26354397405E+01 0.21469399260E+01 0.17499581504E+01 0.14489508116E+01
 0.12385174077E+01 0.11082703297E+01 0.10469594021E+01 0.10470351346E+01 0.11083739579E+01
 0.12385132246E+01 0.14489809018E+01 0.17502417826E+01 0.21473475345E+01 0.26355383941E+01
 0.31942696859E+01 0.37810533852E+01 0.43301202094E+01 0.47612484290E+01 0.49995450950E+01
 0.49994545403E+01 0.47611903251E+01 0.43304225964E+01 0.37816452777E+01 0.31946791340E+01
 0.26932637312E+01 0.21352173810E+01 0.16987812076E+01 0.13797616999E+01 0.11669631617E+01
 0.10469594021E+01 0.10084823570E+01 0.10470210208E+01 0.11670195534E+01 0.13797493500E+01
 0.16986886274E+01 0.21350844188E+01 0.26931666912E+01 0.33626042990E+01 0.41083477038E+01
 0.48624639398E+01 0.55256971520E+01 0.59857113743E+01 0.61509690420E+01 0.59858275395E+01
 0.55257823512E+01 0.48624279867E+01 0.41082656134E+01 0.33625987800E+01 0.27537523577E+01
 0.21372417119E+01 0.16734415015E+01 0.13480312047E+01 0.11442606404E+01 0.10470351346E+01
 0.10470210208E+01 0.11442368463E+01 0.13480071107E+01 0.16733457303E+01 0.21369738590E+01
 0.27533763682E+01 0.35270104769E+01 0.44381493390E+01 0.54261057779E+01 0.63798351328E+01
 0.71488465788E+01 0.75817635058E+01 0.75817721162E+01 0.71487215262E+01 0.63794064951E+01
 0.54255668202E+01 0.44379043545E+01 0.35271989696E+01 0.27996980237E+01 0.21416550744E+01
 0.16660029928E+01 0.13480502106E+01 0.11669380363E+01 0.11083739579E+01 0.11670195534E+01
 0.13480071107E+01 0.16658245228E+01 0.21415855837E+01 0.27998407170E+01 0.36617445239E+01
 0.47293285706E+01 0.59608448436E+01 0.72472222033E+01 0.84085513639E+01 0.92285543780E+01
 0.95256891306E+01 0.92285224413E+01 0.84084885564E+01 0.72471903568E+01 0.59608704246E+01
 0.47292974578E+01 0.36615784737E+01 0.28168539923E+01 0.21415005476E+01 0.16734221286E+01
 0.13798065860E+01 0.12385193917E+01 0.12385132246E+01 0.13797493500E+01 0.16733457303E+01
 0.21415855837E+01 0.28171528077E+01 0.37382542872E+01 0.49329473661E+01 0.63885618954E+01
 0.80139252052E+01 0.96172849732E+01 0.10927781521E+02 0.11670859064E+02 0.11671214464E+02
 0.10928498787E+02 0.96177947549E+01 0.80140918552E+01 0.63885596895E+01 0.49328131507E+01
 0.37379525624E+01 0.27997217255E+01 0.21370144376E+01 0.16987226165E+01 0.14489389593E+01
 0.13677984658E+01 0.14489809018E+01 0.16986886274E+01 0.21369738590E+01 0.27998407170E+01
 0.37382542872E+01 0.50061189759E+01 0.66278335673E+01 0.85473345054E+01 0.10583843996E+02
 0.12435636724E+02 0.13751014688E+02 0.14229575335E+02 0.13751212428E+02 0.12435743747E+02
 0.10583813835E+02 0.85474045423E+01 0.66280189130E+01 0.50061530597E+01 0.37380839640E+01
 0.27538822332E+01 0.21353028279E+01 0.17498366705E+01 0.15645300953E+01 0.15648500846E+01
 0.17502417826E+01 0.21350844188E+01 0.27533763682E+01 0.36617445239E+01 0.49329473661E+01
 0.66278335673E+01 0.87385676498E+01 0.11122600431E+02 0.13486811400E+02 0.15432819365E+02
 0.16541201838E+02 0.16540673265E+02 0.15431709364E+02 0.13486101966E+02 0.11122778131E+02
 0.87390914041E+01 0.66278927444E+01 0.49326154180E+01 0.36617737804E+01 0.26934671519E+01
 0.21473529987E+01 0.18365080199E+01 0.17354427332E+01 0.18367561153E+01 0.21473475345E+01
 0.26931666912E+01 0.35270104769E+01 0.47293285706E+01 0.63885618954E+01 0.85473345054E+01
 0.11122600431E+02 0.13864555853E+02 0.16377861414E+02 0.18167661641E+02 0.18818221751E+02
 0.18167652760E+02 0.16377648869E+02 0.13864280160E+02 0.11122585904E+02 0.85474518681E+01
 0.63884373173E+01 0.47290956590E+01 0.35271029311E+01 0.26355558654E+01 0.21840563942E+01
 0.19663592685E+01 0.19661642530E+01 0.21837087810E+01 0.26355383941E+01 0.33626042990E+01
 0.44381493390E+01 0.59608448436E+01 0.80139252052E+01 0.10583843996E+02 0.13486811400E+02
 0.16377861414E+02 0.18753790040E+02 0.20102349354E+02 0.20103231204E+02 0.18755289300E+02
 0.16378239201E+02 0.13486128891E+02 0.10583444777E+02 0.80142489557E+01 0.59610904605E+01
 0.44378158834E+01 0.33621701829E+01 0.25947493945E+01 0.22528524367E+01 0.21414660232E+01
 0.22529575269E+01 0.25947527742E+01 0.31942696859E+01 0.41083477038E+01 0.54261057779E+01
 0.72472222033E+01 0.96172849732E+01 0.12435636724E+02 0.15432819365E+02 0.18167661641E+02
 0.20102349354E+02 0.20802442142E+02 0.20102628788E+02 0.18167804627E+02 0.15432757386E+02
 0.12435724339E+02 0.96175789246E+01 0.72473601474E+01 0.54259767170E+01 0.41082504535E+01
 0.31943245990E+01 0.25801470323E+01 0.23556049687E+01 0.23560241108E+01 0.25807375354E+01
 0.30433371273E+01 0.37810533852E+01 0.48624639398E+01 0.63798351328E+01 0.84085513639E+01
 0.10927781521E+02 0.13751014688E+02 0.16541201838E+02 0.18818221751E+02 0.20103231204E+02
 0.20102628788E+02 0.18817082603E+02 0.16540741910E+02 0.13751555479E+02 0.10928431427E+02
 0.84084769594E+01 0.63794071838E+01 0.48625888488E+01 0.37816757549E+01 0.30434956025E+01
 0.25947034976E+01 0.24873136529E+01 0.25948630363E+01 0.29214388305E+01 0.34854419954E+01
 0.43301202094E+01 0.55256971520E+01 0.71488465788E+01 0.92285543780E+01 0.11670859064E+02
 0.14229575335E+02 0.16540673265E+02 0.18167652760E+02 0.18755289300E+02 0.18167804627E+02
 0.16540741910E+02 0.14229485156E+02 0.11670759042E+02 0.92285027461E+01 0.71487696568E+01
 0.55256445080E+01 0.43302100481E+01 0.34855680360E+01 0.29213869315E+01 0.26354190533E+01
 0.26352729779E+01 0.28331348557E+01 0.32356231354E+01 0.38640161916E+01 0.47612484290E+01
 0.59857113743E+01 0.75817635058E+01 0.95256891306E+01 0.11671214464E+02 0.13751212428E+02
 0.15431709364E+02 0.16377648869E+02 0.16378239201E+02 0.15432757386E+02 0.13751555479E+02
 0.11670759042E+02 0.95252766365E+01 0.75818477816E+01 0.59858945490E+01 0.47610979721E+01
 0.38637087522E+01 0.32355710108E+01 0.28333586018E+01 0.26932810006E+01 0.27794029613E+01
 0.30387808503E+01 0.34788647102E+01 0.41207685603E+01 0.49995450950E+01 0.61509690420E+01
 0.75817721162E+01 0.92285224413E+01 0.10928498787E+02 0.12435743747E+02 0.13486101966E+02
 0.13864280160E+02 0.13486128891E+02 0.12435724339E+02 0.10928431427E+02 0.92285027461E+01
 0.75818477816E+01 0.61510683618E+01 0.49995829769E+01 0.41207419838E+01 0.34788137745E+01
 0.30387287685E+01 0.27793663088E+01 0.27537626775E+01 0.28952429839E+01 0.31789192882E+01
 0.36120704745E+01 0.42118016457E+01 0.49994545403E+01 0.59858275395E+01 0.71487215262E+01
 0.84084885564E+01 0.96177947549E+01 0.10583813835E+02 0.11122778131E+02 0.11122585904E+02
 0.10583444777E+02 0.96175789246E+01 0.84084769594E+01 0.71487696568E+01 0.59858945490E+01
 0.49995829769E+01 0.42119259286E+01 0.36120755699E+01 0.31788236293E+01 0.28951570442E+01
 0.27537353647E+01 0.27997026669E+01 0.29600396650E+01 0.32286879118E+01 0.36121784141E+01
 0.41207767237E+01 0.47611903251E+01 0.55257823512E+01 0.63794064951E+01 0.72471903568E+01
 0.80140918552E+01 0.85474045423E+01 0.87390914041E+01 0.85474518681E+01 0.80142489557E+01
 0.72473601474E+01 0.63794071838E+01 0.55256445080E+01 0.47610979721E+01 0.41207419838E+01
 0.36120755699E+01 0.32285673468E+01 0.29600715713E+01 0.27998314403E+01 0.27462424356E+01
 0.28168693644E+01 0.29599841442E+01 0.31788449447E+01 0.34789998933E+01 0.38640304845E+01
 0.43304225964E+01 0.48624279867E+01 0.54255668202E+01 0.59608704246E+01 0.63885596895E+01
 0.66280189130E+01 0.66278927444E+01 0.63884373173E+01 0.59610904605E+01 0.54259767170E+01
 0.48625888488E+01 0.43302100481E+01 0.38637087522E+01 0.34788137745E+01 0.31788236293E+01
 0.29600715713E+01 0.28169972345E+01 0.27459696149E+01 0.27459063478E+01 0.27997187474E+01
 0.28951339417E+01 0.30386849749E+01 0.32354564713E+01 0.34854688873E+01 0.37816452777E+01
 0.41082656134E+01 0.44379043545E+01 0.47292974578E+01 0.49328131507E+01 0.50061530597E+01
 0.49326154180E+01 0.47290956590E+01 0.44378158834E+01 0.41082504535E+01 0.37816757549E+01
 0.34855680360E+01 0.32355710108E+01 0.30387287685E+01 0.28951570442E+01 0.27998314403E+01
 0.27459696149E+01 0.27285225635E+01 0.27458277394E+01 0.27538088102E+01 0.27793783995E+01
 0.28330419281E+01 0.29209313622E+01 0.30433811563E+01 0.31946791340E+01 0.33625987800E+01
 0.35271989696E+01 0.36615784737E+01 0.37379525624E+01 0.37380839640E+01 0.36617737804E+01
 0.35271029311E+01 0.33621701829E+01 0.31943245990E+01 0.30434956025E+01 0.29213869315E+01
 0.28333586018E+01 0.27793663088E+01 0.27537353647E+01 0.27462424356E+01 0.27459063478E+01
 0.27458277394E+01 0.27461637499E+01 0.33626547342E+01 0.31946678926E+01 0.30433328874E+01
 0.29209392520E+01 0.28330832100E+01 0.27793560447E+01 0.27537393882E+01 0.27461488638E+01
 0.27458732100E+01 0.27459437549E+01 0.27462900237E+01 0.27538559785E+01 0.27795007585E+01
 0.28333826268E+01 0.29213045693E+01 0.30434053300E+01 0.31942353881E+01 0.33620304208E+01
 0.35269687714E+01 0.36617578917E+01 0.37381643111E+01 0.37380107158E+01 0.36615968059E+01
 0.35272452862E+01 0.31946678926E+01 0.29235154456E+01 0.26780448731E+01 0.24730288973E+01
 0.23154313285E+01 0.22054333634E+01 0.21372069432E+01 0.21016060212E+01 0.20906614483E+01
 0.21014688321E+01 0.21373682578E+01 0.22061249783E+01 0.23162577925E+01 0.24733140377E+01
 0.26775199412E+01 0.29225708421E+01 0.31939719430E+01 0.34667216790E+01 0.37053596634E+01
 0.38701297715E+01 0.39289851892E+01 0.38697160748E+01 0.37049401349E+01 0.34667854646E+01
 0.30433328874E+01 0.26780448731E+01 0.23561105339E+01 0.20926592795E+01 0.18933260251E+01
 0.17561563816E+01 0.16734182565E+01 0.16353703397E+01 0.16353496595E+01 0.16733787907E+01
 0.17561190105E+01 0.18932660656E+01 0.20925627836E+01 0.23560292404E+01 0.26780381750E+01
 0.30433895124E+01 0.34242494940E+01 0.37787645885E+01 0.40561192078E+01 0.42090890370E+01
 0.42090726161E+01 0.40560805373E+01 0.37787132322E+01 0.34241832358E+01 0.29209392520E+01
 0.24730288973E+01 0.20926592795E+01 0.17919567599E+01 0.15723634924E+01 0.14278480081E+01
 0.13480372438E+01 0.13229640928E+01 0.13482948622E+01 0.14278994121E+01 0.15718523247E+01
 0.17911308323E+01 0.20922032561E+01 0.24733798330E+01 0.29218335015E+01 0.34096864276E+01
 0.38909791167E+01 0.43045938500E+01 0.45862684711E+01 0.46865424723E+01 0.45866652767E+01
 0.43049808765E+01 0.38908614729E+01 0.34089460876E+01 0.28330832100E+01 0.23154313285E+01
 0.18933260251E+01 0.15723634924E+01 0.13479090612E+01 0.12093249338E+01 0.11442598679E+01
 0.11442582830E+01 0.12093148374E+01 0.13479005329E+01 0.15723977525E+01 0.18934211943E+01
 0.23155361193E+01 0.28331256830E+01 0.34242123022E+01 0.40437682239E+01 0.46223654375E+01
 0.50758694078E+01 0.53262824861E+01 0.53262884863E+01 0.50758911558E+01 0.46224105094E+01
 0.40438284065E+01 0.34242445863E+01 0.27793560447E+01 0.22054333634E+01 0.17561563816E+01
 0.14278480081E+01 0.12093249338E+01 0.10864534585E+01 0.10470114792E+01 0.10862040969E+01
 0.12091829598E+01 0.14281695619E+01 0.17568637114E+01 0.22059719377E+01 0.27792067567E+01
 0.34660300762E+01 0.42306593562E+01 0.50030729365E+01 0.56811252708E+01 0.61503089073E+01
 0.63184020604E+01 0.61499682730E+01 0.56808468041E+01 0.50033052248E+01 0.42314223510E+01
 0.34667922656E+01 0.27537393882E+01 0.21372069432E+01 0.16734182565E+01 0.13480372438E+01
 0.11442598679E+01 0.10470114792E+01 0.10470214043E+01 0.11442922202E+01 0.13480766119E+01
 0.16733831890E+01 0.21369824079E+01 0.27533570049E+01 0.35269316805E+01 0.44380162006E+01
 0.54259899072E+01 0.63797885155E+01 0.71488495801E+01 0.75817941545E+01 0.75818499059E+01
 0.71488386654E+01 0.63794943084E+01 0.54255835325E+01 0.44378889708E+01 0.35271931408E+01
 0.27461488638E+01 0.21016060212E+01 0.16353703397E+01 0.13229640928E+01 0.11442582830E+01
 0.10862040969E+01 0.11442922202E+01 0.13230420740E+01 0.16352748698E+01 0.21009621947E+01
 0.27450179588E+01 0.35899205783E+01 0.46388423726E+01 0.58506607917E+01 0.71172351192E+01
 0.82608918654E+01 0.90686901055E+01 0.93618218561E+01 0.90693060938E+01 0.82608846717E+01
 0.71159509695E+01 0.58490468873E+01 0.46382946948E+01 0.35906767608E+01 0.27458732100E+01
 0.20906614483E+01 0.16353496595E+01 0.13482948622E+01 0.12093148374E+01 0.12091829598E+01
 0.13480766119E+01 0.16352748698E+01 0.20905612986E+01 0.27453808393E+01 0.36387286323E+01
 0.48006263811E+01 0.62198230068E+01 0.78053900636E+01 0.93669988248E+01 0.10640066998E+02
 0.11361278527E+02 0.11362039014E+02 0.10641290065E+02 0.93669770736E+01 0.78040392815E+01
 0.62186113883E+01 0.48005749213E+01 0.36394029780E+01 0.27459437549E+01 0.21014688321E+01
 0.16733787907E+01 0.14278994121E+01 0.13479005329E+01 0.14281695619E+01 0.16733831890E+01
 0.21009621947E+01 0.27453808393E+01 0.36578230386E+01 0.48931115454E+01 0.64749657282E+01
 0.83430955605E+01 0.10312475548E+02 0.12094768841E+02 0.13357253709E+02 0.13816170038E+02
 0.13359045115E+02 0.12096780756E+02 0.10313217111E+02 0.83424076265E+01 0.64737222433E+01
 0.48922546675E+01 0.36577851466E+01 0.27462900237E+01 0.21373682578E+01 0.17561190105E+01
 0.15718523247E+01 0.15723977525E+01 0.17568637114E+01 0.21369824079E+01 0.27450179588E+01
 0.36387286323E+01 0.48931115454E+01 0.65670456474E+01 0.86402827643E+01 0.10953396923E+02
 0.13226888023E+02 0.15078860281E+02 0.16124359353E+02 0.16125186031E+02 0.15080807923E+02
 0.13228724360E+02 0.10953976439E+02 0.86392765703E+01 0.65652928239E+01 0.48921296305E+01
 0.36393161469E+01 0.27538559785E+01 0.22061249783E+01 0.18932660656E+01 0.17911308323E+01
 0.18934211943E+01 0.22059719377E+01 0.27533570049E+01 0.35899205783E+01 0.48006263811E+01
 0.64749657282E+01 0.86402827643E+01 0.11181375075E+02 0.13848794697E+02 0.16244661104E+02
 0.17913852755E+02 0.18512449010E+02 0.17915025009E+02 0.16246041678E+02 0.13849492498E+02
 0.11181208643E+02 0.86395350919E+01 0.64740970146E+01 0.48001904973E+01 0.35901657572E+01
 0.27795007585E+01 0.23162577925E+01 0.20925627836E+01 0.20922032561E+01 0.23155361193E+01
 0.27792067567E+01 0.35269316805E+01 0.46388423726E+01 0.62198230068E+01 0.83430955605E+01
 0.10953396923E+02 0.13848794697E+02 0.16656040821E+02 0.18883461526E+02 0.20110474983E+02
 0.20111428531E+02 0.18885405377E+02 0.16657434309E+02 0.13849222317E+02 0.10953375117E+02
 0.83427947428E+01 0.62189900766E+01 0.46377221658E+01 0.35263216831E+01 0.28333826268E+01
 0.24733140377E+01 0.23560292404E+01 0.24733798330E+01 0.28331256830E+01 0.34660300762E+01
 0.44380162006E+01 0.58506607917E+01 0.78053900636E+01 0.10312475548E+02 0.13226888023E+02
 0.16244661104E+02 0.18883461526E+02 0.20668124652E+02 0.21295487325E+02 0.20669017153E+02
 0.18885176746E+02 0.16246734614E+02 0.13228302203E+02 0.10312283297E+02 0.78037752415E+01
 0.58489996092E+01 0.44374614518E+01 0.34663491837E+01 0.29213045693E+01 0.26775199412E+01
 0.26780381750E+01 0.29218335015E+01 0.34242123022E+01 0.42306593562E+01 0.54259899072E+01
 0.71172351192E+01 0.93669988248E+01 0.12094768841E+02 0.15078860281E+02 0.17913852755E+02
 0.20110474983E+02 0.21295487325E+02 0.21294361553E+02 0.20108898001E+02 0.17914640961E+02
 0.15081744021E+02 0.12096563454E+02 0.93658082791E+01 0.71148212116E+01 0.54251707624E+01
 0.42316380592E+01 0.34249263785E+01 0.30434053300E+01 0.29225708421E+01 0.30433895124E+01
 0.34096864276E+01 0.40437682239E+01 0.50030729365E+01 0.63797885155E+01 0.82608918654E+01
 0.10640066998E+02 0.13357253709E+02 0.16124359353E+02 0.18512449010E+02 0.20111428531E+02
 0.20669017153E+02 0.20108898001E+02 0.18510464817E+02 0.16125072636E+02 0.13359322620E+02
 0.10640755194E+02 0.82596281416E+01 0.63784479374E+01 0.50031836617E+01 0.40447932539E+01
 0.34103191929E+01 0.31942353881E+01 0.31939719430E+01 0.34242494940E+01 0.38909791167E+01
 0.46223654375E+01 0.56811252708E+01 0.71488495801E+01 0.90686901055E+01 0.11361278527E+02
 0.13816170038E+02 0.16125186031E+02 0.17915025009E+02 0.18885405377E+02 0.18885176746E+02
 0.17914640961E+02 0.16125072636E+02 0.13816205044E+02 0.11360985838E+02 0.90679905349E+01
 0.71482531906E+01 0.56811547356E+01 0.46230378603E+01 0.38918920496E+01 0.34249654061E+01
 0.33620304208E+01 0.34667216790E+01 0.37787645885E+01 0.43045938500E+01 0.50758694078E+01
 0.61503089073E+01 0.75817941545E+01 0.93618218561E+01 0.11362039014E+02 0.13359045115E+02
 0.15080807923E+02 0.16246041678E+02 0.16657434309E+02 0.16246734614E+02 0.15081744021E+02
 0.13359322620E+02 0.11360985838E+02 0.93599606054E+01 0.75806505209E+01 0.61508804034E+01
 0.50775360874E+01 0.43058589747E+01 0.37788946455E+01 0.34663214701E+01 0.35269687714E+01
 0.37053596634E+01 0.40561192078E+01 0.45862684711E+01 0.53262824861E+01 0.63184020604E+01
 0.75818499059E+01 0.90693060938E+01 0.10641290065E+02 0.12096780756E+02 0.13228724360E+02
 0.13849492498E+02 0.13849222317E+02 0.13228302203E+02 0.12096563454E+02 0.10640755194E+02
 0.90679905349E+01 0.75806505209E+01 0.63188072684E+01 0.53283142766E+01 0.45881341894E+01
 0.40562366783E+01 0.37041532140E+01 0.35262373601E+01 0.36617578917E+01 0.38701297715E+01
 0.42090890370E+01 0.46865424723E+01 0.53262884863E+01 0.61499682730E+01 0.71488386654E+01
 0.82608846717E+01 0.93669770736E+01 0.10313217111E+02 0.10953976439E+02 0.11181208643E+02
 0.10953375117E+02 0.10312283297E+02 0.93658082791E+01 0.82596281416E+01 0.71482531906E+01
 0.61508804034E+01 0.53283142766E+01 0.46881086356E+01 0.42090418520E+01 0.38688599353E+01
 0.36606091286E+01 0.35901459618E+01 0.37381643111E+01 0.39289851892E+01 0.42090726161E+01
 0.45866652767E+01 0.50758911558E+01 0.56808468041E+01 0.63794943084E+01 0.71159509695E+01
 0.78040392815E+01 0.83424076265E+01 0.86392765703E+01 0.86395350919E+01 0.83427947428E+01
 0.78037752415E+01 0.71148212116E+01 0.63784479374E+01 0.56811547356E+01 0.50775360874E+01
 0.45881341894E+01 0.42090418520E+01 0.39276805159E+01 0.37367874439E+01 0.36388200971E+01
 0.36393642155E+01 0.37380107158E+01 0.38697160748E+01 0.40560805373E+01 0.43049808765E+01
 0.46224105094E+01 0.50033052248E+01 0.54255835325E+01 0.58490468873E+01 0.62186113883E+01
 0.64737222433E+01 0.65652928239E+01 0.64740970146E+01 0.62189900766E+01 0.58489996092E+01
 0.54251707624E+01 0.50031836617E+01 0.46230378603E+01 0.43058589747E+01 0.40562366783E+01
 0.38688599353E+01 0.37367874439E+01 0.36569894645E+01 0.36303335546E+01 0.36577859168E+01
 0.36615968059E+01 0.37049401349E+01 0.37787132322E+01 0.38908614729E+01 0.40438284065E+01
 0.42314223510E+01 0.44378889708E+01 0.46382946948E+01 0.48005749213E+01 0.48922546675E+01
 0.48921296305E+01 0.48001904973E+01 0.46377221658E+01 0.44374614518E+01 0.42316380592E+01
 0.40447932539E+01 0.38918920496E+01 0.37788946455E+01 0.37041532140E+01 0.36606091286E+01
 0.36388200971E+01 0.36303335546E+01 0.36304486089E+01 0.36393503090E+01 0.35272452862E+01
 0.34667854646E+01 0.34241832358E+01 0.34089460876E+01 0.34242445863E+01 0.34667922656E+01
 0.35271931408E+01 0.35906767608E+01 0.36394029780E+01 0.36577851466E+01 0.36393161469E+01
 0.35901657572E+01 0.35263216831E+01 0.34663491837E+01 0.34249263785E+01 0.34103191929E+01
 0.34249654061E+01 0.34663214701E+01 0.35262373601E+01 0.35901459618E+01 0.36393642155E+01
 0.36577859168E+01 0.36393503090E+01 0.35906775186E+01 0.41083062400E+01 0.37816174902E+01
 0.34854293977E+01 0.32354930178E+01 0.30387388979E+01 0.28951122971E+01 0.27996757927E+01
 0.27458563467E+01 0.27285732847E+01 0.27459562249E+01 0.27998069024E+01 0.28952041197E+01
 0.30387839606E+01 0.32355381982E+01 0.34855011215E+01 0.37816704341E+01 0.41082626813E+01
 0.44377661027E+01 0.47290431958E+01 0.49326477043E+01 0.50062086352E+01 0.49327949143E+01
 0.47292555516E+01 0.44379288117E+01 0.37816174902E+01 0.33534432995E+01 0.29751381451E+01
 0.26617683341E+01 0.24198232502E+01 0.22485912944E+01 0.21415983434E+01 0.20906300044E+01
 0.20905301963E+01 0.21416992197E+01 0.22494138866E+01 0.24209873320E+01 0.26622009866E+01
 0.29743463672E+01 0.33521506597E+01 0.37809194890E+01 0.42315827055E+01 0.46566765021E+01
 0.49940619709E+01 0.51822307015E+01 0.51821788091E+01 0.49937866230E+01 0.46561822486E+01
 0.42313995252E+01 0.34854293977E+01 0.29751381451E+01 0.25399038967E+01 0.21919224617E+01
 0.19341679251E+01 0.17621702070E+01 0.16659829499E+01 0.16353444770E+01 0.16659240821E+01
 0.17620999021E+01 0.19341185141E+01 0.21918895612E+01 0.25398802819E+01 0.29751229683E+01
 0.34854117221E+01 0.40437554588E+01 0.46011703213E+01 0.50865570267E+01 0.54205282358E+01
 0.55398626309E+01 0.54204464050E+01 0.50864788144E+01 0.46011525160E+01 0.40437745942E+01
 0.32354930178E+01 0.26617683341E+01 0.21919224617E+01 0.18320538614E+01 0.15786392413E+01
 0.14216372980E+01 0.13480821705E+01 0.13483150248E+01 0.14218593573E+01 0.15781056838E+01
 0.18308868988E+01 0.21911596623E+01 0.26622053435E+01 0.32367702308E+01 0.38919207201E+01
 0.45807948196E+01 0.52280613440E+01 0.57386196027E+01 0.60218740446E+01 0.60221014010E+01
 0.57392021316E+01 0.52285995671E+01 0.45806660366E+01 0.38908872821E+01 0.30387388979E+01
 0.24198232502E+01 0.19341679251E+01 0.15786392413E+01 0.13420352862E+01 0.12093248950E+01
 0.11669436460E+01 0.12093175327E+01 0.13420327371E+01 0.15786639941E+01 0.19342243540E+01
 0.24198810564E+01 0.30387740849E+01 0.37788118495E+01 0.46012494277E+01 0.54309481086E+01
 0.61585381099E+01 0.66616915233E+01 0.68420747249E+01 0.66617592560E+01 0.61585900440E+01
 0.54309365067E+01 0.46012095642E+01 0.37787815878E+01 0.28951122971E+01 0.22485912944E+01
 0.17621702070E+01 0.14216372980E+01 0.12093248950E+01 0.11084517092E+01 0.11083431081E+01
 0.12091747237E+01 0.14218317202E+01 0.17629011149E+01 0.22494709781E+01 0.28953528084E+01
 0.37041403828E+01 0.46548937718E+01 0.56840398647E+01 0.66753903810E+01 0.74725842883E+01
 0.79200695800E+01 0.79196013387E+01 0.74716775220E+01 0.66750531939E+01 0.56847836713E+01
 0.46561921177E+01 0.37049405170E+01 0.27996757927E+01 0.21415983434E+01 0.16659829499E+01
 0.13480821705E+01 0.11669436460E+01 0.11083431081E+01 0.11670441126E+01 0.13481034624E+01
 0.16658833565E+01 0.21415458393E+01 0.27997573651E+01 0.36616463990E+01 0.47291760584E+01
 0.59606723377E+01 0.72471543896E+01 0.84086251911E+01 0.92286768783E+01 0.95258072170E+01
 0.92286722245E+01 0.84086443321E+01 0.72472426711E+01 0.59608047827E+01 0.47292298092E+01
 0.36615660704E+01 0.27458563467E+01 0.20906300044E+01 0.16353444770E+01 0.13483150248E+01
 0.12093175327E+01 0.12091747237E+01 0.13481034624E+01 0.16353203066E+01 0.20905534861E+01
 0.27453051341E+01 0.36386404736E+01 0.48005555502E+01 0.62197606796E+01 0.78053651174E+01
 0.93670636247E+01 0.10640202346E+02 0.11361405560E+02 0.11362125360E+02 0.10641355476E+02
 0.93670063115E+01 0.78039926909E+01 0.62185185127E+01 0.48005150668E+01 0.36393904844E+01
 0.27285732847E+01 0.20905301963E+01 0.16659240821E+01 0.14218593573E+01 0.13420327371E+01
 0.14218317202E+01 0.16658833565E+01 0.20905534861E+01 0.27286826803E+01 0.36305486335E+01
 0.48517852955E+01 0.64175200782E+01 0.82667714347E+01 0.10212225374E+02 0.11969395436E+02
 0.13210627663E+02 0.13660207646E+02 0.13210551935E+02 0.11969156881E+02 0.10211933483E+02
 0.82666881742E+01 0.64176763195E+01 0.48519223638E+01 0.36305027842E+01 0.27459562249E+01
 0.21416992197E+01 0.17620999021E+01 0.15781056838E+01 0.15786639941E+01 0.17629011149E+01
 0.21415458393E+01 0.27453051341E+01 0.36305486335E+01 0.48717865536E+01 0.65269129710E+01
 0.85694240960E+01 0.10834007437E+02 0.13045850477E+02 0.14829483915E+02 0.15826201538E+02
 0.15825397679E+02 0.14828246979E+02 0.13046084103E+02 0.10835706517E+02 0.85706499740E+01
 0.65264050652E+01 0.48705564528E+01 0.36302747484E+01 0.27998069024E+01 0.22494138866E+01
 0.19341185141E+01 0.18308868988E+01 0.19342243540E+01 0.22494709781E+01 0.27997573651E+01
 0.36386404736E+01 0.48517852955E+01 0.65269129710E+01 0.86762014179E+01 0.11166177263E+02
 0.13738977422E+02 0.15991322594E+02 0.17517622863E+02 0.18054749788E+02 0.17517846520E+02
 0.15991590131E+02 0.13739154752E+02 0.11166265196E+02 0.86762238168E+01 0.65268812040E+01
 0.48517650299E+01 0.36386905797E+01 0.28952041197E+01 0.24209873320E+01 0.21918895612E+01
 0.21911596623E+01 0.24198810564E+01 0.28953528084E+01 0.36616463990E+01 0.48005555502E+01
 0.64175200782E+01 0.85694240960E+01 0.11166177263E+02 0.13978270326E+02 0.16585422824E+02
 0.18538230024E+02 0.19560250067E+02 0.19561054116E+02 0.18539314969E+02 0.16584840543E+02
 0.13976466766E+02 0.11165437706E+02 0.85706009936E+01 0.64188919422E+01 0.48003755766E+01
 0.36605455680E+01 0.30387839606E+01 0.26622009866E+01 0.25398802819E+01 0.26622053435E+01
 0.30387740849E+01 0.37041403828E+01 0.47291760584E+01 0.62197606796E+01 0.82667714347E+01
 0.10834007437E+02 0.13738977422E+02 0.16585422824E+02 0.18871446121E+02 0.20275637437E+02
 0.20736433151E+02 0.20275633505E+02 0.18871328867E+02 0.16585207861E+02 0.13738836263E+02
 0.10834025304E+02 0.82668460323E+01 0.62197852480E+01 0.47291691757E+01 0.37041486803E+01
 0.32355381982E+01 0.29743463672E+01 0.29751229683E+01 0.32367702308E+01 0.37788118495E+01
 0.46548937718E+01 0.59606723377E+01 0.78053651174E+01 0.10212225374E+02 0.13045850477E+02
 0.15991322594E+02 0.18538230024E+02 0.20275637437E+02 0.21103765302E+02 0.21103411904E+02
 0.20275389791E+02 0.18539113954E+02 0.15992630673E+02 0.13045898182E+02 0.10210833813E+02
 0.78042975031E+01 0.59612299682E+01 0.46561125138E+01 0.37788592798E+01 0.34855011215E+01
 0.33521506597E+01 0.34854117221E+01 0.38919207201E+01 0.46012494277E+01 0.56840398647E+01
 0.72471543896E+01 0.93670636247E+01 0.11969395436E+02 0.14829483915E+02 0.17517622863E+02
 0.19560250067E+02 0.20736433151E+02 0.21103411904E+02 0.20736390568E+02 0.19560349589E+02
 0.17517787754E+02 0.14829449075E+02 0.11969223625E+02 0.93670709532E+01 0.72473314872E+01
 0.56840720955E+01 0.46011021373E+01 0.38918703526E+01 0.37816704341E+01 0.37809194890E+01
 0.40437554588E+01 0.45807948196E+01 0.54309481086E+01 0.66753903810E+01 0.84086251911E+01
 0.10640202346E+02 0.13210627663E+02 0.15826201538E+02 0.18054749788E+02 0.19561054116E+02
 0.20275633505E+02 0.20275389791E+02 0.19560349589E+02 0.18053781288E+02 0.15825528870E+02
 0.13210922949E+02 0.10641375729E+02 0.84094712705E+01 0.66748795770E+01 0.54297785256E+01
 0.45806513445E+01 0.40448887423E+01 0.41082626813E+01 0.42315827055E+01 0.46011703213E+01
 0.52280613440E+01 0.61585381099E+01 0.74725842883E+01 0.92286768783E+01 0.11361405560E+02
 0.13660207646E+02 0.15825397679E+02 0.17517846520E+02 0.18539314969E+02 0.18871328867E+02
 0.18539113954E+02 0.17517787754E+02 0.15825528870E+02 0.13660226726E+02 0.11361253290E+02
 0.92286061579E+01 0.74726278897E+01 0.61584789689E+01 0.52279399933E+01 0.46012486512E+01
 0.42317928857E+01 0.44377661027E+01 0.46566765021E+01 0.50865570267E+01 0.57386196027E+01
 0.66616915233E+01 0.79200695800E+01 0.95258072170E+01 0.11362125360E+02 0.13210551935E+02
 0.14828246979E+02 0.15991590131E+02 0.16584840543E+02 0.16585207861E+02 0.15992630673E+02
 0.14829449075E+02 0.13210922949E+02 0.11361253290E+02 0.95245890930E+01 0.79197199002E+01
 0.66622976917E+01 0.57392521288E+01 0.50865561310E+01 0.46562662940E+01 0.44375373786E+01
 0.47290431958E+01 0.49940619709E+01 0.54205282358E+01 0.60218740446E+01 0.68420747249E+01
 0.79196013387E+01 0.92286722245E+01 0.10641355476E+02 0.11969156881E+02 0.13046084103E+02
 0.13739154752E+02 0.13976466766E+02 0.13738836263E+02 0.13045898182E+02 0.11969223625E+02
 0.10641375729E+02 0.92286061579E+01 0.79197199002E+01 0.68423297213E+01 0.60219268321E+01
 0.54204172170E+01 0.49941460629E+01 0.47292832229E+01 0.46377310795E+01 0.49326477043E+01
 0.51822307015E+01 0.55398626309E+01 0.60221014010E+01 0.66617592560E+01 0.74716775220E+01
 0.84086443321E+01 0.93670063115E+01 0.10211933483E+02 0.10835706517E+02 0.11166265196E+02
 0.11165437706E+02 0.10834025304E+02 0.10210833813E+02 0.93670709532E+01 0.84094712705E+01
 0.74726278897E+01 0.66622976917E+01 0.60219268321E+01 0.55392856245E+01 0.51820117268E+01
 0.49330096661E+01 0.48005099215E+01 0.48002270055E+01 0.50062086352E+01 0.51821788091E+01
 0.54204464050E+01 0.57392021316E+01 0.61585900440E+01 0.66750531939E+01 0.72472426711E+01
 0.78039926909E+01 0.82666881742E+01 0.85706499740E+01 0.86762238168E+01 0.85706009936E+01
 0.82668460323E+01 0.78042975031E+01 0.72473314872E+01 0.66748795770E+01 0.61584789689E+01
 0.57392521288E+01 0.54204172170E+01 0.51820117268E+01 0.50061285882E+01 0.48922107116E+01
 0.48518837344E+01 0.48921559714E+01 0.49327949143E+01 0.49937866230E+01 0.50864788144E+01
 0.52285995671E+01 0.54309365067E+01 0.56847836713E+01 0.59608047827E+01 0.62185185127E+01
 0.64176763195E+01 0.65264050652E+01 0.65268812040E+01 0.64188919422E+01 0.62197852480E+01
 0.59612299682E+01 0.56840720955E+01 0.54297785256E+01 0.52279399933E+01 0.50865561310E+01
 0.49941460629E+01 0.49330096661E+01 0.48922107116E+01 0.48705342167E+01 0.48705459272E+01
 0.48921786908E+01 0.47292555516E+01 0.46561822486E+01 0.46011525160E+01 0.45806660366E+01
 0.46012095642E+01 0.46561921177E+01 0.47292298092E+01 0.48005150668E+01 0.48519223638E+01
 0.48705564528E+01 0.48517650299E+01 0.48003755766E+01 0.47291691757E+01 0.46561125138E+01
 0.46011021373E+01 0.45806513445E+01 0.46012486512E+01 0.46562662940E+01 0.47292832229E+01
 0.48005099215E+01 0.48518837344E+01 0.48705459272E+01 0.48518145083E+01 0.48004627644E+01
 0.44379288117E+01 0.42313995252E+01 0.40437745942E+01 0.38908872821E+01 0.37787815878E+01
 0.37049405170E+01 0.36615660704E+01 0.36393904844E+01 0.36305027842E+01 0.36302747484E+01
 0.36386905797E+01 0.36605455680E+01 0.37041486803E+01 0.37788592798E+01 0.38918703526E+01
 0.40448887423E+01 0.42317928857E+01 0.44375373786E+01 0.46377310795E+01 0.48002270055E+01
 0.48921559714E+01 0.48921786908E+01 0.48004627644E+01 0.46382769398E+01 0.48624711613E+01
 0.43303895072E+01 0.38640181277E+01 0.34790604958E+01 0.31788821003E+01 0.29599435456E+01
 0.28168383152E+01 0.27459266490E+01 0.27459486162E+01 0.28169057904E+01 0.29600345190E+01
 0.31789090660E+01 0.34789215183E+01 0.38637656065E+01 0.43302817233E+01 0.48626991427E+01
 0.54260139065E+01 0.59610020001E+01 0.63883310729E+01 0.66278438985E+01 0.66279621889E+01
 0.63884666123E+01 0.59608379114E+01 0.54256288469E+01 0.43303895072E+01 0.37217779386E+01
 0.32046529340E+01 0.27894390456E+01 0.24775948940E+01 0.22643698683E+01 0.21414465733E+01
 0.21014315296E+01 0.21416875846E+01 0.22652125876E+01 0.24788005154E+01 0.27899207593E+01
 0.32036742986E+01 0.37200726040E+01 0.43294978288E+01 0.50037899559E+01 0.56857857127E+01
 0.62874208122E+01 0.67059842121E+01 0.68566835734E+01 0.67060893286E+01 0.62869770745E+01
 0.56847664974E+01 0.50032741378E+01 0.38640181277E+01 0.32046529340E+01 0.26639474337E+01
 0.22464624256E+01 0.19489956254E+01 0.17622004021E+01 0.16734355172E+01 0.16734001052E+01
 0.17621239680E+01 0.19489279901E+01 0.22464186099E+01 0.26639128243E+01 0.32046135333E+01
 0.38639671676E+01 0.46223279224E+01 0.54309020653E+01 0.62017909991E+01 0.68170630986E+01
 0.71608142393E+01 0.71607404899E+01 0.68169141802E+01 0.62016945399E+01 0.54309024951E+01
 0.46223786088E+01 0.34790604958E+01 0.27894390456E+01 0.22464624256E+01 0.18464290085E+01
 0.15786082296E+01 0.14279364952E+01 0.13798651284E+01 0.14279424682E+01 0.15781301993E+01
 0.18453867923E+01 0.22456452227E+01 0.27897338211E+01 0.34803671012E+01 0.43062762454E+01
 0.52289024909E+01 0.61674632456E+01 0.69975035415E+01 0.75751479040E+01 0.77830012796E+01
 0.75756205398E+01 0.69983161971E+01 0.61680809987E+01 0.52286187706E+01 0.43050245181E+01
 0.31788821003E+01 0.24775948940E+01 0.19489956254E+01 0.15786082296E+01 0.13478884344E+01
 0.12385205860E+01 0.12385122089E+01 0.13478892139E+01 0.15786552528E+01 0.19490676002E+01
 0.24776185158E+01 0.31788335513E+01 0.40560869860E+01 0.50865803156E+01 0.62018423511E+01
 0.72765187976E+01 0.81413586864E+01 0.86274159922E+01 0.86274542889E+01 0.81413968101E+01
 0.72764506484E+01 0.62017062318E+01 0.50865095576E+01 0.40561224335E+01 0.29599435456E+01
 0.22643698683E+01 0.17622004021E+01 0.14279364952E+01 0.12385205860E+01 0.11773793598E+01
 0.12384667597E+01 0.14281466360E+01 0.17628940648E+01 0.22652384259E+01 0.29602467716E+01
 0.38689508703E+01 0.49923983228E+01 0.62860166467E+01 0.76350751702E+01 0.88512373530E+01
 0.97088155837E+01 0.10018961595E+02 0.97078327244E+01 0.88501421893E+01 0.76348759059E+01
 0.62869694989E+01 0.49937648642E+01 0.38696857624E+01 0.28168383152E+01 0.21414465733E+01
 0.16734355172E+01 0.13798651284E+01 0.12385122089E+01 0.12384667597E+01 0.13797789556E+01
 0.16734180150E+01 0.21415620927E+01 0.28170363123E+01 0.37381647203E+01 0.49328937526E+01
 0.63884689804E+01 0.80138443906E+01 0.96173410489E+01 0.10927941190E+02 0.11670978566E+02
 0.11671278964E+02 0.10928590919E+02 0.96178754240E+01 0.80140509010E+01 0.63884448272E+01
 0.49327722333E+01 0.37379831214E+01 0.27459266490E+01 0.21014315296E+01 0.16734001052E+01
 0.14279424682E+01 0.13478892139E+01 0.14281466360E+01 0.16734180150E+01 0.21009865034E+01
 0.27452918466E+01 0.36576719587E+01 0.48930229608E+01 0.64749510247E+01 0.83431082843E+01
 0.10312559081E+02 0.12094972787E+02 0.13357484046E+02 0.13816293539E+02 0.13359069211E+02
 0.12096776864E+02 0.10313160235E+02 0.83422584694E+01 0.64735733779E+01 0.48922174071E+01
 0.36578115689E+01 0.27459486162E+01 0.21416875846E+01 0.17621239680E+01 0.15781301993E+01
 0.15786552528E+01 0.17628940648E+01 0.21415620927E+01 0.27452918466E+01 0.36304754189E+01
 0.48717209508E+01 0.65269252222E+01 0.85694951760E+01 0.10834097429E+02 0.13045970549E+02
 0.14829627902E+02 0.15826292768E+02 0.15825382817E+02 0.14828169242E+02 0.13045998984E+02
 0.10835606881E+02 0.85705371323E+01 0.65263414052E+01 0.48705722913E+01 0.36303064587E+01
 0.28169057904E+01 0.22652125876E+01 0.19489279901E+01 0.18453867923E+01 0.19490676002E+01
 0.22652384259E+01 0.28170363123E+01 0.36576719587E+01 0.48717209508E+01 0.65444121109E+01
 0.86814801586E+01 0.11146085387E+02 0.13675389567E+02 0.15864166289E+02 0.17327279477E+02
 0.17835932202E+02 0.17324163779E+02 0.15861433562E+02 0.13675844787E+02 0.11148823729E+02
 0.86835120990E+01 0.65442641768E+01 0.48704503904E+01 0.36568385693E+01 0.29600345190E+01
 0.24788005154E+01 0.22464186099E+01 0.22456452227E+01 0.24776185158E+01 0.29602467716E+01
 0.37381647203E+01 0.48930229608E+01 0.65269252222E+01 0.86814801586E+01 0.11249630296E+02
 0.13975614716E+02 0.16411228805E+02 0.18144932156E+02 0.19007423464E+02 0.19006917235E+02
 0.18143599126E+02 0.16409760139E+02 0.13975118675E+02 0.11250741314E+02 0.86833797028E+01
 0.65278116297E+01 0.48920635237E+01 0.37366323622E+01 0.31789090660E+01 0.27899207593E+01
 0.26639128243E+01 0.27897338211E+01 0.31788335513E+01 0.38689508703E+01 0.49328937526E+01
 0.64749510247E+01 0.85694951760E+01 0.11146085387E+02 0.13975614716E+02 0.16572277973E+02
 0.18437066858E+02 0.19417811508E+02 0.19697665312E+02 0.19416278919E+02 0.18435087169E+02
 0.16571045890E+02 0.13975570231E+02 0.11146866628E+02 0.85704067748E+01 0.64754493110E+01
 0.49329020104E+01 0.38688260219E+01 0.34789215183E+01 0.32036742986E+01 0.32046135333E+01
 0.34803671012E+01 0.40560869860E+01 0.49923983228E+01 0.63884689804E+01 0.83431082843E+01
 0.10834097429E+02 0.13675389567E+02 0.16411228805E+02 0.18437066858E+02 0.19478807811E+02
 0.19797055034E+02 0.19794842618E+02 0.19474629063E+02 0.18435071546E+02 0.16412159657E+02
 0.13676561519E+02 0.10833772722E+02 0.83426153945E+01 0.63894913656E+01 0.49940757760E+01
 0.40562796449E+01 0.38637656065E+01 0.37200726040E+01 0.38639671676E+01 0.43062762454E+01
 0.50865803156E+01 0.62860166467E+01 0.80138443906E+01 0.10312559081E+02 0.13045970549E+02
 0.15864166289E+02 0.18144932156E+02 0.19417811508E+02 0.19797055034E+02 0.19821238349E+02
 0.19795793823E+02 0.19416201642E+02 0.18143735848E+02 0.15863563476E+02 0.13046055603E+02
 0.10313408473E+02 0.80149991124E+01 0.62866716648E+01 0.50864892921E+01 0.43059142083E+01
 0.43302817233E+01 0.43294978288E+01 0.46223279224E+01 0.52289024909E+01 0.62018423511E+01
 0.76350751702E+01 0.96173410489E+01 0.12094972787E+02 0.14829627902E+02 0.17327279477E+02
 0.19007423464E+02 0.19697665312E+02 0.19794842618E+02 0.19795793823E+02 0.19698987252E+02
 0.19006630771E+02 0.17324548021E+02 0.14828009292E+02 0.12096493671E+02 0.96201414038E+01
 0.76358665248E+01 0.62003903879E+01 0.52279425139E+01 0.46231662687E+01 0.48626991427E+01
 0.50037899559E+01 0.54309020653E+01 0.61674632456E+01 0.72765187976E+01 0.88512373530E+01
 0.10927941190E+02 0.13357484046E+02 0.15826292768E+02 0.17835932202E+02 0.19006917235E+02
 0.19416278919E+02 0.19474629063E+02 0.19416201642E+02 0.19006630771E+02 0.17835297396E+02
 0.15825641590E+02 0.13357654963E+02 0.10929209285E+02 0.88525507632E+01 0.72766084725E+01
 0.61664418606E+01 0.54299158792E+01 0.50034145848E+01 0.54260139065E+01 0.56857857127E+01
 0.62017909991E+01 0.69975035415E+01 0.81413586864E+01 0.97088155837E+01 0.11670978566E+02
 0.13816293539E+02 0.15825382817E+02 0.17324163779E+02 0.18143599126E+02 0.18435087169E+02
 0.18435071546E+02 0.18143735848E+02 0.17324548021E+02 0.15825641590E+02 0.13816225327E+02
 0.11671066034E+02 0.97094599936E+01 0.81420042786E+01 0.69972000451E+01 0.62004275688E+01
 0.56842654127E+01 0.54253698015E+01 0.59610020001E+01 0.62874208122E+01 0.68170630986E+01
 0.75751479040E+01 0.86274159922E+01 0.10018961595E+02 0.11671278964E+02 0.13359069211E+02
 0.14828169242E+02 0.15861433562E+02 0.16409760139E+02 0.16571045890E+02 0.16412159657E+02
 0.15863563476E+02 0.14828009292E+02 0.13357654963E+02 0.11671066034E+02 0.10020359581E+02
 0.86283066410E+01 0.75740304985E+01 0.68151628253E+01 0.62867033882E+01 0.59613609385E+01
 0.58490508330E+01 0.63883310729E+01 0.67059842121E+01 0.71608142393E+01 0.77830012796E+01
 0.86274542889E+01 0.97078327244E+01 0.10928590919E+02 0.12096776864E+02 0.13045998984E+02
 0.13675844787E+02 0.13975118675E+02 0.13975570231E+02 0.13676561519E+02 0.13046055603E+02
 0.12096493671E+02 0.10929209285E+02 0.97094599936E+01 0.86283066410E+01 0.77816267026E+01
 0.71584268538E+01 0.67051621833E+01 0.63895059511E+01 0.62198581254E+01 0.62189559415E+01
 0.66278438985E+01 0.68566835734E+01 0.71607404899E+01 0.75756205398E+01 0.81413968101E+01
 0.88501421893E+01 0.96178754240E+01 0.10313160235E+02 0.10835606881E+02 0.11148823729E+02
 0.11250741314E+02 0.11146866628E+02 0.10833772722E+02 0.10313408473E+02 0.96201414038E+01
 0.88525507632E+01 0.81420042786E+01 0.75740304985E+01 0.71584268538E+01 0.68556947452E+01
 0.66287970063E+01 0.64754716882E+01 0.64189550028E+01 0.64740605195E+01 0.66279621889E+01
 0.67060893286E+01 0.68169141802E+01 0.69983161971E+01 0.72764506484E+01 0.76348759059E+01
 0.80140509010E+01 0.83422584694E+01 0.85705371323E+01 0.86835120990E+01 0.86833797028E+01
 0.85704067748E+01 0.83426153945E+01 0.80149991124E+01 0.76358665248E+01 0.72766084725E+01
 0.69972000451E+01 0.68151628253E+01 0.67051621833E+01 0.66287970063E+01 0.65670443761E+01
 0.65278379786E+01 0.65268910566E+01 0.65652101640E+01 0.63884666123E+01 0.62869770745E+01
 0.62016945399E+01 0.61680809987E+01 0.62017062318E+01 0.62869694989E+01 0.63884448272E+01
 0.64735733779E+01 0.65263414052E+01 0.65442641768E+01 0.65278116297E+01 0.64754493110E+01
 0.63894913656E+01 0.62866716648E+01 0.62003903879E+01 0.61664418606E+01 0.62004275688E+01
 0.62867033882E+01 0.63895059511E+01 0.64754716882E+01 0.65278379786E+01 0.65442627325E+01
 0.65263192962E+01 0.64735720223E+01 0.59608379114E+01 0.56847664974E+01 0.54309024951E+01
 0.52286187706E+01 0.50865095576E+01 0.49937648642E+01 0.49327722333E+01 0.48922174071E+01
 0.48705722913E+01 0.48704503904E+01 0.48920635237E+01 0.49329020104E+01 0.49940757760E+01
 0.50864892921E+01 0.52279425139E+01 0.54299158792E+01 0.56842654127E+01 0.59613609385E+01
 0.62198581254E+01 0.64189550028E+01 0.65268910566E+01 0.65263192962E+01 0.64175816828E+01
 0.62185122311E+01 0.54256288469E+01 0.50032741378E+01 0.46223786088E+01 0.43050245181E+01
 0.40561224335E+01 0.38696857624E+01 0.37379831214E+01 0.36578115689E+01 0.36303064587E+01
 0.36568385693E+01 0.37366323622E+01 0.38688260219E+01 0.40562796449E+01 0.43059142083E+01
 0.46231662687E+01 0.50034145848E+01 0.54253698015E+01 0.58490508330E+01 0.62189559415E+01
 0.64740605195E+01 0.65652101640E+01 0.64735720223E+01 0.62185122311E+01 0.58490731372E+01
 0.55257970866E+01 0.47611372408E+01 0.41207869613E+01 0.36122368275E+01 0.32286750270E+01
 0.29599701556E+01 0.27996839988E+01 0.27462506277E+01 0.27997707098E+01 0.29600060515E+01
 0.32286475414E+01 0.36122757924E+01 0.41209056762E+01 0.47611947596E+01 0.55257460719E+01
 0.63794641724E+01 0.72472550034E+01 0.80140331949E+01 0.85472921702E+01 0.87390165563E+01
 0.85473304568E+01 0.80140419111E+01 0.72472511434E+01 0.63795145574E+01 0.47611372408E+01
 0.39717357571E+01 0.33299618133E+01 0.28346322601E+01 0.24776322000E+01 0.22483947539E+01
 0.21369691997E+01 0.21373383230E+01 0.22494072943E+01 0.24788115228E+01 0.28350674601E+01
 0.33290254294E+01 0.39699664560E+01 0.47599806878E+01 0.56811516349E+01 0.66762774565E+01
 0.76357145309E+01 0.84083293446E+01 0.88427349828E+01 0.88429043224E+01 0.84083267085E+01
 0.76348633686E+01 0.66750192020E+01 0.56807954971E+01 0.41207869613E+01 0.33299618133E+01
 0.27077500864E+01 0.22464597895E+01 0.19341873985E+01 0.17561961103E+01 0.16987765071E+01
 0.17561779316E+01 0.19341808167E+01 0.22464660556E+01 0.27077339809E+01 0.33299044508E+01
 0.41207039919E+01 0.50757969944E+01 0.61585299407E+01 0.72764890149E+01 0.82770500392E+01
 0.89787710534E+01 0.92320091880E+01 0.89786668100E+01 0.82769469246E+01 0.72764702215E+01
 0.61585867674E+01 0.50758823575E+01 0.36122368275E+01 0.28346322601E+01 0.22464597895E+01
 0.18318402378E+01 0.15723071871E+01 0.14490565606E+01 0.14489948803E+01 0.15718884079E+01
 0.18309075792E+01 0.22456522285E+01 0.28349316496E+01 0.36137051738E+01 0.45881531117E+01
 0.57394389258E+01 0.69973574764E+01 0.82215032317E+01 0.92140912365E+01 0.97743332539E+01
 0.97744251511E+01 0.92146154025E+01 0.82226086685E+01 0.69983313119E+01 0.57392319046E+01
 0.45867084675E+01 0.32286750270E+01 0.24776322000E+01 0.19341873985E+01 0.15723071871E+01
 0.13677075162E+01 0.13019103916E+01 0.13677472223E+01 0.15723378703E+01 0.19341738375E+01
 0.24775898431E+01 0.32286455678E+01 0.42090785821E+01 0.54205060218E+01 0.68169950441E+01
 0.82769830846E+01 0.95971856258E+01 0.10530793862E+02 0.10869402560E+02 0.10530789400E+02
 0.95971451679E+01 0.82768958500E+01 0.68168947871E+01 0.54204378954E+01 0.42090634227E+01
 0.29599701556E+01 0.22483947539E+01 0.17561961103E+01 0.14490565606E+01 0.13019103916E+01
 0.13017017431E+01 0.14489200647E+01 0.17568220083E+01 0.22494541037E+01 0.29602509245E+01
 0.39277873512E+01 0.51804247009E+01 0.67052527052E+01 0.84089828005E+01 0.10093192191E+02
 0.11473479115E+02 0.12257488209E+02 0.12257049714E+02 0.11472267529E+02 0.10091746096E+02
 0.84083262956E+01 0.67060699368E+01 0.51821353611E+01 0.39289221138E+01 0.27996839988E+01
 0.21369691997E+01 0.16987765071E+01 0.14489948803E+01 0.13677472223E+01 0.14489200647E+01
 0.16987302866E+01 0.21370235488E+01 0.27997872970E+01 0.37381901007E+01 0.50061512666E+01
 0.66278672349E+01 0.85472635375E+01 0.10583769686E+02 0.12435674484E+02 0.13751072034E+02
 0.14229541156E+02 0.13751177043E+02 0.12435810720E+02 0.10583883461E+02 0.85473661425E+01
 0.66279698947E+01 0.50062064236E+01 0.37381466886E+01 0.27462506277E+01 0.21373383230E+01
 0.17561779316E+01 0.15718884079E+01 0.15723378703E+01 0.17568220083E+01 0.21370235488E+01
 0.27450123564E+01 0.36386029934E+01 0.48930085750E+01 0.65670772273E+01 0.86403559952E+01
 0.10953435087E+02 0.13226983425E+02 0.15079050371E+02 0.16124489497E+02 0.16125157030E+02
 0.15080733943E+02 0.13228697813E+02 0.10953911907E+02 0.86391351688E+01 0.65652162052E+01
 0.48921916025E+01 0.36393766287E+01 0.27997707098E+01 0.22494072943E+01 0.19341808167E+01
 0.18309075792E+01 0.19341738375E+01 0.22494541037E+01 0.27997872970E+01 0.36386029934E+01
 0.48516837316E+01 0.65269083406E+01 0.86763486293E+01 0.11166350281E+02 0.13739104752E+02
 0.15991460849E+02 0.17517749067E+02 0.18054727176E+02 0.17517662050E+02 0.15991398869E+02
 0.13739034146E+02 0.11166148355E+02 0.86761137521E+01 0.65268873030E+01 0.48518754648E+01
 0.36387488196E+01 0.29600060515E+01 0.24788115228E+01 0.22464660556E+01 0.22456522285E+01
 0.24775898431E+01 0.29602509245E+01 0.37381901007E+01 0.48930085750E+01 0.65269083406E+01
 0.86815544953E+01 0.11249776244E+02 0.13975722132E+02 0.16411265843E+02 0.18144943037E+02
 0.19007389679E+02 0.19006781709E+02 0.18143409114E+02 0.16409631300E+02 0.13975071811E+02
 0.11250715708E+02 0.86833777349E+01 0.65278787279E+01 0.48921543630E+01 0.37366548205E+01
 0.32286475414E+01 0.28350674601E+01 0.27077339809E+01 0.28349316496E+01 0.32286455678E+01
 0.39277873512E+01 0.50061512666E+01 0.65670772273E+01 0.86763486293E+01 0.11249776244E+02
 0.14034446845E+02 0.16510189636E+02 0.18185377790E+02 0.18982142856E+02 0.19185273090E+02
 0.18982090709E+02 0.18185487331E+02 0.16510416681E+02 0.14034513354E+02 0.11249672580E+02
 0.86763272468E+01 0.65671533760E+01 0.50061020592E+01 0.39276371051E+01 0.36122757924E+01
 0.33290254294E+01 0.33299044508E+01 0.36137051738E+01 0.42090785821E+01 0.51804247009E+01
 0.66278672349E+01 0.86403559952E+01 0.11166350281E+02 0.13975722132E+02 0.16510189636E+02
 0.18113888460E+02 0.18626132396E+02 0.18568510248E+02 0.18568568724E+02 0.18626833538E+02
 0.18115540495E+02 0.16511453539E+02 0.13975005309E+02 0.11164257590E+02 0.86392707896E+01
 0.66289098241E+01 0.51820235065E+01 0.42091205667E+01 0.41209056762E+01 0.39699664560E+01
 0.41207039919E+01 0.45881531117E+01 0.54205060218E+01 0.67052527052E+01 0.85472635375E+01
 0.10953435087E+02 0.13739104752E+02 0.16411265843E+02 0.18185377790E+02 0.18626132396E+02
 0.18187137166E+02 0.17866915818E+02 0.18186829575E+02 0.18625960918E+02 0.18185472016E+02
 0.16411310494E+02 0.13738982500E+02 0.10953377149E+02 0.85473205927E+01 0.67052166555E+01
 0.54204019566E+01 0.45882309091E+01 0.47611947596E+01 0.47599806878E+01 0.50757969944E+01
 0.57394389258E+01 0.68169950441E+01 0.84089828005E+01 0.10583769686E+02 0.13226983425E+02
 0.15991460849E+02 0.18144943037E+02 0.18982142856E+02 0.18568510248E+02 0.17866915818E+02
 0.17867050069E+02 0.18568362962E+02 0.18981010883E+02 0.18143486851E+02 0.15991371439E+02
 0.13228668243E+02 0.10585256409E+02 0.84083169967E+01 0.68151711828E+01 0.57392172013E+01
 0.50776291546E+01 0.55257460719E+01 0.56811516349E+01 0.61585299407E+01 0.69973574764E+01
 0.82769830846E+01 0.10093192191E+02 0.12435674484E+02 0.15079050371E+02 0.17517749067E+02
 0.19007389679E+02 0.19185273090E+02 0.18568568724E+02 0.18186829575E+02 0.18568362962E+02
 0.19185301849E+02 0.19007660146E+02 0.17517817618E+02 0.15078891083E+02 0.12435715696E+02
 0.10093461261E+02 0.82770534448E+01 0.69971810408E+01 0.61585012567E+01 0.56813149734E+01
 0.63794641724E+01 0.66762774565E+01 0.72764890149E+01 0.82215032317E+01 0.95971856258E+01
 0.11473479115E+02 0.13751072034E+02 0.16124489497E+02 0.18054727176E+02 0.19006781709E+02
 0.18982090709E+02 0.18626833538E+02 0.18625960918E+02 0.18981010883E+02 0.19007660146E+02
 0.18056867664E+02 0.16125248247E+02 0.13749708998E+02 0.11472101650E+02 0.95975922432E+01
 0.82227551858E+01 0.72765324910E+01 0.66749526421E+01 0.63786306954E+01 0.72472550034E+01
 0.76357145309E+01 0.82770500392E+01 0.92140912365E+01 0.10530793862E+02 0.12257488209E+02
 0.14229541156E+02 0.16125157030E+02 0.17517662050E+02 0.18143409114E+02 0.18185487331E+02
 0.18115540495E+02 0.18185472016E+02 0.18143486851E+02 0.17517817618E+02 0.16125248247E+02
 0.14229526438E+02 0.12257439480E+02 0.10530706683E+02 0.92139183767E+01 0.82768939804E+01
 0.76357284454E+01 0.72473674662E+01 0.71148807660E+01 0.80140331949E+01 0.84083293446E+01
 0.89787710534E+01 0.97743332539E+01 0.10869402560E+02 0.12257049714E+02 0.13751177043E+02
 0.15080733943E+02 0.15991398869E+02 0.16409631300E+02 0.16510416681E+02 0.16511453539E+02
 0.16411310494E+02 0.15991371439E+02 0.15078891083E+02 0.13749708998E+02 0.12257439480E+02
 0.10870605736E+02 0.97745499169E+01 0.89780322219E+01 0.84081412605E+01 0.80148677502E+01
 0.78042845316E+01 0.78036989267E+01 0.85472921702E+01 0.88427349828E+01 0.92320091880E+01
 0.97744251511E+01 0.10530789400E+02 0.11472267529E+02 0.12435810720E+02 0.13228697813E+02
 0.13739034146E+02 0.13975071811E+02 0.14034513354E+02 0.13975005309E+02 0.13738982500E+02
 0.13228668243E+02 0.12435715696E+02 0.11472101650E+02 0.10530706683E+02 0.97745499169E+01
 0.92322393212E+01 0.88428375542E+01 0.85471820074E+01 0.83425488129E+01 0.82668545693E+01
 0.83427083430E+01 0.87390165563E+01 0.88429043224E+01 0.89786668100E+01 0.92146154025E+01
 0.95971451679E+01 0.10091746096E+02 0.10583883461E+02 0.10953911907E+02 0.11166148355E+02
 0.11250715708E+02 0.11249672580E+02 0.11164257590E+02 0.10953377149E+02 0.10585256409E+02
 0.10093461261E+02 0.95975922432E+01 0.92139183767E+01 0.89780322219E+01 0.88428375542E+01
 0.87389819749E+01 0.86391152749E+01 0.85703865710E+01 0.85706339431E+01 0.86394760432E+01
 0.85473304568E+01 0.84083267085E+01 0.82769469246E+01 0.82226086685E+01 0.82768958500E+01
 0.84083262956E+01 0.85473661425E+01 0.86391351688E+01 0.86761137521E+01 0.86833777349E+01
 0.86763272468E+01 0.86392707896E+01 0.85473205927E+01 0.84083169967E+01 0.82770534448E+01
 0.82227551858E+01 0.82768939804E+01 0.84081412605E+01 0.85471820074E+01 0.86391152749E+01
 0.86761933716E+01 0.86833779386E+01 0.86762131991E+01 0.86391785865E+01 0.80140419111E+01
 0.76348633686E+01 0.72764702215E+01 0.69983313119E+01 0.68168947871E+01 0.67060699368E+01
 0.66279698947E+01 0.65652162052E+01 0.65268873030E+01 0.65278787279E+01 0.65671533760E+01
 0.66289098241E+01 0.67052166555E+01 0.68151711828E+01 0.69971810408E+01 0.72765324910E+01
 0.76357284454E+01 0.80148677502E+01 0.83425488129E+01 0.85703865710E+01 0.86833779386E+01
 0.86835456099E+01 0.85706039473E+01 0.83423013547E+01 0.72472511434E+01 0.66750192020E+01
 0.61585867674E+01 0.57392319046E+01 0.54204378954E+01 0.51821353611E+01 0.50062064236E+01
 0.48921916025E+01 0.48518754648E+01 0.48921543630E+01 0.50061020592E+01 0.51820235065E+01
 0.54204019566E+01 0.57392172013E+01 0.61585012567E+01 0.66749526421E+01 0.72473674662E+01
 0.78042845316E+01 0.82668545693E+01 0.85706339431E+01 0.86762131991E+01 0.85706039473E+01
 0.82666875727E+01 0.78040372067E+01 0.63795145574E+01 0.56807954971E+01 0.50758823575E+01
 0.45867084675E+01 0.42090634227E+01 0.39289221138E+01 0.37381466886E+01 0.36393766287E+01
 0.36387488196E+01 0.37366548205E+01 0.39276371051E+01 0.42091205667E+01 0.45882309091E+01
 0.50776291546E+01 0.56813149734E+01 0.63786306954E+01 0.71148807660E+01 0.78036989267E+01
 0.83427083430E+01 0.86394760432E+01 0.86391785865E+01 0.83423013547E+01 0.78040372067E+01
 0.71160294668E+01 0.59857740732E+01 0.49993839901E+01 0.42118330953E+01 0.36121099497E+01
 0.31788592671E+01 0.28951750692E+01 0.27537868752E+01 0.27537623188E+01 0.28951082688E+01
 0.31788237292E+01 0.36122314496E+01 0.42121114218E+01 0.49996507224E+01 0.59859044401E+01
 0.71488045376E+01 0.84084406181E+01 0.96173940552E+01 0.10583252984E+02 0.11122534250E+02
 0.11122794052E+02 0.10583791674E+02 0.96178046991E+01 0.84085953509E+01 0.71488003463E+01
 0.49993839901E+01 0.40604450321E+01 0.33299549958E+01 0.27895440352E+01 0.24198865910E+01
 0.22052570505E+01 0.21352744339E+01 0.22061143587E+01 0.24209977993E+01 0.27899601850E+01
 0.33290724010E+01 0.40587329359E+01 0.49982158599E+01 0.61502961142E+01 0.74731227238E+01
 0.88512385102E+01 0.10091675416E+02 0.10964738963E+02 0.11280718454E+02 0.10965329341E+02
 0.10091748599E+02 0.88501285462E+01 0.74716447556E+01 0.61499109470E+01 0.42118330953E+01
 0.33299549958E+01 0.26639373516E+01 0.21919196147E+01 0.18933446547E+01 0.17499322235E+01
 0.17499255161E+01 0.18933559920E+01 0.21919777558E+01 0.26639976857E+01 0.33299589707E+01
 0.42117869981E+01 0.53262518394E+01 0.66617242195E+01 0.81413702795E+01 0.95971787454E+01
 0.10786227125E+02 0.11460042481E+02 0.11460031565E+02 0.10786228753E+02 0.95972340690E+01
 0.81414569665E+01 0.66618003191E+01 0.53263138670E+01 0.36121099497E+01 0.27895440352E+01
 0.21919196147E+01 0.17917669024E+01 0.15647184764E+01 0.14916174532E+01 0.15645574829E+01
 0.17911278012E+01 0.21911327528E+01 0.27897022926E+01 0.36136797771E+01 0.46883670307E+01
 0.60223918359E+01 0.75741339718E+01 0.92129188598E+01 0.10707070649E+02 0.11769033127E+02
 0.12154797923E+02 0.11768704419E+02 0.10707565146E+02 0.92146050611E+01 0.75756345045E+01
 0.60221356995E+01 0.46865793465E+01 0.31788592671E+01 0.24198865910E+01 0.18933446547E+01
 0.15647184764E+01 0.14078215236E+01 0.14078520411E+01 0.15647588059E+01 0.18933100457E+01
 0.24197737644E+01 0.31787599165E+01 0.42090466079E+01 0.55399405283E+01 0.71608415931E+01
 0.89786896607E+01 0.10786148175E+02 0.12276296323E+02 0.13126534308E+02 0.13126535451E+02
 0.12276285434E+02 0.10786094032E+02 0.89785743161E+01 0.71606915600E+01 0.55398286089E+01
 0.42090424341E+01 0.28951750692E+01 0.22052570505E+01 0.17499322235E+01 0.14916174532E+01
 0.14078520411E+01 0.14914872981E+01 0.17502107532E+01 0.22059501451E+01 0.28953538167E+01
 0.38689870924E+01 0.51804696920E+01 0.68558177400E+01 0.88437059156E+01 0.10967086258E+02
 0.12914088219E+02 0.14302006663E+02 0.14807420016E+02 0.14301310045E+02 0.12912588172E+02
 0.10965324969E+02 0.88429088054E+01 0.68566818779E+01 0.51822073942E+01 0.38700748745E+01
 0.27537868752E+01 0.21352744339E+01 0.17499255161E+01 0.15645574829E+01 0.15647588059E+01
 0.17502107532E+01 0.21351829917E+01 0.27534428359E+01 0.36617164618E+01 0.49329691980E+01
 0.66279256339E+01 0.87385363411E+01 0.11122396530E+02 0.13486639462E+02 0.15432778061E+02
 0.16541154224E+02 0.16540580116E+02 0.15431739109E+02 0.13486289060E+02 0.11122916394E+02
 0.87390899163E+01 0.66279047321E+01 0.49327033810E+01 0.36617883821E+01 0.27537623188E+01
 0.22061143587E+01 0.18933559920E+01 0.17911278012E+01 0.18933100457E+01 0.22059501451E+01
 0.27534428359E+01 0.35899171167E+01 0.48005136213E+01 0.64749386740E+01 0.86403620294E+01
 0.11181370274E+02 0.13848692946E+02 0.16244660514E+02 0.17913970150E+02 0.18512484043E+02
 0.17914952896E+02 0.16246052262E+02 0.13849601838E+02 0.11181223194E+02 0.86394406500E+01
 0.64740923063E+01 0.48002946135E+01 0.35901816478E+01 0.28951082688E+01 0.24209977993E+01
 0.21919777558E+01 0.21911327528E+01 0.24197737644E+01 0.28953538167E+01 0.36617164618E+01
 0.48005136213E+01 0.64174303511E+01 0.85695008262E+01 0.11166377007E+02 0.13978367704E+02
 0.16585415154E+02 0.18538279168E+02 0.19560305803E+02 0.19560934368E+02 0.18539088984E+02
 0.16584740498E+02 0.13976487154E+02 0.11165401945E+02 0.85705417826E+01 0.64189749408E+01
 0.48005271872E+01 0.36605522328E+01 0.31788237292E+01 0.27899601850E+01 0.26639976857E+01
 0.27897022926E+01 0.31787599165E+01 0.38689870924E+01 0.49329691980E+01 0.64749386740E+01
 0.85695008262E+01 0.11146255025E+02 0.13975820138E+02 0.16572305974E+02 0.18436959784E+02
 0.19417720069E+02 0.19697540073E+02 0.19416022045E+02 0.18434839679E+02 0.16571002715E+02
 0.13975660885E+02 0.11146917449E+02 0.85704542715E+01 0.64755943882E+01 0.49330312570E+01
 0.38687922056E+01 0.36122314496E+01 0.33290724010E+01 0.33299589707E+01 0.36136797771E+01
 0.42090466079E+01 0.51804696920E+01 0.66279256339E+01 0.86403620294E+01 0.11166377007E+02
 0.13975820138E+02 0.16510242924E+02 0.18113792622E+02 0.18625967777E+02 0.18568386709E+02
 0.18568454550E+02 0.18626691734E+02 0.18115471995E+02 0.16511537278E+02 0.13975142511E+02
 0.11164332584E+02 0.86393215397E+01 0.66289923802E+01 0.51820662316E+01 0.42090698533E+01
 0.42121114218E+01 0.40587329359E+01 0.42117869981E+01 0.46883670307E+01 0.55399405283E+01
 0.68558177400E+01 0.87385363411E+01 0.11181370274E+02 0.13978367704E+02 0.16572305974E+02
 0.18113792622E+02 0.18189291337E+02 0.17399773559E+02 0.16935817577E+02 0.17405443030E+02
 0.18195465992E+02 0.18115640820E+02 0.16569943375E+02 0.13975569966E+02 0.11180691496E+02
 0.87391071671E+01 0.68557906166E+01 0.55392759298E+01 0.46881635353E+01 0.49996507224E+01
 0.49982158599E+01 0.53262518394E+01 0.60223918359E+01 0.71608415931E+01 0.88437059156E+01
 0.11122396530E+02 0.13848692946E+02 0.16585415154E+02 0.18436959784E+02 0.18625967777E+02
 0.17399773559E+02 0.16122644340E+02 0.16125398457E+02 0.17404894149E+02 0.18628043269E+02
 0.18434979294E+02 0.16583275916E+02 0.13849295729E+02 0.11123861527E+02 0.88428572605E+01
 0.71583707616E+01 0.60217954853E+01 0.53283000430E+01 0.59859044401E+01 0.61502961142E+01
 0.66617242195E+01 0.75741339718E+01 0.89786896607E+01 0.10967086258E+02 0.13486639462E+02
 0.16244660514E+02 0.18538279168E+02 0.19417720069E+02 0.18568386709E+02 0.16935817577E+02
 0.16125398457E+02 0.16935270424E+02 0.18568020087E+02 0.19417966779E+02 0.18538806216E+02
 0.16244945328E+02 0.13486491820E+02 0.10966579562E+02 0.89780931388E+01 0.75739252890E+01
 0.66621442058E+01 0.61508676221E+01 0.71488045376E+01 0.74731227238E+01 0.81413702795E+01
 0.92129188598E+01 0.10786148175E+02 0.12914088219E+02 0.15432778061E+02 0.17913970150E+02
 0.19560305803E+02 0.19697540073E+02 0.18568454550E+02 0.17405443030E+02 0.17404894149E+02
 0.18568020087E+02 0.19698847006E+02 0.19562527952E+02 0.17914638406E+02 0.15431159386E+02
 0.12912174667E+02 0.10785937980E+02 0.92139760546E+01 0.81418798233E+01 0.74725449575E+01
 0.71483283630E+01 0.84084406181E+01 0.88512385102E+01 0.95971787454E+01 0.10707070649E+02
 0.12276296323E+02 0.14302006663E+02 0.16541154224E+02 0.18512484043E+02 0.19560934368E+02
 0.19416022045E+02 0.18626691734E+02 0.18195465992E+02 0.18628043269E+02 0.19417966779E+02
 0.19562527952E+02 0.18513134492E+02 0.16540741122E+02 0.14300793572E+02 0.12274890729E+02
 0.10706263390E+02 0.95974646804E+01 0.88523393821E+01 0.84094135439E+01 0.82597030801E+01
 0.96173940552E+01 0.10091675416E+02 0.10786227125E+02 0.11769033127E+02 0.13126534308E+02
 0.14807420016E+02 0.16540580116E+02 0.17914952896E+02 0.18539088984E+02 0.18434839679E+02
 0.18115471995E+02 0.18115640820E+02 0.18434979294E+02 0.18538806216E+02 0.17914638406E+02
 0.16540741122E+02 0.14807600763E+02 0.13125834171E+02 0.11767687890E+02 0.10785792503E+02
 0.10093205375E+02 0.96198931292E+01 0.93669991715E+01 0.93657783889E+01 0.10583252984E+02
 0.10964738963E+02 0.11460042481E+02 0.12154797923E+02 0.13126535451E+02 0.14301310045E+02
 0.15431739109E+02 0.16246052262E+02 0.16584740498E+02 0.16571002715E+02 0.16511537278E+02
 0.16569943375E+02 0.16583275916E+02 0.16244945328E+02 0.15431159386E+02 0.14300793572E+02
 0.13125834171E+02 0.12154487184E+02 0.11460868973E+02 0.10966563021E+02 0.10585110048E+02
 0.10313288081E+02 0.10210829517E+02 0.10312226262E+02 0.11122534250E+02 0.11280718454E+02
 0.11460031565E+02 0.11768704419E+02 0.12276285434E+02 0.12912588172E+02 0.13486289060E+02
 0.13849601838E+02 0.13976487154E+02 0.13975660885E+02 0.13975142511E+02 0.13975569966E+02
 0.13849295729E+02 0.13486491820E+02 0.12912174667E+02 0.12274890729E+02 0.11767687890E+02
 0.11460868973E+02 0.11282860228E+02 0.11123983293E+02 0.10953362924E+02 0.10833812393E+02
 0.10834136470E+02 0.10953396940E+02 0.11122794052E+02 0.10965329341E+02 0.10786228753E+02
 0.10707565146E+02 0.10786094032E+02 0.10965324969E+02 0.11122916394E+02 0.11181223194E+02
 0.11165401945E+02 0.11146917449E+02 0.11164332584E+02 0.11180691496E+02 0.11123861527E+02
 0.10966579562E+02 0.10785937980E+02 0.10706263390E+02 0.10785792503E+02 0.10966563021E+02
 0.11123983293E+02 0.11180691052E+02 0.11164211949E+02 0.11146940565E+02 0.11165561149E+02
 0.11181243304E+02 0.10583791674E+02 0.10091748599E+02 0.95972340690E+01 0.92146050611E+01
 0.89785743161E+01 0.88429088054E+01 0.87390899163E+01 0.86394406500E+01 0.85705417826E+01
 0.85704542715E+01 0.86393215397E+01 0.87391071671E+01 0.88428572605E+01 0.89780931388E+01
 0.92139760546E+01 0.95974646804E+01 0.10093205375E+02 0.10585110048E+02 0.10953362924E+02
 0.11164211949E+02 0.11249613493E+02 0.11250798858E+02 0.11166308084E+02 0.10953933261E+02
 0.96178046991E+01 0.88501285462E+01 0.81414569665E+01 0.75756345045E+01 0.71606915600E+01
 0.68566818779E+01 0.66279047321E+01 0.64740923063E+01 0.64189749408E+01 0.64755943882E+01
 0.66289923802E+01 0.68557906166E+01 0.71583707616E+01 0.75739252890E+01 0.81418798233E+01
 0.88523393821E+01 0.96198931292E+01 0.10313288081E+02 0.10833812393E+02 0.11146940565E+02
 0.11250798858E+02 0.11148924757E+02 0.10835721839E+02 0.10313173268E+02 0.84085953509E+01
 0.74716447556E+01 0.66618003191E+01 0.60221356995E+01 0.55398286089E+01 0.51822073942E+01
 0.49327033810E+01 0.48002946135E+01 0.48005271872E+01 0.49330312570E+01 0.51820662316E+01
 0.55392759298E+01 0.60217954853E+01 0.66621442058E+01 0.74725449575E+01 0.84094135439E+01
 0.93669991715E+01 0.10210829517E+02 0.10834136470E+02 0.11165561149E+02 0.11166308084E+02
 0.10835721839E+02 0.10211979982E+02 0.93670253257E+01 0.71488003463E+01 0.61499109470E+01
 0.53263138670E+01 0.46865793465E+01 0.42090424341E+01 0.38700748745E+01 0.36617883821E+01
 0.35901816478E+01 0.36605522328E+01 0.38687922056E+01 0.42090698533E+01 0.46881635353E+01
 0.53283000430E+01 0.61508676221E+01 0.71483283630E+01 0.82597030801E+01 0.93657783889E+01
 0.10312226262E+02 0.10953396940E+02 0.11181243304E+02 0.10953933261E+02 0.10313173268E+02
 0.93670253257E+01 0.82609412254E+01 0.61508828307E+01 0.49995011759E+01 0.41208243589E+01
 0.34788816057E+01 0.30387044679E+01 0.27793697557E+01 0.26933412442E+01 0.27793822658E+01
 0.30386546453E+01 0.34787964131E+01 0.41208359487E+01 0.49996438006E+01 0.61510340055E+01
 0.75818470289E+01 0.92285801389E+01 0.10928446873E+02 0.12435633504E+02 0.13486083274E+02
 0.13864340823E+02 0.13486131144E+02 0.12435684802E+02 0.10928483468E+02 0.92285952312E+01
 0.75817899904E+01 0.49995011759E+01 0.39717790002E+01 0.32046471685E+01 0.26619413163E+01
 0.23154446289E+01 0.21469397483E+01 0.21473669623E+01 0.23162952555E+01 0.26622518175E+01
 0.32037548632E+01 0.39700761697E+01 0.49982983825E+01 0.63187550710E+01 0.79212683083E+01
 0.97093802535E+01 0.11472576107E+02 0.12911922488E+02 0.13726864936E+02 0.13727327578E+02
 0.12912632002E+02 0.11472306501E+02 0.97078533306E+01 0.79196110352E+01 0.63183876002E+01
 0.41208243589E+01 0.32046471685E+01 0.25398811720E+01 0.20926628429E+01 0.18366735275E+01
 0.17535998364E+01 0.18366232032E+01 0.20926773833E+01 0.25399780476E+01 0.32047040284E+01
 0.41207791590E+01 0.53262845704E+01 0.68421436463E+01 0.86275214326E+01 0.10530795337E+02
 0.12276284391E+02 0.13520956668E+02 0.13974067124E+02 0.13521069163E+02 0.12276439848E+02
 0.10530894489E+02 0.86275355247E+01 0.68421519621E+01 0.53263465830E+01 0.34788816057E+01
 0.26619413163E+01 0.20926628429E+01 0.17358476051E+01 0.15650995003E+01 0.15649844007E+01
 0.17354397811E+01 0.20921616034E+01 0.26621187299E+01 0.34802665645E+01 0.45880650926E+01
 0.60223328470E+01 0.77814321670E+01 0.97722384037E+01 0.11767866370E+02 0.13422353651E+02
 0.14368807046E+02 0.14368237634E+02 0.13421662390E+02 0.11768656689E+02 0.97743640708E+01
 0.77829761371E+01 0.60218902615E+01 0.45862930064E+01 0.30387044679E+01 0.23154446289E+01
 0.18366735275E+01 0.15650995003E+01 0.14772913106E+01 0.15650931438E+01 0.18366615158E+01
 0.23154153594E+01 0.30386413021E+01 0.40559848394E+01 0.54204540856E+01 0.71608242864E+01
 0.92320673366E+01 0.11460056458E+02 0.13520997059E+02 0.15001318281E+02 0.15542451092E+02
 0.15001289239E+02 0.13520889518E+02 0.11459866436E+02 0.92318808679E+01 0.71607399448E+01
 0.54204860157E+01 0.40560659812E+01 0.27793697557E+01 0.21469397483E+01 0.17535998364E+01
 0.15649844007E+01 0.15650931438E+01 0.17539657793E+01 0.21473828088E+01 0.27792485862E+01
 0.37041957842E+01 0.49924931439E+01 0.67053681305E+01 0.88437790559E+01 0.11282601561E+02
 0.13728589058E+02 0.15754807268E+02 0.16915977978E+02 0.16916083210E+02 0.15754590983E+02
 0.13727332877E+02 0.11280752902E+02 0.88427690698E+01 0.67060190748E+01 0.49940868352E+01
 0.37053495696E+01 0.26933412442E+01 0.21473669623E+01 0.18366232032E+01 0.17354397811E+01
 0.18366615158E+01 0.21473828088E+01 0.26933185666E+01 0.35270649159E+01 0.47292817341E+01
 0.63885806854E+01 0.85473631653E+01 0.11122433995E+02 0.13864262375E+02 0.16377711411E+02
 0.18167680034E+02 0.18818220249E+02 0.18167647808E+02 0.16377817354E+02 0.13864547332E+02
 0.11122690226E+02 0.85473881876E+01 0.63884233206E+01 0.47291438287E+01 0.35270425479E+01
 0.27793822658E+01 0.23162952555E+01 0.20926773833E+01 0.20921616034E+01 0.23154153594E+01
 0.27792485862E+01 0.35270649159E+01 0.46388161261E+01 0.62196810668E+01 0.83430554186E+01
 0.10953398227E+02 0.13848639108E+02 0.16655843414E+02 0.18883488915E+02 0.20110662821E+02
 0.20111521411E+02 0.18885436285E+02 0.16657598082E+02 0.13849417821E+02 0.10953354627E+02
 0.83426395206E+01 0.62189661519E+01 0.46377925980E+01 0.35262663935E+01 0.30386546453E+01
 0.26622518175E+01 0.25399780476E+01 0.26621187299E+01 0.30386413021E+01 0.37041957842E+01
 0.47292817341E+01 0.62196810668E+01 0.82666441129E+01 0.10834070428E+02 0.13739098402E+02
 0.16585369610E+02 0.18871354095E+02 0.20275736459E+02 0.20736579936E+02 0.20275587309E+02
 0.18871223326E+02 0.16585278988E+02 0.13738951867E+02 0.10833955233E+02 0.82667290351E+01
 0.62198551281E+01 0.47292863492E+01 0.37040751349E+01 0.34787964131E+01 0.32037548632E+01
 0.32047040284E+01 0.34802665645E+01 0.40559848394E+01 0.49924931439E+01 0.63885806854E+01
 0.83430554186E+01 0.10834070428E+02 0.13675557443E+02 0.16411361434E+02 0.18436942700E+02
 0.19478618556E+02 0.19797020462E+02 0.19794809936E+02 0.19474442464E+02 0.18434948191E+02
 0.16412297803E+02 0.13676750888E+02 0.10833784250E+02 0.83426025246E+01 0.63896239112E+01
 0.49941639939E+01 0.40561528940E+01 0.41208359487E+01 0.39700761697E+01 0.41207791590E+01
 0.45880650926E+01 0.54204540856E+01 0.67053681305E+01 0.85473631653E+01 0.10953398227E+02
 0.13739098402E+02 0.16411361434E+02 0.18185344834E+02 0.18625858639E+02 0.18186866626E+02
 0.17866832494E+02 0.18186791822E+02 0.18625875773E+02 0.18185526792E+02 0.16411584581E+02
 0.13739222738E+02 0.10953410109E+02 0.85473124192E+01 0.67052946287E+01 0.54204095834E+01
 0.45880922624E+01 0.49996438006E+01 0.49982983825E+01 0.53262845704E+01 0.60223328470E+01
 0.71608242864E+01 0.88437790559E+01 0.11122433995E+02 0.13848639108E+02 0.16585369610E+02
 0.18436942700E+02 0.18625858639E+02 0.17399567339E+02 0.16122515788E+02 0.16125425731E+02
 0.17404962594E+02 0.18628096467E+02 0.18435108011E+02 0.16583477471E+02 0.13849406578E+02
 0.11123823476E+02 0.88428066966E+01 0.71583807971E+01 0.60217753049E+01 0.53282264991E+01
 0.61510340055E+01 0.63187550710E+01 0.68421436463E+01 0.77814321670E+01 0.92320673366E+01
 0.11282601561E+02 0.13864262375E+02 0.16655843414E+02 0.18871354095E+02 0.19478618556E+02
 0.18186866626E+02 0.16122515788E+02 0.15131123296E+02 0.16122557109E+02 0.18186914246E+02
 0.19478616148E+02 0.18871267005E+02 0.16655706771E+02 0.13864169041E+02 0.11282613372E+02
 0.92321399445E+01 0.77814571440E+01 0.68420756489E+01 0.63186695275E+01 0.75818470289E+01
 0.79212683083E+01 0.86275214326E+01 0.97722384037E+01 0.11460056458E+02 0.13728589058E+02
 0.16377711411E+02 0.18883488915E+02 0.20275736459E+02 0.19797020462E+02 0.17866832494E+02
 0.16125425731E+02 0.16122557109E+02 0.17861493936E+02 0.19794768396E+02 0.20277524150E+02
 0.18885384331E+02 0.16376963640E+02 0.13727128648E+02 0.11460877221E+02 0.97746066047E+01
 0.86281910898E+01 0.79195374941E+01 0.75806069492E+01 0.92285801389E+01 0.97093802535E+01
 0.10530795337E+02 0.11767866370E+02 0.13520997059E+02 0.15754807268E+02 0.18167680034E+02
 0.20110662821E+02 0.20736579936E+02 0.19794809936E+02 0.18186791822E+02 0.17404962594E+02
 0.18186914246E+02 0.19794768396E+02 0.20736317568E+02 0.20110473280E+02 0.18167747597E+02
 0.15754974035E+02 0.13521076760E+02 0.11767883321E+02 0.10530816303E+02 0.97093753989E+01
 0.92285449102E+01 0.90680900036E+01 0.10928446873E+02 0.11472576107E+02 0.12276284391E+02
 0.13422353651E+02 0.15001318281E+02 0.16915977978E+02 0.18818220249E+02 0.20111521411E+02
 0.20275587309E+02 0.19474442464E+02 0.18625875773E+02 0.18628096467E+02 0.19478616148E+02
 0.20277524150E+02 0.20110473280E+02 0.18816893712E+02 0.16916222103E+02 0.15002017869E+02
 0.13421839951E+02 0.12274954372E+02 0.11472037696E+02 0.10929046645E+02 0.10641351528E+02
 0.10640868756E+02 0.12435633504E+02 0.12911922488E+02 0.13520956668E+02 0.14368807046E+02
 0.15542451092E+02 0.16916083210E+02 0.18167647808E+02 0.18885436285E+02 0.18871223326E+02
 0.18434948191E+02 0.18185526792E+02 0.18435108011E+02 0.18871267005E+02 0.18885384331E+02
 0.18167747597E+02 0.16916222103E+02 0.15542317275E+02 0.14368557666E+02 0.13521008357E+02
 0.12912160864E+02 0.12435589054E+02 0.12096355515E+02 0.11969243628E+02 0.12096624029E+02
 0.13486083274E+02 0.13726864936E+02 0.13974067124E+02 0.14368237634E+02 0.15001289239E+02
 0.15754590983E+02 0.16377817354E+02 0.16657598082E+02 0.16585278988E+02 0.16412297803E+02
 0.16411584581E+02 0.16583477471E+02 0.16655706771E+02 0.16376963640E+02 0.15754974035E+02
 0.15002017869E+02 0.14368557666E+02 0.13974209026E+02 0.13727310324E+02 0.13486674348E+02
 0.13228718991E+02 0.13046112770E+02 0.13046051231E+02 0.13228395015E+02 0.13864340823E+02
 0.13727327578E+02 0.13521069163E+02 0.13421662390E+02 0.13520889518E+02 0.13727332877E+02
 0.13864547332E+02 0.13849417821E+02 0.13738951867E+02 0.13676750888E+02 0.13739222738E+02
 0.13849406578E+02 0.13864169041E+02 0.13727128648E+02 0.13521076760E+02 0.13421839951E+02
 0.13521008357E+02 0.13727310324E+02 0.13864542702E+02 0.13849557780E+02 0.13739112177E+02
 0.13676733474E+02 0.13739066758E+02 0.13849359451E+02 0.13486131144E+02 0.12912632002E+02
 0.12276439848E+02 0.11768656689E+02 0.11459866436E+02 0.11280752902E+02 0.11122690226E+02
 0.10953354627E+02 0.10833955233E+02 0.10833784250E+02 0.10953410109E+02 0.11123823476E+02
 0.11282613372E+02 0.11460877221E+02 0.11767883321E+02 0.12274954372E+02 0.12912160864E+02
 0.13486674348E+02 0.13849557780E+02 0.13975578317E+02 0.13974978764E+02 0.13975659860E+02
 0.13976600785E+02 0.13849539819E+02 0.12435684802E+02 0.11472306501E+02 0.10530894489E+02
 0.97743640708E+01 0.92318808679E+01 0.88427690698E+01 0.85473881876E+01 0.83426395206E+01
 0.82667290351E+01 0.83426025246E+01 0.85473124192E+01 0.88428066966E+01 0.92321399445E+01
 0.97746066047E+01 0.10530816303E+02 0.11472037696E+02 0.12435589054E+02 0.13228718991E+02
 0.13739112177E+02 0.13974978764E+02 0.14034424072E+02 0.13975142733E+02 0.13739158403E+02
 0.13228643943E+02 0.10928483468E+02 0.97078533306E+01 0.86275355247E+01 0.77829761371E+01
 0.71607399448E+01 0.67060190748E+01 0.63884233206E+01 0.62189661519E+01 0.62198551281E+01
 0.63896239112E+01 0.67052946287E+01 0.71583807971E+01 0.77814571440E+01 0.86281910898E+01
 0.97093753989E+01 0.10929046645E+02 0.12096355515E+02 0.13046112770E+02 0.13676733474E+02
 0.13975659860E+02 0.13975142733E+02 0.13675927417E+02 0.13046074094E+02 0.12096713189E+02
 0.92285952312E+01 0.79196110352E+01 0.68421519621E+01 0.60218902615E+01 0.54204860157E+01
 0.49940868352E+01 0.47291438287E+01 0.46377925980E+01 0.47292863492E+01 0.49941639939E+01
 0.54204095834E+01 0.60217753049E+01 0.68420756489E+01 0.79195374941E+01 0.92285449102E+01
 0.10641351528E+02 0.11969243628E+02 0.13046051231E+02 0.13739066758E+02 0.13976600785E+02
 0.13739158403E+02 0.13046074094E+02 0.11969163903E+02 0.10641306322E+02 0.75817899904E+01
 0.63183876002E+01 0.53263465830E+01 0.45862930064E+01 0.40560659812E+01 0.37053495696E+01
 0.35270425479E+01 0.35262663935E+01 0.37040751349E+01 0.40561528940E+01 0.45880922624E+01
 0.53282264991E+01 0.63186695275E+01 0.75806069492E+01 0.90680900036E+01 0.10640868756E+02
 0.12096624029E+02 0.13228395015E+02 0.13849359451E+02 0.13849539819E+02 0.13228643943E+02
 0.12096713189E+02 0.10641306322E+02 0.90693060842E+01 0.59856659916E+01 0.47612620671E+01
 0.38640752651E+01 0.32356093110E+01 0.28330668711E+01 0.26352706450E+01 0.26354557376E+01
 0.28333014807E+01 0.32354413383E+01 0.38636546744E+01 0.47611364537E+01 0.59859241271E+01
 0.75818822364E+01 0.95254135242E+01 0.11670945133E+02 0.13751634292E+02 0.15432725900E+02
 0.16378218323E+02 0.16377636617E+02 0.15431611299E+02 0.13751078771E+02 0.11671190048E+02
 0.95257547800E+01 0.75817753036E+01 0.47612620671E+01 0.37216112782E+01 0.29751450181E+01
 0.24732002268E+01 0.21836613197E+01 0.20891958430E+01 0.21841176465E+01 0.24734120875E+01
 0.29744534072E+01 0.37201974231E+01 0.47601405726E+01 0.61504459670E+01 0.79213411161E+01
 0.10020397917E+02 0.12257806787E+02 0.14301306675E+02 0.15754328884E+02 0.16283138852E+02
 0.15754652891E+02 0.14301424118E+02 0.12257150229E+02 0.10019031457E+02 0.79201333359E+01
 0.61503593107E+01 0.38640752651E+01 0.29751450181E+01 0.23560774855E+01 0.19664852311E+01
 0.17789639894E+01 0.17789364366E+01 0.19664742347E+01 0.23561531468E+01 0.29752191585E+01
 0.38640395481E+01 0.50758534491E+01 0.66617435596E+01 0.86275037083E+01 0.10869437351E+02
 0.13126517259E+02 0.15001288858E+02 0.16074809367E+02 0.16074882930E+02 0.15001469148E+02
 0.13126689909E+02 0.10869495392E+02 0.86274764496E+01 0.66617602045E+01 0.50759402242E+01
 0.32356093110E+01 0.24732002268E+01 0.19664852311E+01 0.16783880446E+01 0.15851062580E+01
 0.16781057126E+01 0.19661352683E+01 0.24733183003E+01 0.32366483716E+01 0.43061206627E+01
 0.57392887274E+01 0.75740069853E+01 0.97721578683E+01 0.12153472976E+02 0.14368642920E+02
 0.15965116587E+02 0.16549101894E+02 0.15964090988E+02 0.14368193705E+02 0.12154702344E+02
 0.97742093158E+01 0.75750548537E+01 0.57385855760E+01 0.43045867647E+01 0.28330668711E+01
 0.21836613197E+01 0.17789639894E+01 0.15851062580E+01 0.15851088438E+01 0.17789579591E+01
 0.21836337305E+01 0.28330327419E+01 0.37786972740E+01 0.50864869654E+01 0.68169535264E+01
 0.89786800638E+01 0.11460052124E+02 0.13974155558E+02 0.16074945702E+02 0.17283099617E+02
 0.17283012690E+02 0.16074727196E+02 0.13973913983E+02 0.11459897766E+02 0.89786443317E+01
 0.68169816716E+01 0.50865187872E+01 0.37787247374E+01 0.26352706450E+01 0.20891958430E+01
 0.17789364366E+01 0.16781057126E+01 0.17789579591E+01 0.20895441959E+01 0.26356156174E+01
 0.34661236714E+01 0.46549969352E+01 0.62861602971E+01 0.84091580014E+01 0.10967220483E+02
 0.13728639148E+02 0.16282762953E+02 0.18120939230E+02 0.18794539817E+02 0.18122167237E+02
 0.16283150108E+02 0.13726949562E+02 0.10964846153E+02 0.84084145442E+01 0.62874943546E+01
 0.46567441346E+01 0.34667540258E+01 0.26354557376E+01 0.21841176465E+01 0.19664742347E+01
 0.19661352683E+01 0.21836337305E+01 0.26356156174E+01 0.33627391792E+01 0.44381370921E+01
 0.59607570185E+01 0.80139332974E+01 0.10583851903E+02 0.13486651691E+02 0.16377668780E+02
 0.18753791146E+02 0.20102464021E+02 0.20103260401E+02 0.18755304471E+02 0.16378398073E+02
 0.13486300038E+02 0.10583412711E+02 0.80141119267E+01 0.59610688906E+01 0.44378498113E+01
 0.33620890171E+01 0.28333014807E+01 0.24734120875E+01 0.23561531468E+01 0.24733183003E+01
 0.28330327419E+01 0.34661236714E+01 0.44381370921E+01 0.58505656454E+01 0.78052024599E+01
 0.10312418364E+02 0.13226857613E+02 0.16244499484E+02 0.18883357714E+02 0.20668301752E+02
 0.21295769152E+02 0.20669135130E+02 0.18885222233E+02 0.16246883183E+02 0.13228392614E+02
 0.10312116749E+02 0.78035442226E+01 0.58489740047E+01 0.44375258602E+01 0.34662815290E+01
 0.32354413383E+01 0.29744534072E+01 0.29752191585E+01 0.32366483716E+01 0.37786972740E+01
 0.46549969352E+01 0.59607570185E+01 0.78052024599E+01 0.10212042791E+02 0.13045894188E+02
 0.15991411073E+02 0.18538173298E+02 0.20275653446E+02 0.21104037355E+02 0.21103671001E+02
 0.20275377592E+02 0.18539029722E+02 0.15992692467E+02 0.13045907749E+02 0.10210613011E+02
 0.78041070343E+01 0.59613069175E+01 0.46562272089E+01 0.37787688133E+01 0.38636546744E+01
 0.37201974231E+01 0.38640395481E+01 0.43061206627E+01 0.50864869654E+01 0.62861602971E+01
 0.80139332974E+01 0.10312418364E+02 0.13045894188E+02 0.15864332564E+02 0.18145048954E+02
 0.19417698254E+02 0.19796996598E+02 0.19821404953E+02 0.19795890914E+02 0.19416053832E+02
 0.18143638890E+02 0.15863699175E+02 0.13046136272E+02 0.10313257974E+02 0.80149060020E+01
 0.62868085753E+01 0.50865625955E+01 0.43057481138E+01 0.47611364537E+01 0.47601405726E+01
 0.50758534491E+01 0.57392887274E+01 0.68169535264E+01 0.84091580014E+01 0.10583851903E+02
 0.13226857613E+02 0.15991411073E+02 0.18145048954E+02 0.18982096704E+02 0.18568241071E+02
 0.17866776739E+02 0.17867176774E+02 0.18568457661E+02 0.18980960271E+02 0.18143570208E+02
 0.15991650315E+02 0.13228796445E+02 0.10585113614E+02 0.84082205670E+01 0.68152530426E+01
 0.57392035299E+01 0.50774393057E+01 0.59859241271E+01 0.61504459670E+01 0.66617435596E+01
 0.75740069853E+01 0.89786800638E+01 0.10967220483E+02 0.13486651691E+02 0.16244499484E+02
 0.18538173298E+02 0.19417698254E+02 0.18568241071E+02 0.16935588733E+02 0.16125387386E+02
 0.16935509358E+02 0.18568224817E+02 0.19418057366E+02 0.18538974082E+02 0.16245166902E+02
 0.13486497079E+02 0.10966365142E+02 0.89779621707E+01 0.75739573990E+01 0.66621182376E+01
 0.61507534352E+01 0.75818822364E+01 0.79213411161E+01 0.86275037083E+01 0.97721578683E+01
 0.11460052124E+02 0.13728639148E+02 0.16377668780E+02 0.18883357714E+02 0.20275653446E+02
 0.19796996598E+02 0.17866776739E+02 0.16125387386E+02 0.16122671734E+02 0.17861715186E+02
 0.19794916835E+02 0.20277572623E+02 0.18885437669E+02 0.16376999721E+02 0.13727034612E+02
 0.11460709829E+02 0.97745412011E+01 0.86282338509E+01 0.79195487793E+01 0.75805768259E+01
 0.95254135242E+01 0.10020397917E+02 0.10869437351E+02 0.12153472976E+02 0.13974155558E+02
 0.16282762953E+02 0.18753791146E+02 0.20668301752E+02 0.21104037355E+02 0.19821404953E+02
 0.17867176774E+02 0.16935509358E+02 0.17861715186E+02 0.19815392605E+02 0.21101974626E+02
 0.20669956668E+02 0.18755729052E+02 0.16283114273E+02 0.13974215324E+02 0.12154678169E+02
 0.10870851528E+02 0.10020431929E+02 0.95245698777E+01 0.93600555446E+01 0.11670945133E+02
 0.12257806787E+02 0.13126517259E+02 0.14368642920E+02 0.16074945702E+02 0.18120939230E+02
 0.20102464021E+02 0.21295769152E+02 0.21103671001E+02 0.19795890914E+02 0.18568457661E+02
 0.18568224817E+02 0.19794916835E+02 0.21101974626E+02 0.21294492869E+02 0.20102747470E+02
 0.18122372252E+02 0.16076073542E+02 0.14368758452E+02 0.13126163263E+02 0.12257693984E+02
 0.11671125713E+02 0.11361315517E+02 0.11361192253E+02 0.13751634292E+02 0.14301306675E+02
 0.15001288858E+02 0.15965116587E+02 0.17283099617E+02 0.18794539817E+02 0.20103260401E+02
 0.20669135130E+02 0.20275377592E+02 0.19416053832E+02 0.18980960271E+02 0.19418057366E+02
 0.20277572623E+02 0.20669956668E+02 0.20102747470E+02 0.18793738139E+02 0.17282928304E+02
 0.15965788810E+02 0.15002068492E+02 0.14300915567E+02 0.13749719102E+02 0.13357569685E+02
 0.13210964127E+02 0.13359495044E+02 0.15432725900E+02 0.15754328884E+02 0.16074809367E+02
 0.16549101894E+02 0.17283012690E+02 0.18122167237E+02 0.18755304471E+02 0.18885222233E+02
 0.18539029722E+02 0.18143638890E+02 0.18143570208E+02 0.18538974082E+02 0.18885437669E+02
 0.18755729052E+02 0.18122372252E+02 0.17282928304E+02 0.16549434225E+02 0.16075914978E+02
 0.15754950260E+02 0.15431202891E+02 0.15078839403E+02 0.14827949746E+02 0.14829536946E+02
 0.15081864921E+02 0.16378218323E+02 0.16283138852E+02 0.16074882930E+02 0.15964090988E+02
 0.16074727196E+02 0.16283150108E+02 0.16378398073E+02 0.16246883183E+02 0.15992692467E+02
 0.15863699175E+02 0.15991650315E+02 0.16245166902E+02 0.16376999721E+02 0.16283114273E+02
 0.16076073542E+02 0.15965788810E+02 0.16075914978E+02 0.16283115091E+02 0.16377155107E+02
 0.16245152035E+02 0.15991465061E+02 0.15863668366E+02 0.15992821718E+02 0.16246856449E+02
 0.16377636617E+02 0.15754652891E+02 0.15001469148E+02 0.14368193705E+02 0.13973913983E+02
 0.13726949562E+02 0.13486300038E+02 0.13228392614E+02 0.13045907749E+02 0.13046136272E+02
 0.13228796445E+02 0.13486497079E+02 0.13727034612E+02 0.13974215324E+02 0.14368758452E+02
 0.15002068492E+02 0.15754950260E+02 0.16377155107E+02 0.16655959382E+02 0.16583429248E+02
 0.16411352023E+02 0.16412254680E+02 0.16585360868E+02 0.16657494603E+02 0.15431611299E+02
 0.14301424118E+02 0.13126689909E+02 0.12154702344E+02 0.11459897766E+02 0.10964846153E+02
 0.10583412711E+02 0.10312116749E+02 0.10210613011E+02 0.10313257974E+02 0.10585113614E+02
 0.10966365142E+02 0.11460709829E+02 0.12154678169E+02 0.13126163263E+02 0.14300915567E+02
 0.15431202891E+02 0.16245152035E+02 0.16583429248E+02 0.16569760807E+02 0.16511257106E+02
 0.16570980301E+02 0.16584825165E+02 0.16245949373E+02 0.13751078771E+02 0.12257150229E+02
 0.10869495392E+02 0.97742093158E+01 0.89786443317E+01 0.84084145442E+01 0.80141119267E+01
 0.78035442226E+01 0.78041070343E+01 0.80149060020E+01 0.84082205670E+01 0.89779621707E+01
 0.97745412011E+01 0.10870851528E+02 0.12257693984E+02 0.13749719102E+02 0.15078839403E+02
 0.15991465061E+02 0.16411352023E+02 0.16511257106E+02 0.16510228739E+02 0.16409693609E+02
 0.15991502794E+02 0.15080643276E+02 0.11671190048E+02 0.10019031457E+02 0.86274764496E+01
 0.75750548537E+01 0.68169816716E+01 0.62874943546E+01 0.59610688906E+01 0.58489740047E+01
 0.59613069175E+01 0.62868085753E+01 0.68152530426E+01 0.75739573990E+01 0.86282338509E+01
 0.10020431929E+02 0.11671125713E+02 0.13357569685E+02 0.14827949746E+02 0.15863668366E+02
 0.16412254680E+02 0.16570980301E+02 0.16409693609E+02 0.15861506496E+02 0.14828220206E+02
 0.13358964293E+02 0.95257547800E+01 0.79201333359E+01 0.66617602045E+01 0.57385855760E+01
 0.50865187872E+01 0.46567441346E+01 0.44378498113E+01 0.44375258602E+01 0.46562272089E+01
 0.50865625955E+01 0.57392035299E+01 0.66621182376E+01 0.79195487793E+01 0.95245698777E+01
 0.11361315517E+02 0.13210964127E+02 0.14829536946E+02 0.15992821718E+02 0.16585360868E+02
 0.16584825165E+02 0.15991502794E+02 0.14828220206E+02 0.13210533258E+02 0.11362041651E+02
 0.75817753036E+01 0.61503593107E+01 0.50759402242E+01 0.43045867647E+01 0.37787247374E+01
 0.34667540258E+01 0.33620890171E+01 0.34662815290E+01 0.37787688133E+01 0.43057481138E+01
 0.50774393057E+01 0.61507534352E+01 0.75805768259E+01 0.93600555446E+01 0.11361192253E+02
 0.13359495044E+02 0.15081864921E+02 0.16246856449E+02 0.16657494603E+02 0.16245949373E+02
 0.15080643276E+02 0.13358964293E+02 0.11362041651E+02 0.93618078911E+01 0.55257074102E+01
 0.43301708713E+01 0.34854661727E+01 0.29213890813E+01 0.25948208247E+01 0.24873287810E+01
 0.25946834923E+01 0.29212719302E+01 0.34854615824E+01 0.43302141446E+01 0.55257162393E+01
 0.71488543268E+01 0.92286459506E+01 0.11670964339E+02 0.14229620900E+02 0.16540718046E+02
 0.18167697702E+02 0.18755184082E+02 0.18167519195E+02 0.16540509417E+02 0.14229499084E+02
 0.11670928688E+02 0.92286546736E+01 0.71488747817E+01 0.43301708713E+01 0.33530033894E+01
 0.26780408731E+01 0.22529532123E+01 0.20471966208E+01 0.20472446963E+01 0.22529225857E+01
 0.26776430675E+01 0.33522915527E+01 0.43296482499E+01 0.56813343529E+01 0.74733051118E+01
 0.97094855022E+01 0.12257825673E+02 0.14807587075E+02 0.16916248365E+02 0.18122260201E+02
 0.18122207123E+02 0.16916197092E+02 0.14807596326E+02 0.12257647608E+02 0.97089235246E+01
 0.74726754436E+01 0.56812110405E+01 0.34854661727E+01 0.26780408731E+01 0.21414442571E+01
 0.18353734211E+01 0.17360406695E+01 0.18354131842E+01 0.21415386269E+01 0.26781362777E+01
 0.34854868336E+01 0.46223685406E+01 0.61585503108E+01 0.81413562519E+01 0.10530733548E+02
 0.13126453966E+02 0.15542430940E+02 0.17283068950E+02 0.17920077133E+02 0.17283135130E+02
 0.15542602546E+02 0.13126670080E+02 0.10530860785E+02 0.81413732087E+01 0.61585560479E+01
 0.46223976253E+01 0.29213890813E+01 0.22529532123E+01 0.18353734211E+01 0.16352776829E+01
 0.16352229217E+01 0.18352324462E+01 0.22529024772E+01 0.29217616789E+01 0.38917894988E+01
 0.52287249278E+01 0.69971791747E+01 0.92127600521E+01 0.11767735010E+02 0.14368569193E+02
 0.16549769273E+02 0.17806731728E+02 0.17806274101E+02 0.16549055591E+02 0.14368724573E+02
 0.11768907831E+02 0.92139278343E+01 0.69973530228E+01 0.52279703861E+01 0.38909303860E+01
 0.25948208247E+01 0.20471966208E+01 0.17360406695E+01 0.16352229217E+01 0.17360668022E+01
 0.20471529778E+01 0.25946982048E+01 0.34241539283E+01 0.46011707151E+01 0.62017798158E+01
 0.82769781017E+01 0.10786180347E+02 0.13521020230E+02 0.16074953368E+02 0.17920187596E+02
 0.18596545540E+02 0.17919979745E+02 0.16074680127E+02 0.13520843832E+02 0.10786135637E+02
 0.82769677287E+01 0.62017359668E+01 0.46011559843E+01 0.34242400046E+01 0.24873287810E+01
 0.20472446963E+01 0.18354131842E+01 0.18352324462E+01 0.20471529778E+01 0.24877829567E+01
 0.31943433444E+01 0.42307607952E+01 0.56841513669E+01 0.76352286557E+01 0.10093394018E+02
 0.12914262669E+02 0.15754887697E+02 0.18120952718E+02 0.19480930658E+02 0.19481825968E+02
 0.18122240680E+02 0.15754363373E+02 0.12912050594E+02 0.10091843787E+02 0.76358539951E+01
 0.56858967181E+01 0.42316835133E+01 0.31940360253E+01 0.25946834923E+01 0.22529225857E+01
 0.21415386269E+01 0.22529024772E+01 0.25946982048E+01 0.31943433444E+01 0.41084233531E+01
 0.54260595279E+01 0.72471818535E+01 0.96173703036E+01 0.12435710131E+02 0.15432749452E+02
 0.18167578508E+02 0.20102385668E+02 0.20802478374E+02 0.20102547854E+02 0.18167739575E+02
 0.15432830591E+02 0.12435797833E+02 0.96175184182E+01 0.72472912609E+01 0.54260272634E+01
 0.41082969613E+01 0.31942480498E+01 0.29212719302E+01 0.26776430675E+01 0.26781362777E+01
 0.29217616789E+01 0.34241539283E+01 0.42307607952E+01 0.54260595279E+01 0.71171102617E+01
 0.93668592121E+01 0.12094785182E+02 0.15078887100E+02 0.17913768562E+02 0.20110465271E+02
 0.21295682388E+02 0.21294547268E+02 0.20108889495E+02 0.17914592657E+02 0.15081796696E+02
 0.12096549376E+02 0.93656100479E+01 0.71146589153E+01 0.54252215586E+01 0.42317228168E+01
 0.34248745485E+01 0.34854615824E+01 0.33522915527E+01 0.34854868336E+01 0.38917894988E+01
 0.46011707151E+01 0.56841513669E+01 0.72471818535E+01 0.93668592121E+01 0.11969249280E+02
 0.14829592640E+02 0.17517760481E+02 0.19560263794E+02 0.20736541124E+02 0.21103702407E+02
 0.20736549823E+02 0.19560202385E+02 0.17517602633E+02 0.14829412095E+02 0.11969128021E+02
 0.93668213728E+01 0.72472203872E+01 0.56842415020E+01 0.46012509504E+01 0.38918049940E+01
 0.43302141446E+01 0.43296482499E+01 0.46223685406E+01 0.52287249278E+01 0.62017798158E+01
 0.76352286557E+01 0.96173703036E+01 0.12094785182E+02 0.14829592640E+02 0.17327526976E+02
 0.19007606527E+02 0.19697637677E+02 0.19794895177E+02 0.19795997517E+02 0.19698990196E+02
 0.19006341422E+02 0.17324344956E+02 0.14828046273E+02 0.12096466692E+02 0.96199570224E+01
 0.76358530975E+01 0.62006225458E+01 0.52280429219E+01 0.46230085642E+01 0.55257162393E+01
 0.56813343529E+01 0.61585503108E+01 0.69971791747E+01 0.82769781017E+01 0.10093394018E+02
 0.12435710131E+02 0.15078887100E+02 0.17517760481E+02 0.19007606527E+02 0.19185315864E+02
 0.18568397812E+02 0.18186815753E+02 0.18568540917E+02 0.19185301978E+02 0.19007454535E+02
 0.17517785089E+02 0.15079067004E+02 0.12435723873E+02 0.10093263797E+02 0.82770213012E+01
 0.69973479366E+01 0.61584960576E+01 0.56811083685E+01 0.71488543268E+01 0.74733051118E+01
 0.81413562519E+01 0.92127600521E+01 0.10786180347E+02 0.12914262669E+02 0.15432749452E+02
 0.17913768562E+02 0.19560263794E+02 0.19697637677E+02 0.18568397812E+02 0.17405305146E+02
 0.17405009582E+02 0.18568319587E+02 0.19698958115E+02 0.19562454806E+02 0.17914686293E+02
 0.15431278601E+02 0.12912051245E+02 0.10785652988E+02 0.92139030992E+01 0.81420009807E+01
 0.74725263286E+01 0.71481904660E+01 0.92286459506E+01 0.97094855022E+01 0.10530733548E+02
 0.11767735010E+02 0.13521020230E+02 0.15754887697E+02 0.18167578508E+02 0.20110465271E+02
 0.20736541124E+02 0.19794895177E+02 0.18186815753E+02 0.17405009582E+02 0.18187164859E+02
 0.19795071446E+02 0.20736388941E+02 0.20110366356E+02 0.18167691602E+02 0.15754921707E+02
 0.13520862093E+02 0.11767650144E+02 0.10530822871E+02 0.97095282104E+01 0.92285762309E+01
 0.90680375747E+01 0.11670964339E+02 0.12257825673E+02 0.13126453966E+02 0.14368569193E+02
 0.16074953368E+02 0.18120952718E+02 0.20102385668E+02 0.21295682388E+02 0.21103702407E+02
 0.19795997517E+02 0.18568540917E+02 0.18568319587E+02 0.19795071446E+02 0.21102080091E+02
 0.21294434888E+02 0.20102604902E+02 0.18122275852E+02 0.16075999842E+02 0.14368650124E+02
 0.13126107925E+02 0.12257778965E+02 0.11671248270E+02 0.11361338746E+02 0.11361162582E+02
 0.14229620900E+02 0.14807587075E+02 0.15542430940E+02 0.16549769273E+02 0.17920187596E+02
 0.19480930658E+02 0.20802478374E+02 0.21294547268E+02 0.20736549823E+02 0.19698990196E+02
 0.19185301978E+02 0.19698958115E+02 0.20736388941E+02 0.21294434888E+02 0.20802663784E+02
 0.19481203922E+02 0.17920143528E+02 0.16549525180E+02 0.15542446810E+02 0.14807856369E+02
 0.14229721992E+02 0.13816244829E+02 0.13660249987E+02 0.13816362711E+02 0.16540718046E+02
 0.16916248365E+02 0.17283068950E+02 0.17806731728E+02 0.18596545540E+02 0.19481825968E+02
 0.20102547854E+02 0.20108889495E+02 0.19560202385E+02 0.19006341422E+02 0.19007454535E+02
 0.19562454806E+02 0.20110366356E+02 0.20102604902E+02 0.19481203922E+02 0.18595983940E+02
 0.17806336248E+02 0.17282778705E+02 0.16916115195E+02 0.16540702302E+02 0.16125112155E+02
 0.15825430720E+02 0.15825453895E+02 0.16125132727E+02 0.18167697702E+02 0.18122260201E+02
 0.17920077133E+02 0.17806274101E+02 0.17919979745E+02 0.18122240680E+02 0.18167739575E+02
 0.17914592657E+02 0.17517602633E+02 0.17324344956E+02 0.17517785089E+02 0.17914686293E+02
 0.18167691602E+02 0.18122275852E+02 0.17920143528E+02 0.17806336248E+02 0.17919945055E+02
 0.18122102150E+02 0.18167602684E+02 0.17914557331E+02 0.17517654464E+02 0.17324395112E+02
 0.17517790359E+02 0.17914679409E+02 0.18755184082E+02 0.18122207123E+02 0.17283135130E+02
 0.16549055591E+02 0.16074680127E+02 0.15754363373E+02 0.15432830591E+02 0.15081796696E+02
 0.14829412095E+02 0.14828046273E+02 0.15079067004E+02 0.15431278601E+02 0.15754921707E+02
 0.16075999842E+02 0.16549525180E+02 0.17282778705E+02 0.18122102150E+02 0.18755634751E+02
 0.18885468816E+02 0.18538899686E+02 0.18143476897E+02 0.18143751370E+02 0.18539219333E+02
 0.18885211102E+02 0.18167519195E+02 0.16916197092E+02 0.15542602546E+02 0.14368724573E+02
 0.13520843832E+02 0.12912050594E+02 0.12435797833E+02 0.12096549376E+02 0.11969128021E+02
 0.12096466692E+02 0.12435723873E+02 0.12912051245E+02 0.13520862093E+02 0.14368650124E+02
 0.15542446810E+02 0.16916115195E+02 0.18167602684E+02 0.18885468816E+02 0.18871377322E+02
 0.18434976153E+02 0.18185361473E+02 0.18435026627E+02 0.18871346425E+02 0.18885333251E+02
 0.16540509417E+02 0.14807596326E+02 0.13126670080E+02 0.11768907831E+02 0.10786135637E+02
 0.10091843787E+02 0.96175184182E+01 0.93656100479E+01 0.93668213728E+01 0.96199570224E+01
 0.10093263797E+02 0.10785652988E+02 0.11767650144E+02 0.13126107925E+02 0.14807856369E+02
 0.16540702302E+02 0.17914557331E+02 0.18538899686E+02 0.18434976153E+02 0.18115354198E+02
 0.18115240740E+02 0.18434927125E+02 0.18539208026E+02 0.17914848246E+02 0.14229499084E+02
 0.12257647608E+02 0.10530860785E+02 0.92139278343E+01 0.82769677287E+01 0.76358539951E+01
 0.72472912609E+01 0.71146589153E+01 0.72472203872E+01 0.76358530975E+01 0.82770213012E+01
 0.92139030992E+01 0.10530822871E+02 0.12257778965E+02 0.14229721992E+02 0.16125112155E+02
 0.17517654464E+02 0.18143476897E+02 0.18185361473E+02 0.18115240740E+02 0.18185349381E+02
 0.18143584126E+02 0.17517802915E+02 0.16125065348E+02 0.11670928688E+02 0.97089235246E+01
 0.81413732087E+01 0.69973530228E+01 0.62017359668E+01 0.56858967181E+01 0.54260272634E+01
 0.54252215586E+01 0.56842415020E+01 0.62006225458E+01 0.69973479366E+01 0.81420009807E+01
 0.97095282104E+01 0.11671248270E+02 0.13816244829E+02 0.15825430720E+02 0.17324395112E+02
 0.18143751370E+02 0.18435026627E+02 0.18434927125E+02 0.18143584126E+02 0.17324343414E+02
 0.15825460977E+02 0.13816175197E+02 0.92286546736E+01 0.74726754436E+01 0.61585560479E+01
 0.52279703861E+01 0.46011559843E+01 0.42316835133E+01 0.41082969613E+01 0.42317228168E+01
 0.46012509504E+01 0.52280429219E+01 0.61584960576E+01 0.74725263286E+01 0.92285762309E+01
 0.11361338746E+02 0.13660249987E+02 0.15825453895E+02 0.17517790359E+02 0.18539219333E+02
 0.18871346425E+02 0.18539208026E+02 0.17517802915E+02 0.15825460977E+02 0.13660202689E+02
 0.11361301042E+02 0.71488747817E+01 0.56812110405E+01 0.46223976253E+01 0.38909303860E+01
 0.34242400046E+01 0.31940360253E+01 0.31942480498E+01 0.34248745485E+01 0.38918049940E+01
 0.46230085642E+01 0.56811083685E+01 0.71481904660E+01 0.90680375747E+01 0.11361162582E+02
 0.13816362711E+02 0.16125132727E+02 0.17914679409E+02 0.18885211102E+02 0.18885333251E+02
 0.17914848246E+02 0.16125065348E+02 0.13816175197E+02 0.11361301042E+02 0.90686722755E+01
 0.48625022442E+01 0.37811142753E+01 0.30433135216E+01 0.25806701182E+01 0.23560322142E+01
 0.23556468316E+01 0.25800957009E+01 0.30433931522E+01 0.37816684394E+01 0.48626699294E+01
 0.63794631825E+01 0.84085215426E+01 0.10928547698E+02 0.13751671351E+02 0.16540712283E+02
 0.18816939777E+02 0.20102516194E+02 0.20103154982E+02 0.18818105122E+02 0.16541109743E+02
 0.13751070838E+02 0.10927924069E+02 0.84086176396E+01 0.63798293079E+01 0.37811142753E+01
 0.29231543917E+01 0.23559053498E+01 0.20319268282E+01 0.19265034145E+01 0.20319521300E+01
 0.23556468316E+01 0.29226710952E+01 0.37810512549E+01 0.50039325017E+01 0.66764528927E+01
 0.88514287007E+01 0.11472699399E+02 0.14301328601E+02 0.16916230699E+02 0.18795200583E+02
 0.19481837904E+02 0.18794572999E+02 0.16916088990E+02 0.14302201226E+02 0.11473674234E+02
 0.88513723233E+01 0.66754910251E+01 0.50031663886E+01 0.30433135216E+01 0.23559053498E+01
 0.19264456658E+01 0.17201759344E+01 0.17201835372E+01 0.19265034145E+01 0.23560322142E+01
 0.30434322482E+01 0.40437865128E+01 0.54308965119E+01 0.72764634664E+01 0.95971321121E+01
 0.12276194472E+02 0.15001178481E+02 0.17283002236E+02 0.18596533087E+02 0.18596581040E+02
 0.17283155733E+02 0.15001405845E+02 0.12276387475E+02 0.95972206508E+01 0.72764910591E+01
 0.54309110265E+01 0.40437487843E+01 0.25806701182E+01 0.20319268282E+01 0.17201759344E+01
 0.16192677775E+01 0.17201759344E+01 0.20319268282E+01 0.25806701182E+01 0.34096139702E+01
 0.45806711596E+01 0.61672871506E+01 0.82213248223E+01 0.10706921905E+02 0.13422231373E+02
 0.15965030348E+02 0.17806701266E+02 0.18482721165E+02 0.17806701266E+02 0.15965030348E+02
 0.13422231373E+02 0.10706921905E+02 0.82213248223E+01 0.61672871506E+01 0.45806711596E+01
 0.34096139702E+01 0.23560322142E+01 0.19265034145E+01 0.17201835372E+01 0.17201759344E+01
 0.19264456658E+01 0.23559053498E+01 0.30433135216E+01 0.40437487843E+01 0.54309110265E+01
 0.72764910591E+01 0.95972206508E+01 0.12276387475E+02 0.15001405845E+02 0.17283155733E+02
 0.18596581040E+02 0.18596533087E+02 0.17283002236E+02 0.15001178481E+02 0.12276194472E+02
 0.95971321121E+01 0.72764634664E+01 0.54308965119E+01 0.40437865128E+01 0.30434322482E+01
 0.23556468316E+01 0.20319521300E+01 0.19265034145E+01 0.20319268282E+01 0.23559053498E+01
 0.29231543917E+01 0.37811142753E+01 0.50031663886E+01 0.66754910251E+01 0.88513723233E+01
 0.11473674234E+02 0.14302201226E+02 0.16916088990E+02 0.18794572999E+02 0.19481837904E+02
 0.18795200583E+02 0.16916230699E+02 0.14301328601E+02 0.11472699399E+02 0.88514287007E+01
 0.66764528927E+01 0.50039325017E+01 0.37810512549E+01 0.29226710952E+01 0.25800957009E+01
 0.23556468316E+01 0.23560322142E+01 0.25806701182E+01 0.30433135216E+01 0.37811142753E+01
 0.48625022442E+01 0.63798293079E+01 0.84086176396E+01 0.10927924069E+02 0.13751070838E+02
 0.16541109743E+02 0.18818105122E+02 0.20103154982E+02 0.20102516194E+02 0.18816939777E+02
 0.16540712283E+02 0.13751671351E+02 0.10928547698E+02 0.84085215426E+01 0.63794631825E+01
 0.48626699294E+01 0.37816684394E+01 0.30433931522E+01 0.30433931522E+01 0.29226710952E+01
 0.30434322482E+01 0.34096139702E+01 0.40437487843E+01 0.50031663886E+01 0.63798293079E+01
 0.82608193867E+01 0.10640041155E+02 0.13357326720E+02 0.16124365031E+02 0.18512335708E+02
 0.20111371470E+02 0.20669082526E+02 0.20108924325E+02 0.18510392382E+02 0.16125059107E+02
 0.13359415706E+02 0.10640783281E+02 0.82595346353E+01 0.63784047221E+01 0.50032559027E+01
 0.40448209040E+01 0.34102459564E+01 0.37816684394E+01 0.37810512549E+01 0.40437865128E+01
 0.45806711596E+01 0.54309110265E+01 0.66754910251E+01 0.84086176396E+01 0.10640041155E+02
 0.13210581481E+02 0.15826349107E+02 0.18054847565E+02 0.19561020726E+02 0.20275676445E+02
 0.20275534775E+02 0.19560338732E+02 0.18053565196E+02 0.15825377246E+02 0.13210928333E+02
 0.10641329057E+02 0.84093376352E+01 0.66749007624E+01 0.54299839864E+01 0.45807603508E+01
 0.40448209040E+01 0.48626699294E+01 0.50039325017E+01 0.54308965119E+01 0.61672871506E+01
 0.72764910591E+01 0.88513723233E+01 0.10927924069E+02 0.13357326720E+02 0.15826349107E+02
 0.17836215768E+02 0.19007058638E+02 0.19416201428E+02 0.19474614903E+02 0.19416258233E+02
 0.19006458998E+02 0.17834933997E+02 0.15825473121E+02 0.13357743278E+02 0.10929243588E+02
 0.88524956491E+01 0.72767423480E+01 0.61667239814E+01 0.54299839864E+01 0.50032559027E+01
 0.63794631825E+01 0.66764528927E+01 0.72764634664E+01 0.82213248223E+01 0.95972206508E+01
 0.11473674234E+02 0.13751070838E+02 0.16124365031E+02 0.18054847565E+02 0.19007058638E+02
 0.18982108754E+02 0.18626618704E+02 0.18625882897E+02 0.18981041267E+02 0.19007475357E+02
 0.18056572441E+02 0.16125242596E+02 0.13749937072E+02 0.11472168703E+02 0.95975153497E+01
 0.82228627486E+01 0.72767423480E+01 0.66749007624E+01 0.63784047221E+01 0.84085215426E+01
 0.88514287007E+01 0.95971321121E+01 0.10706921905E+02 0.12276387475E+02 0.14302201226E+02
 0.16541109743E+02 0.18512335708E+02 0.19561020726E+02 0.19416201428E+02 0.18626618704E+02
 0.18195278174E+02 0.18628087403E+02 0.19418112059E+02 0.19562437438E+02 0.18512947706E+02
 0.16540799148E+02 0.14300955392E+02 0.12274810032E+02 0.10706076015E+02 0.95975153497E+01
 0.88524956491E+01 0.84093376352E+01 0.82595346353E+01 0.10928547698E+02 0.11472699399E+02
 0.12276194472E+02 0.13422231373E+02 0.15001405845E+02 0.16916088990E+02 0.18818105122E+02
 0.20111371470E+02 0.20275676445E+02 0.19474614903E+02 0.18625882897E+02 0.18628087403E+02
 0.19478795359E+02 0.20277677231E+02 0.20110338194E+02 0.18816659655E+02 0.16916167794E+02
 0.15002006259E+02 0.13421661996E+02 0.12274810032E+02 0.11472168703E+02 0.10929243588E+02
 0.10641329057E+02 0.10640783281E+02 0.13751671351E+02 0.14301328601E+02 0.15001178481E+02
 0.15965030348E+02 0.17283155733E+02 0.18794572999E+02 0.20103154982E+02 0.20669082526E+02
 0.20275534775E+02 0.19416258233E+02 0.18981041267E+02 0.19418112059E+02 0.20277677231E+02
 0.20669934424E+02 0.20102495583E+02 0.18793472368E+02 0.17282840082E+02 0.15965767385E+02
 0.15002006259E+02 0.14300955392E+02 0.13749937072E+02 0.13357743278E+02 0.13210928333E+02
 0.13359415706E+02 0.16540712283E+02 0.16916230699E+02 0.17283002236E+02 0.17806701266E+02
 0.18596581040E+02 0.19481837904E+02 0.20102516194E+02 0.20108924325E+02 0.19560338732E+02
 0.19006458998E+02 0.19007475357E+02 0.19562437438E+02 0.20110338194E+02 0.20102495583E+02
 0.19481021524E+02 0.18595867410E+02 0.17806351882E+02 0.17282840082E+02 0.16916167794E+02
 0.16540799148E+02 0.16125242596E+02 0.15825473121E+02 0.15825377246E+02 0.16125059107E+02
 0.18816939777E+02 0.18795200583E+02 0.18596533087E+02 0.18482721165E+02 0.18596533087E+02
 0.18795200583E+02 0.18816939777E+02 0.18510392382E+02 0.18053565196E+02 0.17834933997E+02
 0.18056572441E+02 0.18512947706E+02 0.18816659655E+02 0.18793472368E+02 0.18595867410E+02
 0.18483033672E+02 0.18595867410E+02 0.18793472368E+02 0.18816659655E+02 0.18512947706E+02
 0.18056572441E+02 0.17834933997E+02 0.18053565196E+02 0.18510392382E+02 0.20102516194E+02
 0.19481837904E+02 0.18596581040E+02 0.17806701266E+02 0.17283002236E+02 0.16916230699E+02
 0.16540712283E+02 0.16125059107E+02 0.15825377246E+02 0.15825473121E+02 0.16125242596E+02
 0.16540799148E+02 0.16916167794E+02 0.17282840082E+02 0.17806351882E+02 0.18595867410E+02
 0.19481021524E+02 0.20102495583E+02 0.20110338194E+02 0.19562437438E+02 0.19007475357E+02
 0.19006458998E+02 0.19560338732E+02 0.20108924325E+02 0.20103154982E+02 0.18794572999E+02
 0.17283155733E+02 0.15965030348E+02 0.15001178481E+02 0.14301328601E+02 0.13751671351E+02
 0.13359415706E+02 0.13210928333E+02 0.13357743278E+02 0.13749937072E+02 0.14300955392E+02
 0.15002006259E+02 0.15965767385E+02 0.17282840082E+02 0.18793472368E+02 0.20102495583E+02
 0.20669934424E+02 0.20277677231E+02 0.19418112059E+02 0.18981041267E+02 0.19416258233E+02
 0.20275534775E+02 0.20669082526E+02 0.18818105122E+02 0.16916088990E+02 0.15001405845E+02
 0.13422231373E+02 0.12276194472E+02 0.11472699399E+02 0.10928547698E+02 0.10640783281E+02
 0.10641329057E+02 0.10929243588E+02 0.11472168703E+02 0.12274810032E+02 0.13421661996E+02
 0.15002006259E+02 0.16916167794E+02 0.18816659655E+02 0.20110338194E+02 0.20277677231E+02
 0.19478795359E+02 0.18628087403E+02 0.18625882897E+02 0.19474614903E+02 0.20275676445E+02
 0.20111371470E+02 0.16541109743E+02 0.14302201226E+02 0.12276387475E+02 0.10706921905E+02
 0.95971321121E+01 0.88514287007E+01 0.84085215426E+01 0.82595346353E+01 0.84093376352E+01
 0.88524956491E+01 0.95975153497E+01 0.10706076015E+02 0.12274810032E+02 0.14300955392E+02
 0.16540799148E+02 0.18512947706E+02 0.19562437438E+02 0.19418112059E+02 0.18628087403E+02
 0.18195278174E+02 0.18626618704E+02 0.19416201428E+02 0.19561020726E+02 0.18512335708E+02
 0.13751070838E+02 0.11473674234E+02 0.95972206508E+01 0.82213248223E+01 0.72764634664E+01
 0.66764528927E+01 0.63794631825E+01 0.63784047221E+01 0.66749007624E+01 0.72767423480E+01
 0.82228627486E+01 0.95975153497E+01 0.11472168703E+02 0.13749937072E+02 0.16125242596E+02
 0.18056572441E+02 0.19007475357E+02 0.18981041267E+02 0.18625882897E+02 0.18626618704E+02
 0.18982108754E+02 0.19007058638E+02 0.18054847565E+02 0.16124365031E+02 0.10927924069E+02
 0.88513723233E+01 0.72764910591E+01 0.61672871506E+01 0.54308965119E+01 0.50039325017E+01
 0.48626699294E+01 0.50032559027E+01 0.54299839864E+01 0.61667239814E+01 0.72767423480E+01
 0.88524956491E+01 0.10929243588E+02 0.13357743278E+02 0.15825473121E+02 0.17834933997E+02
 0.19006458998E+02 0.19416258233E+02 0.19474614903E+02 0.19416201428E+02 0.19007058638E+02
 0.17836215768E+02 0.15826349107E+02 0.13357326720E+02 0.84086176396E+01 0.66754910251E+01
 0.54309110265E+01 0.45806711596E+01 0.40437865128E+01 0.37810512549E+01 0.37816684394E+01
 0.40448209040E+01 0.45807603508E+01 0.54299839864E+01 0.66749007624E+01 0.84093376352E+01
 0.10641329057E+02 0.13210928333E+02 0.15825377246E+02 0.18053565196E+02 0.19560338732E+02
 0.20275534775E+02 0.20275676445E+02 0.19561020726E+02 0.18054847565E+02 0.15826349107E+02
 0.13210581481E+02 0.10640041155E+02 0.63798293079E+01 0.50031663886E+01 0.40437487843E+01
 0.34096139702E+01 0.30434322482E+01 0.29226710952E+01 0.30433931522E+01 0.34102459564E+01
 0.40448209040E+01 0.50032559027E+01 0.63784047221E+01 0.82595346353E+01 0.10640783281E+02
 0.13359415706E+02 0.16125059107E+02 0.18510392382E+02 0.20108924325E+02 0.20669082526E+02
 0.20111371470E+02 0.18512335708E+02 0.16124365031E+02 0.13357326720E+02 0.10640041155E+02
 0.82608193867E+01 0.41084233531E+01 0.31943433444E+01 0.25946982048E+01 0.22529024772E+01
 0.21415386269E+01 0.22529225857E+01 0.25946834923E+01 0.31942480498E+01 0.41082969613E+01
 0.54260272634E+01 0.72472912609E+01 0.96175184182E+01 0.12435797833E+02 0.15432830591E+02
 0.18167739575E+02 0.20102547854E+02 0.20802478374E+02 0.20102385668E+02 0.18167578508E+02
 0.15432749452E+02 0.12435710131E+02 0.96173703036E+01 0.72471818535E+01 0.54260595279E+01
 0.31943433444E+01 0.24877829567E+01 0.20471529778E+01 0.18352324462E+01 0.18354131842E+01
 0.20472446963E+01 0.24873287810E+01 0.31940360253E+01 0.42316835133E+01 0.56858967181E+01
 0.76358539951E+01 0.10091843787E+02 0.12912050594E+02 0.15754363373E+02 0.18122240680E+02
 0.19481825968E+02 0.19480930658E+02 0.18120952718E+02 0.15754887697E+02 0.12914262669E+02
 0.10093394018E+02 0.76352286557E+01 0.56841513669E+01 0.42307607952E+01 0.25946982048E+01
 0.20471529778E+01 0.17360668022E+01 0.16352229217E+01 0.17360406695E+01 0.20471966208E+01
 0.25948208247E+01 0.34242400046E+01 0.46011559843E+01 0.62017359668E+01 0.82769677287E+01
 0.10786135637E+02 0.13520843832E+02 0.16074680127E+02 0.17919979745E+02 0.18596545540E+02
 0.17920187596E+02 0.16074953368E+02 0.13521020230E+02 0.10786180347E+02 0.82769781017E+01
 0.62017798158E+01 0.46011707151E+01 0.34241539283E+01 0.22529024772E+01 0.18352324462E+01
 0.16352229217E+01 0.16352776829E+01 0.18353734211E+01 0.22529532123E+01 0.29213890813E+01
 0.38909303860E+01 0.52279703861E+01 0.69973530228E+01 0.92139278343E+01 0.11768907831E+02
 0.14368724573E+02 0.16549055591E+02 0.17806274101E+02 0.17806731728E+02 0.16549769273E+02
 0.14368569193E+02 0.11767735010E+02 0.92127600521E+01 0.69971791747E+01 0.52287249278E+01
 0.38917894988E+01 0.29217616789E+01 0.21415386269E+01 0.18354131842E+01 0.17360406695E+01
 0.18353734211E+01 0.21414442571E+01 0.26780408731E+01 0.34854661727E+01 0.46223976253E+01
 0.61585560479E+01 0.81413732087E+01 0.10530860785E+02 0.13126670080E+02 0.15542602546E+02
 0.17283135130E+02 0.17920077133E+02 0.17283068950E+02 0.15542430940E+02 0.13126453966E+02
 0.10530733548E+02 0.81413562519E+01 0.61585503108E+01 0.46223685406E+01 0.34854868336E+01
 0.26781362777E+01 0.22529225857E+01 0.20472446963E+01 0.20471966208E+01 0.22529532123E+01
 0.26780408731E+01 0.33530033894E+01 0.43301708713E+01 0.56812110405E+01 0.74726754436E+01
 0.97089235246E+01 0.12257647608E+02 0.14807596326E+02 0.16916197092E+02 0.18122207123E+02
 0.18122260201E+02 0.16916248365E+02 0.14807587075E+02 0.12257825673E+02 0.97094855022E+01
 0.74733051118E+01 0.56813343529E+01 0.43296482499E+01 0.33522915527E+01 0.26776430675E+01
 0.25946834923E+01 0.24873287810E+01 0.25948208247E+01 0.29213890813E+01 0.34854661727E+01
 0.43301708713E+01 0.55257074102E+01 0.71488747817E+01 0.92286546736E+01 0.11670928688E+02
 0.14229499084E+02 0.16540509417E+02 0.18167519195E+02 0.18755184082E+02 0.18167697702E+02
 0.16540718046E+02 0.14229620900E+02 0.11670964339E+02 0.92286459506E+01 0.71488543268E+01
 0.55257162393E+01 0.43302141446E+01 0.34854615824E+01 0.29212719302E+01 0.31942480498E+01
 0.31940360253E+01 0.34242400046E+01 0.38909303860E+01 0.46223976253E+01 0.56812110405E+01
 0.71488747817E+01 0.90686722755E+01 0.11361301042E+02 0.13816175197E+02 0.16125065348E+02
 0.17914848246E+02 0.18885333251E+02 0.18885211102E+02 0.17914679409E+02 0.16125132727E+02
 0.13816362711E+02 0.11361162582E+02 0.90680375747E+01 0.71481904660E+01 0.56811083685E+01
 0.46230085642E+01 0.38918049940E+01 0.34248745485E+01 0.41082969613E+01 0.42316835133E+01
 0.46011559843E+01 0.52279703861E+01 0.61585560479E+01 0.74726754436E+01 0.92286546736E+01
 0.11361301042E+02 0.13660202689E+02 0.15825460977E+02 0.17517802915E+02 0.18539208026E+02
 0.18871346425E+02 0.18539219333E+02 0.17517790359E+02 0.15825453895E+02 0.13660249987E+02
 0.11361338746E+02 0.92285762309E+01 0.74725263286E+01 0.61584960576E+01 0.52280429219E+01
 0.46012509504E+01 0.42317228168E+01 0.54260272634E+01 0.56858967181E+01 0.62017359668E+01
 0.69973530228E+01 0.81413732087E+01 0.97089235246E+01 0.11670928688E+02 0.13816175197E+02
 0.15825460977E+02 0.17324343414E+02 0.18143584126E+02 0.18434927125E+02 0.18435026627E+02
 0.18143751370E+02 0.17324395112E+02 0.15825430720E+02 0.13816244829E+02 0.11671248270E+02
 0.97095282104E+01 0.81420009807E+01 0.69973479366E+01 0.62006225458E+01 0.56842415020E+01
 0.54252215586E+01 0.72472912609E+01 0.76358539951E+01 0.82769677287E+01 0.92139278343E+01
 0.10530860785E+02 0.12257647608E+02 0.14229499084E+02 0.16125065348E+02 0.17517802915E+02
 0.18143584126E+02 0.18185349381E+02 0.18115240740E+02 0.18185361473E+02 0.18143476897E+02
 0.17517654464E+02 0.16125112155E+02 0.14229721992E+02 0.12257778965E+02 0.10530822871E+02
 0.92139030992E+01 0.82770213012E+01 0.76358530975E+01 0.72472203872E+01 0.71146589153E+01
 0.96175184182E+01 0.10091843787E+02 0.10786135637E+02 0.11768907831E+02 0.13126670080E+02
 0.14807596326E+02 0.16540509417E+02 0.17914848246E+02 0.18539208026E+02 0.18434927125E+02
 0.18115240740E+02 0.18115354198E+02 0.18434976153E+02 0.18538899686E+02 0.17914557331E+02
 0.16540702302E+02 0.14807856369E+02 0.13126107925E+02 0.11767650144E+02 0.10785652988E+02
 0.10093263797E+02 0.96199570224E+01 0.93668213728E+01 0.93656100479E+01 0.12435797833E+02
 0.12912050594E+02 0.13520843832E+02 0.14368724573E+02 0.15542602546E+02 0.16916197092E+02
 0.18167519195E+02 0.18885333251E+02 0.18871346425E+02 0.18435026627E+02 0.18185361473E+02
 0.18434976153E+02 0.18871377322E+02 0.18885468816E+02 0.18167602684E+02 0.16916115195E+02
 0.15542446810E+02 0.14368650124E+02 0.13520862093E+02 0.12912051245E+02 0.12435723873E+02
 0.12096466692E+02 0.11969128021E+02 0.12096549376E+02 0.15432830591E+02 0.15754363373E+02
 0.16074680127E+02 0.16549055591E+02 0.17283135130E+02 0.18122207123E+02 0.18755184082E+02
 0.18885211102E+02 0.18539219333E+02 0.18143751370E+02 0.18143476897E+02 0.18538899686E+02
 0.18885468816E+02 0.18755634751E+02 0.18122102150E+02 0.17282778705E+02 0.16549525180E+02
 0.16075999842E+02 0.15754921707E+02 0.15431278601E+02 0.15079067004E+02 0.14828046273E+02
 0.14829412095E+02 0.15081796696E+02 0.18167739575E+02 0.18122240680E+02 0.17919979745E+02
 0.17806274101E+02 0.17920077133E+02 0.18122260201E+02 0.18167697702E+02 0.17914679409E+02
 0.17517790359E+02 0.17324395112E+02 0.17517654464E+02 0.17914557331E+02 0.18167602684E+02
 0.18122102150E+02 0.17919945055E+02 0.17806336248E+02 0.17920143528E+02 0.18122275852E+02
 0.18167691602E+02 0.17914686293E+02 0.17517785089E+02 0.17324344956E+02 0.17517602633E+02
 0.17914592657E+02 0.20102547854E+02 0.19481825968E+02 0.18596545540E+02 0.17806731728E+02
 0.17283068950E+02 0.16916248365E+02 0.16540718046E+02 0.16125132727E+02 0.15825453895E+02
 0.15825430720E+02 0.16125112155E+02 0.16540702302E+02 0.16916115195E+02 0.17282778705E+02
 0.17806336248E+02 0.18595983940E+02 0.19481203922E+02 0.20102604902E+02 0.20110366356E+02
 0.19562454806E+02 0.19007454535E+02 0.19006341422E+02 0.19560202385E+02 0.20108889495E+02
 0.20802478374E+02 0.19480930658E+02 0.17920187596E+02 0.16549769273E+02 0.15542430940E+02
 0.14807587075E+02 0.14229620900E+02 0.13816362711E+02 0.13660249987E+02 0.13816244829E+02
 0.14229721992E+02 0.14807856369E+02 0.15542446810E+02 0.16549525180E+02 0.17920143528E+02
 0.19481203922E+02 0.20802663784E+02 0.21294434888E+02 0.20736388941E+02 0.19698958115E+02
 0.19185301978E+02 0.19698990196E+02 0.20736549823E+02 0.21294547268E+02 0.20102385668E+02
 0.18120952718E+02 0.16074953368E+02 0.14368569193E+02 0.13126453966E+02 0.12257825673E+02
 0.11670964339E+02 0.11361162582E+02 0.11361338746E+02 0.11671248270E+02 0.12257778965E+02
 0.13126107925E+02 0.14368650124E+02 0.16075999842E+02 0.18122275852E+02 0.20102604902E+02
 0.21294434888E+02 0.21102080091E+02 0.19795071446E+02 0.18568319587E+02 0.18568540917E+02
 0.19795997517E+02 0.21103702407E+02 0.21295682388E+02 0.18167578508E+02 0.15754887697E+02
 0.13521020230E+02 0.11767735010E+02 0.10530733548E+02 0.97094855022E+01 0.92286459506E+01
 0.90680375747E+01 0.92285762309E+01 0.97095282104E+01 0.10530822871E+02 0.11767650144E+02
 0.13520862093E+02 0.15754921707E+02 0.18167691602E+02 0.20110366356E+02 0.20736388941E+02
 0.19795071446E+02 0.18187164859E+02 0.17405009582E+02 0.18186815753E+02 0.19794895177E+02
 0.20736541124E+02 0.20110465271E+02 0.15432749452E+02 0.12914262669E+02 0.10786180347E+02
 0.92127600521E+01 0.81413562519E+01 0.74733051118E+01 0.71488543268E+01 0.71481904660E+01
 0.74725263286E+01 0.81420009807E+01 0.92139030992E+01 0.10785652988E+02 0.12912051245E+02
 0.15431278601E+02 0.17914686293E+02 0.19562454806E+02 0.19698958115E+02 0.18568319587E+02
 0.17405009582E+02 0.17405305146E+02 0.18568397812E+02 0.19697637677E+02 0.19560263794E+02
 0.17913768562E+02 0.12435710131E+02 0.10093394018E+02 0.82769781017E+01 0.69971791747E+01
 0.61585503108E+01 0.56813343529E+01 0.55257162393E+01 0.56811083685E+01 0.61584960576E+01
 0.69973479366E+01 0.82770213012E+01 0.10093263797E+02 0.12435723873E+02 0.15079067004E+02
 0.17517785089E+02 0.19007454535E+02 0.19185301978E+02 0.18568540917E+02 0.18186815753E+02
 0.18568397812E+02 0.19185315864E+02 0.19007606527E+02 0.17517760481E+02 0.15078887100E+02
 0.96173703036E+01 0.76352286557E+01 0.62017798158E+01 0.52287249278E+01 0.46223685406E+01
 0.43296482499E+01 0.43302141446E+01 0.46230085642E+01 0.52280429219E+01 0.62006225458E+01
 0.76358530975E+01 0.96199570224E+01 0.12096466692E+02 0.14828046273E+02 0.17324344956E+02
 0.19006341422E+02 0.19698990196E+02 0.19795997517E+02 0.19794895177E+02 0.19697637677E+02
 0.19007606527E+02 0.17327526976E+02 0.14829592640E+02 0.12094785182E+02 0.72471818535E+01
 0.56841513669E+01 0.46011707151E+01 0.38917894988E+01 0.34854868336E+01 0.33522915527E+01
 0.34854615824E+01 0.38918049940E+01 0.46012509504E+01 0.56842415020E+01 0.72472203872E+01
 0.93668213728E+01 0.11969128021E+02 0.14829412095E+02 0.17517602633E+02 0.19560202385E+02
 0.20736549823E+02 0.21103702407E+02 0.20736541124E+02 0.19560263794E+02 0.17517760481E+02
 0.14829592640E+02 0.11969249280E+02 0.93668592121E+01 0.54260595279E+01 0.42307607952E+01
 0.34241539283E+01 0.29217616789E+01 0.26781362777E+01 0.26776430675E+01 0.29212719302E+01
 0.34248745485E+01 0.42317228168E+01 0.54252215586E+01 0.71146589153E+01 0.93656100479E+01
 0.12096549376E+02 0.15081796696E+02 0.17914592657E+02 0.20108889495E+02 0.21294547268E+02
 0.21295682388E+02 0.20110465271E+02 0.17913768562E+02 0.15078887100E+02 0.12094785182E+02
 0.93668592121E+01 0.71171102617E+01 0.33627391792E+01 0.26356156174E+01 0.21836337305E+01
 0.19661352683E+01 0.19664742347E+01 0.21841176465E+01 0.26354557376E+01 0.33620890171E+01
 0.44378498113E+01 0.59610688906E+01 0.80141119267E+01 0.10583412711E+02 0.13486300038E+02
 0.16378398073E+02 0.18755304471E+02 0.20103260401E+02 0.20102464021E+02 0.18753791146E+02
 0.16377668780E+02 0.13486651691E+02 0.10583851903E+02 0.80139332974E+01 0.59607570185E+01
 0.44381370921E+01 0.26356156174E+01 0.20895441959E+01 0.17789579591E+01 0.16781057126E+01
 0.17789364366E+01 0.20891958430E+01 0.26352706450E+01 0.34667540258E+01 0.46567441346E+01
 0.62874943546E+01 0.84084145442E+01 0.10964846153E+02 0.13726949562E+02 0.16283150108E+02
 0.18122167237E+02 0.18794539817E+02 0.18120939230E+02 0.16282762953E+02 0.13728639148E+02
 0.10967220483E+02 0.84091580014E+01 0.62861602971E+01 0.46549969352E+01 0.34661236714E+01
 0.21836337305E+01 0.17789579591E+01 0.15851088438E+01 0.15851062580E+01 0.17789639894E+01
 0.21836613197E+01 0.28330668711E+01 0.37787247374E+01 0.50865187872E+01 0.68169816716E+01
 0.89786443317E+01 0.11459897766E+02 0.13973913983E+02 0.16074727196E+02 0.17283012690E+02
 0.17283099617E+02 0.16074945702E+02 0.13974155558E+02 0.11460052124E+02 0.89786800638E+01
 0.68169535264E+01 0.50864869654E+01 0.37786972740E+01 0.28330327419E+01 0.19661352683E+01
 0.16781057126E+01 0.15851062580E+01 0.16783880446E+01 0.19664852311E+01 0.24732002268E+01
 0.32356093110E+01 0.43045867647E+01 0.57385855760E+01 0.75750548537E+01 0.97742093158E+01
 0.12154702344E+02 0.14368193705E+02 0.15964090988E+02 0.16549101894E+02 0.15965116587E+02
 0.14368642920E+02 0.12153472976E+02 0.97721578683E+01 0.75740069853E+01 0.57392887274E+01
 0.43061206627E+01 0.32366483716E+01 0.24733183003E+01 0.19664742347E+01 0.17789364366E+01
 0.17789639894E+01 0.19664852311E+01 0.23560774855E+01 0.29751450181E+01 0.38640752651E+01
 0.50759402242E+01 0.66617602045E+01 0.86274764496E+01 0.10869495392E+02 0.13126689909E+02
 0.15001469148E+02 0.16074882930E+02 0.16074809367E+02 0.15001288858E+02 0.13126517259E+02
 0.10869437351E+02 0.86275037083E+01 0.66617435596E+01 0.50758534491E+01 0.38640395481E+01
 0.29752191585E+01 0.23561531468E+01 0.21841176465E+01 0.20891958430E+01 0.21836613197E+01
 0.24732002268E+01 0.29751450181E+01 0.37216112782E+01 0.47612620671E+01 0.61503593107E+01
 0.79201333359E+01 0.10019031457E+02 0.12257150229E+02 0.14301424118E+02 0.15754652891E+02
 0.16283138852E+02 0.15754328884E+02 0.14301306675E+02 0.12257806787E+02 0.10020397917E+02
 0.79213411161E+01 0.61504459670E+01 0.47601405726E+01 0.37201974231E+01 0.29744534072E+01
 0.24734120875E+01 0.26354557376E+01 0.26352706450E+01 0.28330668711E+01 0.32356093110E+01
 0.38640752651E+01 0.47612620671E+01 0.59856659916E+01 0.75817753036E+01 0.95257547800E+01
 0.11671190048E+02 0.13751078771E+02 0.15431611299E+02 0.16377636617E+02 0.16378218323E+02
 0.15432725900E+02 0.13751634292E+02 0.11670945133E+02 0.95254135242E+01 0.75818822364E+01
 0.59859241271E+01 0.47611364537E+01 0.38636546744E+01 0.32354413383E+01 0.28333014807E+01
 0.33620890171E+01 0.34667540258E+01 0.37787247374E+01 0.43045867647E+01 0.50759402242E+01
 0.61503593107E+01 0.75817753036E+01 0.93618078911E+01 0.11362041651E+02 0.13358964293E+02
 0.15080643276E+02 0.16245949373E+02 0.16657494603E+02 0.16246856449E+02 0.15081864921E+02
 0.13359495044E+02 0.11361192253E+02 0.93600555446E+01 0.75805768259E+01 0.61507534352E+01
 0.50774393057E+01 0.43057481138E+01 0.37787688133E+01 0.34662815290E+01 0.44378498113E+01
 0.46567441346E+01 0.50865187872E+01 0.57385855760E+01 0.66617602045E+01 0.79201333359E+01
 0.95257547800E+01 0.11362041651E+02 0.13210533258E+02 0.14828220206E+02 0.15991502794E+02
 0.16584825165E+02 0.16585360868E+02 0.15992821718E+02 0.14829536946E+02 0.13210964127E+02
 0.11361315517E+02 0.95245698777E+01 0.79195487793E+01 0.66621182376E+01 0.57392035299E+01
 0.50865625955E+01 0.46562272089E+01 0.44375258602E+01 0.59610688906E+01 0.62874943546E+01
 0.68169816716E+01 0.75750548537E+01 0.86274764496E+01 0.10019031457E+02 0.11671190048E+02
 0.13358964293E+02 0.14828220206E+02 0.15861506496E+02 0.16409693609E+02 0.16570980301E+02
 0.16412254680E+02 0.15863668366E+02 0.14827949746E+02 0.13357569685E+02 0.11671125713E+02
 0.10020431929E+02 0.86282338509E+01 0.75739573990E+01 0.68152530426E+01 0.62868085753E+01
 0.59613069175E+01 0.58489740047E+01 0.80141119267E+01 0.84084145442E+01 0.89786443317E+01
 0.97742093158E+01 0.10869495392E+02 0.12257150229E+02 0.13751078771E+02 0.15080643276E+02
 0.15991502794E+02 0.16409693609E+02 0.16510228739E+02 0.16511257106E+02 0.16411352023E+02
 0.15991465061E+02 0.15078839403E+02 0.13749719102E+02 0.12257693984E+02 0.10870851528E+02
 0.97745412011E+01 0.89779621707E+01 0.84082205670E+01 0.80149060020E+01 0.78041070343E+01
 0.78035442226E+01 0.10583412711E+02 0.10964846153E+02 0.11459897766E+02 0.12154702344E+02
 0.13126689909E+02 0.14301424118E+02 0.15431611299E+02 0.16245949373E+02 0.16584825165E+02
 0.16570980301E+02 0.16511257106E+02 0.16569760807E+02 0.16583429248E+02 0.16245152035E+02
 0.15431202891E+02 0.14300915567E+02 0.13126163263E+02 0.12154678169E+02 0.11460709829E+02
 0.10966365142E+02 0.10585113614E+02 0.10313257974E+02 0.10210613011E+02 0.10312116749E+02
 0.13486300038E+02 0.13726949562E+02 0.13973913983E+02 0.14368193705E+02 0.15001469148E+02
 0.15754652891E+02 0.16377636617E+02 0.16657494603E+02 0.16585360868E+02 0.16412254680E+02
 0.16411352023E+02 0.16583429248E+02 0.16655959382E+02 0.16377155107E+02 0.15754950260E+02
 0.15002068492E+02 0.14368758452E+02 0.13974215324E+02 0.13727034612E+02 0.13486497079E+02
 0.13228796445E+02 0.13046136272E+02 0.13045907749E+02 0.13228392614E+02 0.16378398073E+02
 0.16283150108E+02 0.16074727196E+02 0.15964090988E+02 0.16074882930E+02 0.16283138852E+02
 0.16378218323E+02 0.16246856449E+02 0.15992821718E+02 0.15863668366E+02 0.15991465061E+02
 0.16245152035E+02 0.16377155107E+02 0.16283115091E+02 0.16075914978E+02 0.15965788810E+02
 0.16076073542E+02 0.16283114273E+02 0.16376999721E+02 0.16245166902E+02 0.15991650315E+02
 0.15863699175E+02 0.15992692467E+02 0.16246883183E+02 0.18755304471E+02 0.18122167237E+02
 0.17283012690E+02 0.16549101894E+02 0.16074809367E+02 0.15754328884E+02 0.15432725900E+02
 0.15081864921E+02 0.14829536946E+02 0.14827949746E+02 0.15078839403E+02 0.15431202891E+02
 0.15754950260E+02 0.16075914978E+02 0.16549434225E+02 0.17282928304E+02 0.18122372252E+02
 0.18755729052E+02 0.18885437669E+02 0.18538974082E+02 0.18143570208E+02 0.18143638890E+02
 0.18539029722E+02 0.18885222233E+02 0.20103260401E+02 0.18794539817E+02 0.17283099617E+02
 0.15965116587E+02 0.15001288858E+02 0.14301306675E+02 0.13751634292E+02 0.13359495044E+02
 0.13210964127E+02 0.13357569685E+02 0.13749719102E+02 0.14300915567E+02 0.15002068492E+02
 0.15965788810E+02 0.17282928304E+02 0.18793738139E+02 0.20102747470E+02 0.20669956668E+02
 0.20277572623E+02 0.19418057366E+02 0.18980960271E+02 0.19416053832E+02 0.20275377592E+02
 0.20669135130E+02 0.20102464021E+02 0.18120939230E+02 0.16074945702E+02 0.14368642920E+02
 0.13126517259E+02 0.12257806787E+02 0.11670945133E+02 0.11361192253E+02 0.11361315517E+02
 0.11671125713E+02 0.12257693984E+02 0.13126163263E+02 0.14368758452E+02 0.16076073542E+02
 0.18122372252E+02 0.20102747470E+02 0.21294492869E+02 0.21101974626E+02 0.19794916835E+02
 0.18568224817E+02 0.18568457661E+02 0.19795890914E+02 0.21103671001E+02 0.21295769152E+02
 0.18753791146E+02 0.16282762953E+02 0.13974155558E+02 0.12153472976E+02 0.10869437351E+02
 0.10020397917E+02 0.95254135242E+01 0.93600555446E+01 0.95245698777E+01 0.10020431929E+02
 0.10870851528E+02 0.12154678169E+02 0.13974215324E+02 0.16283114273E+02 0.18755729052E+02
 0.20669956668E+02 0.21101974626E+02 0.19815392605E+02 0.17861715186E+02 0.16935509358E+02
 0.17867176774E+02 0.19821404953E+02 0.21104037355E+02 0.20668301752E+02 0.16377668780E+02
 0.13728639148E+02 0.11460052124E+02 0.97721578683E+01 0.86275037083E+01 0.79213411161E+01
 0.75818822364E+01 0.75805768259E+01 0.79195487793E+01 0.86282338509E+01 0.97745412011E+01
 0.11460709829E+02 0.13727034612E+02 0.16376999721E+02 0.18885437669E+02 0.20277572623E+02
 0.19794916835E+02 0.17861715186E+02 0.16122671734E+02 0.16125387386E+02 0.17866776739E+02
 0.19796996598E+02 0.20275653446E+02 0.18883357714E+02 0.13486651691E+02 0.10967220483E+02
 0.89786800638E+01 0.75740069853E+01 0.66617435596E+01 0.61504459670E+01 0.59859241271E+01
 0.61507534352E+01 0.66621182376E+01 0.75739573990E+01 0.89779621707E+01 0.10966365142E+02
 0.13486497079E+02 0.16245166902E+02 0.18538974082E+02 0.19418057366E+02 0.18568224817E+02
 0.16935509358E+02 0.16125387386E+02 0.16935588733E+02 0.18568241071E+02 0.19417698254E+02
 0.18538173298E+02 0.16244499484E+02 0.10583851903E+02 0.84091580014E+01 0.68169535264E+01
 0.57392887274E+01 0.50758534491E+01 0.47601405726E+01 0.47611364537E+01 0.50774393057E+01
 0.57392035299E+01 0.68152530426E+01 0.84082205670E+01 0.10585113614E+02 0.13228796445E+02
 0.15991650315E+02 0.18143570208E+02 0.18980960271E+02 0.18568457661E+02 0.17867176774E+02
 0.17866776739E+02 0.18568241071E+02 0.18982096704E+02 0.18145048954E+02 0.15991411073E+02
 0.13226857613E+02 0.80139332974E+01 0.62861602971E+01 0.50864869654E+01 0.43061206627E+01
 0.38640395481E+01 0.37201974231E+01 0.38636546744E+01 0.43057481138E+01 0.50865625955E+01
 0.62868085753E+01 0.80149060020E+01 0.10313257974E+02 0.13046136272E+02 0.15863699175E+02
 0.18143638890E+02 0.19416053832E+02 0.19795890914E+02 0.19821404953E+02 0.19796996598E+02
 0.19417698254E+02 0.18145048954E+02 0.15864332564E+02 0.13045894188E+02 0.10312418364E+02
 0.59607570185E+01 0.46549969352E+01 0.37786972740E+01 0.32366483716E+01 0.29752191585E+01
 0.29744534072E+01 0.32354413383E+01 0.37787688133E+01 0.46562272089E+01 0.59613069175E+01
 0.78041070343E+01 0.10210613011E+02 0.13045907749E+02 0.15992692467E+02 0.18539029722E+02
 0.20275377592E+02 0.21103671001E+02 0.21104037355E+02 0.20275653446E+02 0.18538173298E+02
 0.15991411073E+02 0.13045894188E+02 0.10212042791E+02 0.78052024599E+01 0.44381370921E+01
 0.34661236714E+01 0.28330327419E+01 0.24733183003E+01 0.23561531468E+01 0.24734120875E+01
 0.28333014807E+01 0.34662815290E+01 0.44375258602E+01 0.58489740047E+01 0.78035442226E+01
 0.10312116749E+02 0.13228392614E+02 0.16246883183E+02 0.18885222233E+02 0.20669135130E+02
 0.21295769152E+02 0.20668301752E+02 0.18883357714E+02 0.16244499484E+02 0.13226857613E+02
 0.10312418364E+02 0.78052024599E+01 0.58505656454E+01 0.26933185666E+01 0.21473828088E+01
 0.18366615158E+01 0.17354397811E+01 0.18366232032E+01 0.21473669623E+01 0.26933412442E+01
 0.35270425479E+01 0.47291438287E+01 0.63884233206E+01 0.85473881876E+01 0.11122690226E+02
 0.13864547332E+02 0.16377817354E+02 0.18167647808E+02 0.18818220249E+02 0.18167680034E+02
 0.16377711411E+02 0.13864262375E+02 0.11122433995E+02 0.85473631653E+01 0.63885806854E+01
 0.47292817341E+01 0.35270649159E+01 0.21473828088E+01 0.17539657793E+01 0.15650931438E+01
 0.15649844007E+01 0.17535998364E+01 0.21469397483E+01 0.27793697557E+01 0.37053495696E+01
 0.49940868352E+01 0.67060190748E+01 0.88427690698E+01 0.11280752902E+02 0.13727332877E+02
 0.15754590983E+02 0.16916083210E+02 0.16915977978E+02 0.15754807268E+02 0.13728589058E+02
 0.11282601561E+02 0.88437790559E+01 0.67053681305E+01 0.49924931439E+01 0.37041957842E+01
 0.27792485862E+01 0.18366615158E+01 0.15650931438E+01 0.14772913106E+01 0.15650995003E+01
 0.18366735275E+01 0.23154446289E+01 0.30387044679E+01 0.40560659812E+01 0.54204860157E+01
 0.71607399448E+01 0.92318808679E+01 0.11459866436E+02 0.13520889518E+02 0.15001289239E+02
 0.15542451092E+02 0.15001318281E+02 0.13520997059E+02 0.11460056458E+02 0.92320673366E+01
 0.71608242864E+01 0.54204540856E+01 0.40559848394E+01 0.30386413021E+01 0.23154153594E+01
 0.17354397811E+01 0.15649844007E+01 0.15650995003E+01 0.17358476051E+01 0.20926628429E+01
 0.26619413163E+01 0.34788816057E+01 0.45862930064E+01 0.60218902615E+01 0.77829761371E+01
 0.97743640708E+01 0.11768656689E+02 0.13421662390E+02 0.14368237634E+02 0.14368807046E+02
 0.13422353651E+02 0.11767866370E+02 0.97722384037E+01 0.77814321670E+01 0.60223328470E+01
 0.45880650926E+01 0.34802665645E+01 0.26621187299E+01 0.20921616034E+01 0.18366232032E+01
 0.17535998364E+01 0.18366735275E+01 0.20926628429E+01 0.25398811720E+01 0.32046471685E+01
 0.41208243589E+01 0.53263465830E+01 0.68421519621E+01 0.86275355247E+01 0.10530894489E+02
 0.12276439848E+02 0.13521069163E+02 0.13974067124E+02 0.13520956668E+02 0.12276284391E+02
 0.10530795337E+02 0.86275214326E+01 0.68421436463E+01 0.53262845704E+01 0.41207791590E+01
 0.32047040284E+01 0.25399780476E+01 0.20926773833E+01 0.21473669623E+01 0.21469397483E+01
 0.23154446289E+01 0.26619413163E+01 0.32046471685E+01 0.39717790002E+01 0.49995011759E+01
 0.63183876002E+01 0.79196110352E+01 0.97078533306E+01 0.11472306501E+02 0.12912632002E+02
 0.13727327578E+02 0.13726864936E+02 0.12911922488E+02 0.11472576107E+02 0.97093802535E+01
 0.79212683083E+01 0.63187550710E+01 0.49982983825E+01 0.39700761697E+01 0.32037548632E+01
 0.26622518175E+01 0.23162952555E+01 0.26933412442E+01 0.27793697557E+01 0.30387044679E+01
 0.34788816057E+01 0.41208243589E+01 0.49995011759E+01 0.61508828307E+01 0.75817899904E+01
 0.92285952312E+01 0.10928483468E+02 0.12435684802E+02 0.13486131144E+02 0.13864340823E+02
 0.13486083274E+02 0.12435633504E+02 0.10928446873E+02 0.92285801389E+01 0.75818470289E+01
 0.61510340055E+01 0.49996438006E+01 0.41208359487E+01 0.34787964131E+01 0.30386546453E+01
 0.27793822658E+01 0.35270425479E+01 0.37053495696E+01 0.40560659812E+01 0.45862930064E+01
 0.53263465830E+01 0.63183876002E+01 0.75817899904E+01 0.90693060842E+01 0.10641306322E+02
 0.12096713189E+02 0.13228643943E+02 0.13849539819E+02 0.13849359451E+02 0.13228395015E+02
 0.12096624029E+02 0.10640868756E+02 0.90680900036E+01 0.75806069492E+01 0.63186695275E+01
 0.53282264991E+01 0.45880922624E+01 0.40561528940E+01 0.37040751349E+01 0.35262663935E+01
 0.47291438287E+01 0.49940868352E+01 0.54204860157E+01 0.60218902615E+01 0.68421519621E+01
 0.79196110352E+01 0.92285952312E+01 0.10641306322E+02 0.11969163903E+02 0.13046074094E+02
 0.13739158403E+02 0.13976600785E+02 0.13739066758E+02 0.13046051231E+02 0.11969243628E+02
 0.10641351528E+02 0.92285449102E+01 0.79195374941E+01 0.68420756489E+01 0.60217753049E+01
 0.54204095834E+01 0.49941639939E+01 0.47292863492E+01 0.46377925980E+01 0.63884233206E+01
 0.67060190748E+01 0.71607399448E+01 0.77829761371E+01 0.86275355247E+01 0.97078533306E+01
 0.10928483468E+02 0.12096713189E+02 0.13046074094E+02 0.13675927417E+02 0.13975142733E+02
 0.13975659860E+02 0.13676733474E+02 0.13046112770E+02 0.12096355515E+02 0.10929046645E+02
 0.97093753989E+01 0.86281910898E+01 0.77814571440E+01 0.71583807971E+01 0.67052946287E+01
 0.63896239112E+01 0.62198551281E+01 0.62189661519E+01 0.85473881876E+01 0.88427690698E+01
 0.92318808679E+01 0.97743640708E+01 0.10530894489E+02 0.11472306501E+02 0.12435684802E+02
 0.13228643943E+02 0.13739158403E+02 0.13975142733E+02 0.14034424072E+02 0.13974978764E+02
 0.13739112177E+02 0.13228718991E+02 0.12435589054E+02 0.11472037696E+02 0.10530816303E+02
 0.97746066047E+01 0.92321399445E+01 0.88428066966E+01 0.85473124192E+01 0.83426025246E+01
 0.82667290351E+01 0.83426395206E+01 0.11122690226E+02 0.11280752902E+02 0.11459866436E+02
 0.11768656689E+02 0.12276439848E+02 0.12912632002E+02 0.13486131144E+02 0.13849539819E+02
 0.13976600785E+02 0.13975659860E+02 0.13974978764E+02 0.13975578317E+02 0.13849557780E+02
 0.13486674348E+02 0.12912160864E+02 0.12274954372E+02 0.11767883321E+02 0.11460877221E+02
 0.11282613372E+02 0.11123823476E+02 0.10953410109E+02 0.10833784250E+02 0.10833955233E+02
 0.10953354627E+02 0.13864547332E+02 0.13727332877E+02 0.13520889518E+02 0.13421662390E+02
 0.13521069163E+02 0.13727327578E+02 0.13864340823E+02 0.13849359451E+02 0.13739066758E+02
 0.13676733474E+02 0.13739112177E+02 0.13849557780E+02 0.13864542702E+02 0.13727310324E+02
 0.13521008357E+02 0.13421839951E+02 0.13521076760E+02 0.13727128648E+02 0.13864169041E+02
 0.13849406578E+02 0.13739222738E+02 0.13676750888E+02 0.13738951867E+02 0.13849417821E+02
 0.16377817354E+02 0.15754590983E+02 0.15001289239E+02 0.14368237634E+02 0.13974067124E+02
 0.13726864936E+02 0.13486083274E+02 0.13228395015E+02 0.13046051231E+02 0.13046112770E+02
 0.13228718991E+02 0.13486674348E+02 0.13727310324E+02 0.13974209026E+02 0.14368557666E+02
 0.15002017869E+02 0.15754974035E+02 0.16376963640E+02 0.16655706771E+02 0.16583477471E+02
 0.16411584581E+02 0.16412297803E+02 0.16585278988E+02 0.16657598082E+02 0.18167647808E+02
 0.16916083210E+02 0.15542451092E+02 0.14368807046E+02 0.13520956668E+02 0.12911922488E+02
 0.12435633504E+02 0.12096624029E+02 0.11969243628E+02 0.12096355515E+02 0.12435589054E+02
 0.12912160864E+02 0.13521008357E+02 0.14368557666E+02 0.15542317275E+02 0.16916222103E+02
 0.18167747597E+02 0.18885384331E+02 0.18871267005E+02 0.18435108011E+02 0.18185526792E+02
 0.18434948191E+02 0.18871223326E+02 0.18885436285E+02 0.18818220249E+02 0.16915977978E+02
 0.15001318281E+02 0.13422353651E+02 0.12276284391E+02 0.11472576107E+02 0.10928446873E+02
 0.10640868756E+02 0.10641351528E+02 0.10929046645E+02 0.11472037696E+02 0.12274954372E+02
 0.13421839951E+02 0.15002017869E+02 0.16916222103E+02 0.18816893712E+02 0.20110473280E+02
 0.20277524150E+02 0.19478616148E+02 0.18628096467E+02 0.18625875773E+02 0.19474442464E+02
 0.20275587309E+02 0.20111521411E+02 0.18167680034E+02 0.15754807268E+02 0.13520997059E+02
 0.11767866370E+02 0.10530795337E+02 0.97093802535E+01 0.92285801389E+01 0.90680900036E+01
 0.92285449102E+01 0.97093753989E+01 0.10530816303E+02 0.11767883321E+02 0.13521076760E+02
 0.15754974035E+02 0.18167747597E+02 0.20110473280E+02 0.20736317568E+02 0.19794768396E+02
 0.18186914246E+02 0.17404962594E+02 0.18186791822E+02 0.19794809936E+02 0.20736579936E+02
 0.20110662821E+02 0.16377711411E+02 0.13728589058E+02 0.11460056458E+02 0.97722384037E+01
 0.86275214326E+01 0.79212683083E+01 0.75818470289E+01 0.75806069492E+01 0.79195374941E+01
 0.86281910898E+01 0.97746066047E+01 0.11460877221E+02 0.13727128648E+02 0.16376963640E+02
 0.18885384331E+02 0.20277524150E+02 0.19794768396E+02 0.17861493936E+02 0.16122557109E+02
 0.16125425731E+02 0.17866832494E+02 0.19797020462E+02 0.20275736459E+02 0.18883488915E+02
 0.13864262375E+02 0.11282601561E+02 0.92320673366E+01 0.77814321670E+01 0.68421436463E+01
 0.63187550710E+01 0.61510340055E+01 0.63186695275E+01 0.68420756489E+01 0.77814571440E+01
 0.92321399445E+01 0.11282613372E+02 0.13864169041E+02 0.16655706771E+02 0.18871267005E+02
 0.19478616148E+02 0.18186914246E+02 0.16122557109E+02 0.15131123296E+02 0.16122515788E+02
 0.18186866626E+02 0.19478618556E+02 0.18871354095E+02 0.16655843414E+02 0.11122433995E+02
 0.88437790559E+01 0.71608242864E+01 0.60223328470E+01 0.53262845704E+01 0.49982983825E+01
 0.49996438006E+01 0.53282264991E+01 0.60217753049E+01 0.71583807971E+01 0.88428066966E+01
 0.11123823476E+02 0.13849406578E+02 0.16583477471E+02 0.18435108011E+02 0.18628096467E+02
 0.17404962594E+02 0.16125425731E+02 0.16122515788E+02 0.17399567339E+02 0.18625858639E+02
 0.18436942700E+02 0.16585369610E+02 0.13848639108E+02 0.85473631653E+01 0.67053681305E+01
 0.54204540856E+01 0.45880650926E+01 0.41207791590E+01 0.39700761697E+01 0.41208359487E+01
 0.45880922624E+01 0.54204095834E+01 0.67052946287E+01 0.85473124192E+01 0.10953410109E+02
 0.13739222738E+02 0.16411584581E+02 0.18185526792E+02 0.18625875773E+02 0.18186791822E+02
 0.17866832494E+02 0.18186866626E+02 0.18625858639E+02 0.18185344834E+02 0.16411361434E+02
 0.13739098402E+02 0.10953398227E+02 0.63885806854E+01 0.49924931439E+01 0.40559848394E+01
 0.34802665645E+01 0.32047040284E+01 0.32037548632E+01 0.34787964131E+01 0.40561528940E+01
 0.49941639939E+01 0.63896239112E+01 0.83426025246E+01 0.10833784250E+02 0.13676750888E+02
 0.16412297803E+02 0.18434948191E+02 0.19474442464E+02 0.19794809936E+02 0.19797020462E+02
 0.19478618556E+02 0.18436942700E+02 0.16411361434E+02 0.13675557443E+02 0.10834070428E+02
 0.83430554186E+01 0.47292817341E+01 0.37041957842E+01 0.30386413021E+01 0.26621187299E+01
 0.25399780476E+01 0.26622518175E+01 0.30386546453E+01 0.37040751349E+01 0.47292863492E+01
 0.62198551281E+01 0.82667290351E+01 0.10833955233E+02 0.13738951867E+02 0.16585278988E+02
 0.18871223326E+02 0.20275587309E+02 0.20736579936E+02 0.20275736459E+02 0.18871354095E+02
 0.16585369610E+02 0.13739098402E+02 0.10834070428E+02 0.82666441129E+01 0.62196810668E+01
 0.35270649159E+01 0.27792485862E+01 0.23154153594E+01 0.20921616034E+01 0.20926773833E+01
 0.23162952555E+01 0.27793822658E+01 0.35262663935E+01 0.46377925980E+01 0.62189661519E+01
 0.83426395206E+01 0.10953354627E+02 0.13849417821E+02 0.16657598082E+02 0.18885436285E+02
 0.20111521411E+02 0.20110662821E+02 0.18883488915E+02 0.16655843414E+02 0.13848639108E+02
 0.10953398227E+02 0.83430554186E+01 0.62196810668E+01 0.46388161261E+01 0.21351829917E+01
 0.17502107532E+01 0.15647588059E+01 0.15645574829E+01 0.17499255161E+01 0.21352744339E+01
 0.27537868752E+01 0.36617883821E+01 0.49327033810E+01 0.66279047321E+01 0.87390899163E+01
 0.11122916394E+02 0.13486289060E+02 0.15431739109E+02 0.16540580116E+02 0.16541154224E+02
 0.15432778061E+02 0.13486639462E+02 0.11122396530E+02 0.87385363411E+01 0.66279256339E+01
 0.49329691980E+01 0.36617164618E+01 0.27534428359E+01 0.17502107532E+01 0.14914872981E+01
 0.14078520411E+01 0.14916174532E+01 0.17499322235E+01 0.22052570505E+01 0.28951750692E+01
 0.38700748745E+01 0.51822073942E+01 0.68566818779E+01 0.88429088054E+01 0.10965324969E+02
 0.12912588172E+02 0.14301310045E+02 0.14807420016E+02 0.14302006663E+02 0.12914088219E+02
 0.10967086258E+02 0.88437059156E+01 0.68558177400E+01 0.51804696920E+01 0.38689870924E+01
 0.28953538167E+01 0.22059501451E+01 0.15647588059E+01 0.14078520411E+01 0.14078215236E+01
 0.15647184764E+01 0.18933446547E+01 0.24198865910E+01 0.31788592671E+01 0.42090424341E+01
 0.55398286089E+01 0.71606915600E+01 0.89785743161E+01 0.10786094032E+02 0.12276285434E+02
 0.13126535451E+02 0.13126534308E+02 0.12276296323E+02 0.10786148175E+02 0.89786896607E+01
 0.71608415931E+01 0.55399405283E+01 0.42090466079E+01 0.31787599165E+01 0.24197737644E+01
 0.18933100457E+01 0.15645574829E+01 0.14916174532E+01 0.15647184764E+01 0.17917669024E+01
 0.21919196147E+01 0.27895440352E+01 0.36121099497E+01 0.46865793465E+01 0.60221356995E+01
 0.75756345045E+01 0.92146050611E+01 0.10707565146E+02 0.11768704419E+02 0.12154797923E+02
 0.11769033127E+02 0.10707070649E+02 0.92129188598E+01 0.75741339718E+01 0.60223918359E+01
 0.46883670307E+01 0.36136797771E+01 0.27897022926E+01 0.21911327528E+01 0.17911278012E+01
 0.17499255161E+01 0.17499322235E+01 0.18933446547E+01 0.21919196147E+01 0.26639373516E+01
 0.33299549958E+01 0.42118330953E+01 0.53263138670E+01 0.66618003191E+01 0.81414569665E+01
 0.95972340690E+01 0.10786228753E+02 0.11460031565E+02 0.11460042481E+02 0.10786227125E+02
 0.95971787454E+01 0.81413702795E+01 0.66617242195E+01 0.53262518394E+01 0.42117869981E+01
 0.33299589707E+01 0.26639976857E+01 0.21919777558E+01 0.18933559920E+01 0.21352744339E+01
 0.22052570505E+01 0.24198865910E+01 0.27895440352E+01 0.33299549958E+01 0.40604450321E+01
 0.49993839901E+01 0.61499109470E+01 0.74716447556E+01 0.88501285462E+01 0.10091748599E+02
 0.10965329341E+02 0.11280718454E+02 0.10964738963E+02 0.10091675416E+02 0.88512385102E+01
 0.74731227238E+01 0.61502961142E+01 0.49982158599E+01 0.40587329359E+01 0.33290724010E+01
 0.27899601850E+01 0.24209977993E+01 0.22061143587E+01 0.27537868752E+01 0.28951750692E+01
 0.31788592671E+01 0.36121099497E+01 0.42118330953E+01 0.49993839901E+01 0.59857740732E+01
 0.71488003463E+01 0.84085953509E+01 0.96178046991E+01 0.10583791674E+02 0.11122794052E+02
 0.11122534250E+02 0.10583252984E+02 0.96173940552E+01 0.84084406181E+01 0.71488045376E+01
 0.59859044401E+01 0.49996507224E+01 0.42121114218E+01 0.36122314496E+01 0.31788237292E+01
 0.28951082688E+01 0.27537623188E+01 0.36617883821E+01 0.38700748745E+01 0.42090424341E+01
 0.46865793465E+01 0.53263138670E+01 0.61499109470E+01 0.71488003463E+01 0.82609412254E+01
 0.93670253257E+01 0.10313173268E+02 0.10953933261E+02 0.11181243304E+02 0.10953396940E+02
 0.10312226262E+02 0.93657783889E+01 0.82597030801E+01 0.71483283630E+01 0.61508676221E+01
 0.53283000430E+01 0.46881635353E+01 0.42090698533E+01 0.38687922056E+01 0.36605522328E+01
 0.35901816478E+01 0.49327033810E+01 0.51822073942E+01 0.55398286089E+01 0.60221356995E+01
 0.66618003191E+01 0.74716447556E+01 0.84085953509E+01 0.93670253257E+01 0.10211979982E+02
 0.10835721839E+02 0.11166308084E+02 0.11165561149E+02 0.10834136470E+02 0.10210829517E+02
 0.93669991715E+01 0.84094135439E+01 0.74725449575E+01 0.66621442058E+01 0.60217954853E+01
 0.55392759298E+01 0.51820662316E+01 0.49330312570E+01 0.48005271872E+01 0.48002946135E+01
 0.66279047321E+01 0.68566818779E+01 0.71606915600E+01 0.75756345045E+01 0.81414569665E+01
 0.88501285462E+01 0.96178046991E+01 0.10313173268E+02 0.10835721839E+02 0.11148924757E+02
 0.11250798858E+02 0.11146940565E+02 0.10833812393E+02 0.10313288081E+02 0.96198931292E+01
 0.88523393821E+01 0.81418798233E+01 0.75739252890E+01 0.71583707616E+01 0.68557906166E+01
 0.66289923802E+01 0.64755943882E+01 0.64189749408E+01 0.64740923063E+01 0.87390899163E+01
 0.88429088054E+01 0.89785743161E+01 0.92146050611E+01 0.95972340690E+01 0.10091748599E+02
 0.10583791674E+02 0.10953933261E+02 0.11166308084E+02 0.11250798858E+02 0.11249613493E+02
 0.11164211949E+02 0.10953362924E+02 0.10585110048E+02 0.10093205375E+02 0.95974646804E+01
 0.92139760546E+01 0.89780931388E+01 0.88428572605E+01 0.87391071671E+01 0.86393215397E+01
 0.85704542715E+01 0.85705417826E+01 0.86394406500E+01 0.11122916394E+02 0.10965324969E+02
 0.10786094032E+02 0.10707565146E+02 0.10786228753E+02 0.10965329341E+02 0.11122794052E+02
 0.11181243304E+02 0.11165561149E+02 0.11146940565E+02 0.11164211949E+02 0.11180691052E+02
 0.11123983293E+02 0.10966563021E+02 0.10785792503E+02 0.10706263390E+02 0.10785937980E+02
 0.10966579562E+02 0.11123861527E+02 0.11180691496E+02 0.11164332584E+02 0.11146917449E+02
 0.11165401945E+02 0.11181223194E+02 0.13486289060E+02 0.12912588172E+02 0.12276285434E+02
 0.11768704419E+02 0.11460031565E+02 0.11280718454E+02 0.11122534250E+02 0.10953396940E+02
 0.10834136470E+02 0.10833812393E+02 0.10953362924E+02 0.11123983293E+02 0.11282860228E+02
 0.11460868973E+02 0.11767687890E+02 0.12274890729E+02 0.12912174667E+02 0.13486491820E+02
 0.13849295729E+02 0.13975569966E+02 0.13975142511E+02 0.13975660885E+02 0.13976487154E+02
 0.13849601838E+02 0.15431739109E+02 0.14301310045E+02 0.13126535451E+02 0.12154797923E+02
 0.11460042481E+02 0.10964738963E+02 0.10583252984E+02 0.10312226262E+02 0.10210829517E+02
 0.10313288081E+02 0.10585110048E+02 0.10966563021E+02 0.11460868973E+02 0.12154487184E+02
 0.13125834171E+02 0.14300793572E+02 0.15431159386E+02 0.16244945328E+02 0.16583275916E+02
 0.16569943375E+02 0.16511537278E+02 0.16571002715E+02 0.16584740498E+02 0.16246052262E+02
 0.16540580116E+02 0.14807420016E+02 0.13126534308E+02 0.11769033127E+02 0.10786227125E+02
 0.10091675416E+02 0.96173940552E+01 0.93657783889E+01 0.93669991715E+01 0.96198931292E+01
 0.10093205375E+02 0.10785792503E+02 0.11767687890E+02 0.13125834171E+02 0.14807600763E+02
 0.16540741122E+02 0.17914638406E+02 0.18538806216E+02 0.18434979294E+02 0.18115640820E+02
 0.18115471995E+02 0.18434839679E+02 0.18539088984E+02 0.17914952896E+02 0.16541154224E+02
 0.14302006663E+02 0.12276296323E+02 0.10707070649E+02 0.95971787454E+01 0.88512385102E+01
 0.84084406181E+01 0.82597030801E+01 0.84094135439E+01 0.88523393821E+01 0.95974646804E+01
 0.10706263390E+02 0.12274890729E+02 0.14300793572E+02 0.16540741122E+02 0.18513134492E+02
 0.19562527952E+02 0.19417966779E+02 0.18628043269E+02 0.18195465992E+02 0.18626691734E+02
 0.19416022045E+02 0.19560934368E+02 0.18512484043E+02 0.15432778061E+02 0.12914088219E+02
 0.10786148175E+02 0.92129188598E+01 0.81413702795E+01 0.74731227238E+01 0.71488045376E+01
 0.71483283630E+01 0.74725449575E+01 0.81418798233E+01 0.92139760546E+01 0.10785937980E+02
 0.12912174667E+02 0.15431159386E+02 0.17914638406E+02 0.19562527952E+02 0.19698847006E+02
 0.18568020087E+02 0.17404894149E+02 0.17405443030E+02 0.18568454550E+02 0.19697540073E+02
 0.19560305803E+02 0.17913970150E+02 0.13486639462E+02 0.10967086258E+02 0.89786896607E+01
 0.75741339718E+01 0.66617242195E+01 0.61502961142E+01 0.59859044401E+01 0.61508676221E+01
 0.66621442058E+01 0.75739252890E+01 0.89780931388E+01 0.10966579562E+02 0.13486491820E+02
 0.16244945328E+02 0.18538806216E+02 0.19417966779E+02 0.18568020087E+02 0.16935270424E+02
 0.16125398457E+02 0.16935817577E+02 0.18568386709E+02 0.19417720069E+02 0.18538279168E+02
 0.16244660514E+02 0.11122396530E+02 0.88437059156E+01 0.71608415931E+01 0.60223918359E+01
 0.53262518394E+01 0.49982158599E+01 0.49996507224E+01 0.53283000430E+01 0.60217954853E+01
 0.71583707616E+01 0.88428572605E+01 0.11123861527E+02 0.13849295729E+02 0.16583275916E+02
 0.18434979294E+02 0.18628043269E+02 0.17404894149E+02 0.16125398457E+02 0.16122644340E+02
 0.17399773559E+02 0.18625967777E+02 0.18436959784E+02 0.16585415154E+02 0.13848692946E+02
 0.87385363411E+01 0.68558177400E+01 0.55399405283E+01 0.46883670307E+01 0.42117869981E+01
 0.40587329359E+01 0.42121114218E+01 0.46881635353E+01 0.55392759298E+01 0.68557906166E+01
 0.87391071671E+01 0.11180691496E+02 0.13975569966E+02 0.16569943375E+02 0.18115640820E+02
 0.18195465992E+02 0.17405443030E+02 0.16935817577E+02 0.17399773559E+02 0.18189291337E+02
 0.18113792622E+02 0.16572305974E+02 0.13978367704E+02 0.11181370274E+02 0.66279256339E+01
 0.51804696920E+01 0.42090466079E+01 0.36136797771E+01 0.33299589707E+01 0.33290724010E+01
 0.36122314496E+01 0.42090698533E+01 0.51820662316E+01 0.66289923802E+01 0.86393215397E+01
 0.11164332584E+02 0.13975142511E+02 0.16511537278E+02 0.18115471995E+02 0.18626691734E+02
 0.18568454550E+02 0.18568386709E+02 0.18625967777E+02 0.18113792622E+02 0.16510242924E+02
 0.13975820138E+02 0.11166377007E+02 0.86403620294E+01 0.49329691980E+01 0.38689870924E+01
 0.31787599165E+01 0.27897022926E+01 0.26639976857E+01 0.27899601850E+01 0.31788237292E+01
 0.38687922056E+01 0.49330312570E+01 0.64755943882E+01 0.85704542715E+01 0.11146917449E+02
 0.13975660885E+02 0.16571002715E+02 0.18434839679E+02 0.19416022045E+02 0.19697540073E+02
 0.19417720069E+02 0.18436959784E+02 0.16572305974E+02 0.13975820138E+02 0.11146255025E+02
 0.85695008262E+01 0.64749386740E+01 0.36617164618E+01 0.28953538167E+01 0.24197737644E+01
 0.21911327528E+01 0.21919777558E+01 0.24209977993E+01 0.28951082688E+01 0.36605522328E+01
 0.48005271872E+01 0.64189749408E+01 0.85705417826E+01 0.11165401945E+02 0.13976487154E+02
 0.16584740498E+02 0.18539088984E+02 0.19560934368E+02 0.19560305803E+02 0.18538279168E+02
 0.16585415154E+02 0.13978367704E+02 0.11166377007E+02 0.85695008262E+01 0.64174303511E+01
 0.48005136213E+01 0.27534428359E+01 0.22059501451E+01 0.18933100457E+01 0.17911278012E+01
 0.18933559920E+01 0.22061143587E+01 0.27537623188E+01 0.35901816478E+01 0.48002946135E+01
 0.64740923063E+01 0.86394406500E+01 0.11181223194E+02 0.13849601838E+02 0.16246052262E+02
 0.17914952896E+02 0.18512484043E+02 0.17913970150E+02 0.16244660514E+02 0.13848692946E+02
 0.11181370274E+02 0.86403620294E+01 0.64749386740E+01 0.48005136213E+01 0.35899171167E+01
 0.16987302866E+01 0.14489200647E+01 0.13677472223E+01 0.14489948803E+01 0.16987765071E+01
 0.21369691997E+01 0.27996839988E+01 0.37381466886E+01 0.50062064236E+01 0.66279698947E+01
 0.85473661425E+01 0.10583883461E+02 0.12435810720E+02 0.13751177043E+02 0.14229541156E+02
 0.13751072034E+02 0.12435674484E+02 0.10583769686E+02 0.85472635375E+01 0.66278672349E+01
 0.50061512666E+01 0.37381901007E+01 0.27997872970E+01 0.21370235488E+01 0.14489200647E+01
 0.13017017431E+01 0.13019103916E+01 0.14490565606E+01 0.17561961103E+01 0.22483947539E+01
 0.29599701556E+01 0.39289221138E+01 0.51821353611E+01 0.67060699368E+01 0.84083262956E+01
 0.10091746096E+02 0.11472267529E+02 0.12257049714E+02 0.12257488209E+02 0.11473479115E+02
 0.10093192191E+02 0.84089828005E+01 0.67052527052E+01 0.51804247009E+01 0.39277873512E+01
 0.29602509245E+01 0.22494541037E+01 0.17568220083E+01 0.13677472223E+01 0.13019103916E+01
 0.13677075162E+01 0.15723071871E+01 0.19341873985E+01 0.24776322000E+01 0.32286750270E+01
 0.42090634227E+01 0.54204378954E+01 0.68168947871E+01 0.82768958500E+01 0.95971451679E+01
 0.10530789400E+02 0.10869402560E+02 0.10530793862E+02 0.95971856258E+01 0.82769830846E+01
 0.68169950441E+01 0.54205060218E+01 0.42090785821E+01 0.32286455678E+01 0.24775898431E+01
 0.19341738375E+01 0.15723378703E+01 0.14489948803E+01 0.14490565606E+01 0.15723071871E+01
 0.18318402378E+01 0.22464597895E+01 0.28346322601E+01 0.36122368275E+01 0.45867084675E+01
 0.57392319046E+01 0.69983313119E+01 0.82226086685E+01 0.92146154025E+01 0.97744251511E+01
 0.97743332539E+01 0.92140912365E+01 0.82215032317E+01 0.69973574764E+01 0.57394389258E+01
 0.45881531117E+01 0.36137051738E+01 0.28349316496E+01 0.22456522285E+01 0.18309075792E+01
 0.15718884079E+01 0.16987765071E+01 0.17561961103E+01 0.19341873985E+01 0.22464597895E+01
 0.27077500864E+01 0.33299618133E+01 0.41207869613E+01 0.50758823575E+01 0.61585867674E+01
 0.72764702215E+01 0.82769469246E+01 0.89786668100E+01 0.92320091880E+01 0.89787710534E+01
 0.82770500392E+01 0.72764890149E+01 0.61585299407E+01 0.50757969944E+01 0.41207039919E+01
 0.33299044508E+01 0.27077339809E+01 0.22464660556E+01 0.19341808167E+01 0.17561779316E+01
 0.21369691997E+01 0.22483947539E+01 0.24776322000E+01 0.28346322601E+01 0.33299618133E+01
 0.39717357571E+01 0.47611372408E+01 0.56807954971E+01 0.66750192020E+01 0.76348633686E+01
 0.84083267085E+01 0.88429043224E+01 0.88427349828E+01 0.84083293446E+01 0.76357145309E+01
 0.66762774565E+01 0.56811516349E+01 0.47599806878E+01 0.39699664560E+01 0.33290254294E+01
 0.28350674601E+01 0.24788115228E+01 0.22494072943E+01 0.21373383230E+01 0.27996839988E+01
 0.29599701556E+01 0.32286750270E+01 0.36122368275E+01 0.41207869613E+01 0.47611372408E+01
 0.55257970866E+01 0.63795145574E+01 0.72472511434E+01 0.80140419111E+01 0.85473304568E+01
 0.87390165563E+01 0.85472921702E+01 0.80140331949E+01 0.72472550034E+01 0.63794641724E+01
 0.55257460719E+01 0.47611947596E+01 0.41209056762E+01 0.36122757924E+01 0.32286475414E+01
 0.29600060515E+01 0.27997707098E+01 0.27462506277E+01 0.37381466886E+01 0.39289221138E+01
 0.42090634227E+01 0.45867084675E+01 0.50758823575E+01 0.56807954971E+01 0.63795145574E+01
 0.71160294668E+01 0.78040372067E+01 0.83423013547E+01 0.86391785865E+01 0.86394760432E+01
 0.83427083430E+01 0.78036989267E+01 0.71148807660E+01 0.63786306954E+01 0.56813149734E+01
 0.50776291546E+01 0.45882309091E+01 0.42091205667E+01 0.39276371051E+01 0.37366548205E+01
 0.36387488196E+01 0.36393766287E+01 0.50062064236E+01 0.51821353611E+01 0.54204378954E+01
 0.57392319046E+01 0.61585867674E+01 0.66750192020E+01 0.72472511434E+01 0.78040372067E+01
 0.82666875727E+01 0.85706039473E+01 0.86762131991E+01 0.85706339431E+01 0.82668545693E+01
 0.78042845316E+01 0.72473674662E+01 0.66749526421E+01 0.61585012567E+01 0.57392172013E+01
 0.54204019566E+01 0.51820235065E+01 0.50061020592E+01 0.48921543630E+01 0.48518754648E+01
 0.48921916025E+01 0.66279698947E+01 0.67060699368E+01 0.68168947871E+01 0.69983313119E+01
 0.72764702215E+01 0.76348633686E+01 0.80140419111E+01 0.83423013547E+01 0.85706039473E+01
 0.86835456099E+01 0.86833779386E+01 0.85703865710E+01 0.83425488129E+01 0.80148677502E+01
 0.76357284454E+01 0.72765324910E+01 0.69971810408E+01 0.68151711828E+01 0.67052166555E+01
 0.66289098241E+01 0.65671533760E+01 0.65278787279E+01 0.65268873030E+01 0.65652162052E+01
 0.85473661425E+01 0.84083262956E+01 0.82768958500E+01 0.82226086685E+01 0.82769469246E+01
 0.84083267085E+01 0.85473304568E+01 0.86391785865E+01 0.86762131991E+01 0.86833779386E+01
 0.86761933716E+01 0.86391152749E+01 0.85471820074E+01 0.84081412605E+01 0.82768939804E+01
 0.82227551858E+01 0.82770534448E+01 0.84083169967E+01 0.85473205927E+01 0.86392707896E+01
 0.86763272468E+01 0.86833777349E+01 0.86761137521E+01 0.86391351688E+01 0.10583883461E+02
 0.10091746096E+02 0.95971451679E+01 0.92146154025E+01 0.89786668100E+01 0.88429043224E+01
 0.87390165563E+01 0.86394760432E+01 0.85706339431E+01 0.85703865710E+01 0.86391152749E+01
 0.87389819749E+01 0.88428375542E+01 0.89780322219E+01 0.92139183767E+01 0.95975922432E+01
 0.10093461261E+02 0.10585256409E+02 0.10953377149E+02 0.11164257590E+02 0.11249672580E+02
 0.11250715708E+02 0.11166148355E+02 0.10953911907E+02 0.12435810720E+02 0.11472267529E+02
 0.10530789400E+02 0.97744251511E+01 0.92320091880E+01 0.88427349828E+01 0.85472921702E+01
 0.83427083430E+01 0.82668545693E+01 0.83425488129E+01 0.85471820074E+01 0.88428375542E+01
 0.92322393212E+01 0.97745499169E+01 0.10530706683E+02 0.11472101650E+02 0.12435715696E+02
 0.13228668243E+02 0.13738982500E+02 0.13975005309E+02 0.14034513354E+02 0.13975071811E+02
 0.13739034146E+02 0.13228697813E+02 0.13751177043E+02 0.12257049714E+02 0.10869402560E+02
 0.97743332539E+01 0.89787710534E+01 0.84083293446E+01 0.80140331949E+01 0.78036989267E+01
 0.78042845316E+01 0.80148677502E+01 0.84081412605E+01 0.89780322219E+01 0.97745499169E+01
 0.10870605736E+02 0.12257439480E+02 0.13749708998E+02 0.15078891083E+02 0.15991371439E+02
 0.16411310494E+02 0.16511453539E+02 0.16510416681E+02 0.16409631300E+02 0.15991398869E+02
 0.15080733943E+02 0.14229541156E+02 0.12257488209E+02 0.10530793862E+02 0.92140912365E+01
 0.82770500392E+01 0.76357145309E+01 0.72472550034E+01 0.71148807660E+01 0.72473674662E+01
 0.76357284454E+01 0.82768939804E+01 0.92139183767E+01 0.10530706683E+02 0.12257439480E+02
 0.14229526438E+02 0.16125248247E+02 0.17517817618E+02 0.18143486851E+02 0.18185472016E+02
 0.18115540495E+02 0.18185487331E+02 0.18143409114E+02 0.17517662050E+02 0.16125157030E+02
 0.13751072034E+02 0.11473479115E+02 0.95971856258E+01 0.82215032317E+01 0.72764890149E+01
 0.66762774565E+01 0.63794641724E+01 0.63786306954E+01 0.66749526421E+01 0.72765324910E+01
 0.82227551858E+01 0.95975922432E+01 0.11472101650E+02 0.13749708998E+02 0.16125248247E+02
 0.18056867664E+02 0.19007660146E+02 0.18981010883E+02 0.18625960918E+02 0.18626833538E+02
 0.18982090709E+02 0.19006781709E+02 0.18054727176E+02 0.16124489497E+02 0.12435674484E+02
 0.10093192191E+02 0.82769830846E+01 0.69973574764E+01 0.61585299407E+01 0.56811516349E+01
 0.55257460719E+01 0.56813149734E+01 0.61585012567E+01 0.69971810408E+01 0.82770534448E+01
 0.10093461261E+02 0.12435715696E+02 0.15078891083E+02 0.17517817618E+02 0.19007660146E+02
 0.19185301849E+02 0.18568362962E+02 0.18186829575E+02 0.18568568724E+02 0.19185273090E+02
 0.19007389679E+02 0.17517749067E+02 0.15079050371E+02 0.10583769686E+02 0.84089828005E+01
 0.68169950441E+01 0.57394389258E+01 0.50757969944E+01 0.47599806878E+01 0.47611947596E+01
 0.50776291546E+01 0.57392172013E+01 0.68151711828E+01 0.84083169967E+01 0.10585256409E+02
 0.13228668243E+02 0.15991371439E+02 0.18143486851E+02 0.18981010883E+02 0.18568362962E+02
 0.17867050069E+02 0.17866915818E+02 0.18568510248E+02 0.18982142856E+02 0.18144943037E+02
 0.15991460849E+02 0.13226983425E+02 0.85472635375E+01 0.67052527052E+01 0.54205060218E+01
 0.45881531117E+01 0.41207039919E+01 0.39699664560E+01 0.41209056762E+01 0.45882309091E+01
 0.54204019566E+01 0.67052166555E+01 0.85473205927E+01 0.10953377149E+02 0.13738982500E+02
 0.16411310494E+02 0.18185472016E+02 0.18625960918E+02 0.18186829575E+02 0.17866915818E+02
 0.18187137166E+02 0.18626132396E+02 0.18185377790E+02 0.16411265843E+02 0.13739104752E+02
 0.10953435087E+02 0.66278672349E+01 0.51804247009E+01 0.42090785821E+01 0.36137051738E+01
 0.33299044508E+01 0.33290254294E+01 0.36122757924E+01 0.42091205667E+01 0.51820235065E+01
 0.66289098241E+01 0.86392707896E+01 0.11164257590E+02 0.13975005309E+02 0.16511453539E+02
 0.18115540495E+02 0.18626833538E+02 0.18568568724E+02 0.18568510248E+02 0.18626132396E+02
 0.18113888460E+02 0.16510189636E+02 0.13975722132E+02 0.11166350281E+02 0.86403559952E+01
 0.50061512666E+01 0.39277873512E+01 0.32286455678E+01 0.28349316496E+01 0.27077339809E+01
 0.28350674601E+01 0.32286475414E+01 0.39276371051E+01 0.50061020592E+01 0.65671533760E+01
 0.86763272468E+01 0.11249672580E+02 0.14034513354E+02 0.16510416681E+02 0.18185487331E+02
 0.18982090709E+02 0.19185273090E+02 0.18982142856E+02 0.18185377790E+02 0.16510189636E+02
 0.14034446845E+02 0.11249776244E+02 0.86763486293E+01 0.65670772273E+01 0.37381901007E+01
 0.29602509245E+01 0.24775898431E+01 0.22456522285E+01 0.22464660556E+01 0.24788115228E+01
 0.29600060515E+01 0.37366548205E+01 0.48921543630E+01 0.65278787279E+01 0.86833777349E+01
 0.11250715708E+02 0.13975071811E+02 0.16409631300E+02 0.18143409114E+02 0.19006781709E+02
 0.19007389679E+02 0.18144943037E+02 0.16411265843E+02 0.13975722132E+02 0.11249776244E+02
 0.86815544953E+01 0.65269083406E+01 0.48930085750E+01 0.27997872970E+01 0.22494541037E+01
 0.19341738375E+01 0.18309075792E+01 0.19341808167E+01 0.22494072943E+01 0.27997707098E+01
 0.36387488196E+01 0.48518754648E+01 0.65268873030E+01 0.86761137521E+01 0.11166148355E+02
 0.13739034146E+02 0.15991398869E+02 0.17517662050E+02 0.18054727176E+02 0.17517749067E+02
 0.15991460849E+02 0.13739104752E+02 0.11166350281E+02 0.86763486293E+01 0.65269083406E+01
 0.48516837316E+01 0.36386029934E+01 0.21370235488E+01 0.17568220083E+01 0.15723378703E+01
 0.15718884079E+01 0.17561779316E+01 0.21373383230E+01 0.27462506277E+01 0.36393766287E+01
 0.48921916025E+01 0.65652162052E+01 0.86391351688E+01 0.10953911907E+02 0.13228697813E+02
 0.15080733943E+02 0.16125157030E+02 0.16124489497E+02 0.15079050371E+02 0.13226983425E+02
 0.10953435087E+02 0.86403559952E+01 0.65670772273E+01 0.48930085750E+01 0.36386029934E+01
 0.27450123564E+01 0.13797789556E+01 0.12384667597E+01 0.12385122089E+01 0.13798651284E+01
 0.16734355172E+01 0.21414465733E+01 0.28168383152E+01 0.37379831214E+01 0.49327722333E+01
 0.63884448272E+01 0.80140509010E+01 0.96178754240E+01 0.10928590919E+02 0.11671278964E+02
 0.11670978566E+02 0.10927941190E+02 0.96173410489E+01 0.80138443906E+01 0.63884689804E+01
 0.49328937526E+01 0.37381647203E+01 0.28170363123E+01 0.21415620927E+01 0.16734180150E+01
 0.12384667597E+01 0.11773793598E+01 0.12385205860E+01 0.14279364952E+01 0.17622004021E+01
 0.22643698683E+01 0.29599435456E+01 0.38696857624E+01 0.49937648642E+01 0.62869694989E+01
 0.76348759059E+01 0.88501421893E+01 0.97078327244E+01 0.10018961595E+02 0.97088155837E+01
 0.88512373530E+01 0.76350751702E+01 0.62860166467E+01 0.49923983228E+01 0.38689508703E+01
 0.29602467716E+01 0.22652384259E+01 0.17628940648E+01 0.14281466360E+01 0.12385122089E+01
 0.12385205860E+01 0.13478884344E+01 0.15786082296E+01 0.19489956254E+01 0.24775948940E+01
 0.31788821003E+01 0.40561224335E+01 0.50865095576E+01 0.62017062318E+01 0.72764506484E+01
 0.81413968101E+01 0.86274542889E+01 0.86274159922E+01 0.81413586864E+01 0.72765187976E+01
 0.62018423511E+01 0.50865803156E+01 0.40560869860E+01 0.31788335513E+01 0.24776185158E+01
 0.19490676002E+01 0.15786552528E+01 0.13478892139E+01 0.13798651284E+01 0.14279364952E+01
 0.15786082296E+01 0.18464290085E+01 0.22464624256E+01 0.27894390456E+01 0.34790604958E+01
 0.43050245181E+01 0.52286187706E+01 0.61680809987E+01 0.69983161971E+01 0.75756205398E+01
 0.77830012796E+01 0.75751479040E+01 0.69975035415E+01 0.61674632456E+01 0.52289024909E+01
 0.43062762454E+01 0.34803671012E+01 0.27897338211E+01 0.22456452227E+01 0.18453867923E+01
 0.15781301993E+01 0.14279424682E+01 0.16734355172E+01 0.17622004021E+01 0.19489956254E+01
 0.22464624256E+01 0.26639474337E+01 0.32046529340E+01 0.38640181277E+01 0.46223786088E+01
 0.54309024951E+01 0.62016945399E+01 0.68169141802E+01 0.71607404899E+01 0.71608142393E+01
 0.68170630986E+01 0.62017909991E+01 0.54309020653E+01 0.46223279224E+01 0.38639671676E+01
 0.32046135333E+01 0.26639128243E+01 0.22464186099E+01 0.19489279901E+01 0.17621239680E+01
 0.16734001052E+01 0.21414465733E+01 0.22643698683E+01 0.24775948940E+01 0.27894390456E+01
 0.32046529340E+01 0.37217779386E+01 0.43303895072E+01 0.50032741378E+01 0.56847664974E+01
 0.62869770745E+01 0.67060893286E+01 0.68566835734E+01 0.67059842121E+01 0.62874208122E+01
 0.56857857127E+01 0.50037899559E+01 0.43294978288E+01 0.37200726040E+01 0.32036742986E+01
 0.27899207593E+01 0.24788005154E+01 0.22652125876E+01 0.21416875846E+01 0.21014315296E+01
 0.28168383152E+01 0.29599435456E+01 0.31788821003E+01 0.34790604958E+01 0.38640181277E+01
 0.43303895072E+01 0.48624711613E+01 0.54256288469E+01 0.59608379114E+01 0.63884666123E+01
 0.66279621889E+01 0.66278438985E+01 0.63883310729E+01 0.59610020001E+01 0.54260139065E+01
 0.48626991427E+01 0.43302817233E+01 0.38637656065E+01 0.34789215183E+01 0.31789090660E+01
 0.29600345190E+01 0.28169057904E+01 0.27459486162E+01 0.27459266490E+01 0.37379831214E+01
 0.38696857624E+01 0.40561224335E+01 0.43050245181E+01 0.46223786088E+01 0.50032741378E+01
 0.54256288469E+01 0.58490731372E+01 0.62185122311E+01 0.64735720223E+01 0.65652101640E+01
 0.64740605195E+01 0.62189559415E+01 0.58490508330E+01 0.54253698015E+01 0.50034145848E+01
 0.46231662687E+01 0.43059142083E+01 0.40562796449E+01 0.38688260219E+01 0.37366323622E+01
 0.36568385693E+01 0.36303064587E+01 0.36578115689E+01 0.49327722333E+01 0.49937648642E+01
 0.50865095576E+01 0.52286187706E+01 0.54309024951E+01 0.56847664974E+01 0.59608379114E+01
 0.62185122311E+01 0.64175816828E+01 0.65263192962E+01 0.65268910566E+01 0.64189550028E+01
 0.62198581254E+01 0.59613609385E+01 0.56842654127E+01 0.54299158792E+01 0.52279425139E+01
 0.50864892921E+01 0.49940757760E+01 0.49329020104E+01 0.48920635237E+01 0.48704503904E+01
 0.48705722913E+01 0.48922174071E+01 0.63884448272E+01 0.62869694989E+01 0.62017062318E+01
 0.61680809987E+01 0.62016945399E+01 0.62869770745E+01 0.63884666123E+01 0.64735720223E+01
 0.65263192962E+01 0.65442627325E+01 0.65278379786E+01 0.64754716882E+01 0.63895059511E+01
 0.62867033882E+01 0.62004275688E+01 0.61664418606E+01 0.62003903879E+01 0.62866716648E+01
 0.63894913656E+01 0.64754493110E+01 0.65278116297E+01 0.65442641768E+01 0.65263414052E+01
 0.64735733779E+01 0.80140509010E+01 0.76348759059E+01 0.72764506484E+01 0.69983161971E+01
 0.68169141802E+01 0.67060893286E+01 0.66279621889E+01 0.65652101640E+01 0.65268910566E+01
 0.65278379786E+01 0.65670443761E+01 0.66287970063E+01 0.67051621833E+01 0.68151628253E+01
 0.69972000451E+01 0.72766084725E+01 0.76358665248E+01 0.80149991124E+01 0.83426153945E+01
 0.85704067748E+01 0.86833797028E+01 0.86835120990E+01 0.85705371323E+01 0.83422584694E+01
 0.96178754240E+01 0.88501421893E+01 0.81413968101E+01 0.75756205398E+01 0.71607404899E+01
 0.68566835734E+01 0.66278438985E+01 0.64740605195E+01 0.64189550028E+01 0.64754716882E+01
 0.66287970063E+01 0.68556947452E+01 0.71584268538E+01 0.75740304985E+01 0.81420042786E+01
 0.88525507632E+01 0.96201414038E+01 0.10313408473E+02 0.10833772722E+02 0.11146866628E+02
 0.11250741314E+02 0.11148823729E+02 0.10835606881E+02 0.10313160235E+02 0.10928590919E+02
 0.97078327244E+01 0.86274542889E+01 0.77830012796E+01 0.71608142393E+01 0.67059842121E+01
 0.63883310729E+01 0.62189559415E+01 0.62198581254E+01 0.63895059511E+01 0.67051621833E+01
 0.71584268538E+01 0.77816267026E+01 0.86283066410E+01 0.97094599936E+01 0.10929209285E+02
 0.12096493671E+02 0.13046055603E+02 0.13676561519E+02 0.13975570231E+02 0.13975118675E+02
 0.13675844787E+02 0.13045998984E+02 0.12096776864E+02 0.11671278964E+02 0.10018961595E+02
 0.86274159922E+01 0.75751479040E+01 0.68170630986E+01 0.62874208122E+01 0.59610020001E+01
 0.58490508330E+01 0.59613609385E+01 0.62867033882E+01 0.68151628253E+01 0.75740304985E+01
 0.86283066410E+01 0.10020359581E+02 0.11671066034E+02 0.13357654963E+02 0.14828009292E+02
 0.15863563476E+02 0.16412159657E+02 0.16571045890E+02 0.16409760139E+02 0.15861433562E+02
 0.14828169242E+02 0.13359069211E+02 0.11670978566E+02 0.97088155837E+01 0.81413586864E+01
 0.69975035415E+01 0.62017909991E+01 0.56857857127E+01 0.54260139065E+01 0.54253698015E+01
 0.56842654127E+01 0.62004275688E+01 0.69972000451E+01 0.81420042786E+01 0.97094599936E+01
 0.11671066034E+02 0.13816225327E+02 0.15825641590E+02 0.17324548021E+02 0.18143735848E+02
 0.18435071546E+02 0.18435087169E+02 0.18143599126E+02 0.17324163779E+02 0.15825382817E+02
 0.13816293539E+02 0.10927941190E+02 0.88512373530E+01 0.72765187976E+01 0.61674632456E+01
 0.54309020653E+01 0.50037899559E+01 0.48626991427E+01 0.50034145848E+01 0.54299158792E+01
 0.61664418606E+01 0.72766084725E+01 0.88525507632E+01 0.10929209285E+02 0.13357654963E+02
 0.15825641590E+02 0.17835297396E+02 0.19006630771E+02 0.19416201642E+02 0.19474629063E+02
 0.19416278919E+02 0.19006917235E+02 0.17835932202E+02 0.15826292768E+02 0.13357484046E+02
 0.96173410489E+01 0.76350751702E+01 0.62018423511E+01 0.52289024909E+01 0.46223279224E+01
 0.43294978288E+01 0.43302817233E+01 0.46231662687E+01 0.52279425139E+01 0.62003903879E+01
 0.76358665248E+01 0.96201414038E+01 0.12096493671E+02 0.14828009292E+02 0.17324548021E+02
 0.19006630771E+02 0.19698987252E+02 0.19795793823E+02 0.19794842618E+02 0.19697665312E+02
 0.19007423464E+02 0.17327279477E+02 0.14829627902E+02 0.12094972787E+02 0.80138443906E+01
 0.62860166467E+01 0.50865803156E+01 0.43062762454E+01 0.38639671676E+01 0.37200726040E+01
 0.38637656065E+01 0.43059142083E+01 0.50864892921E+01 0.62866716648E+01 0.80149991124E+01
 0.10313408473E+02 0.13046055603E+02 0.15863563476E+02 0.18143735848E+02 0.19416201642E+02
 0.19795793823E+02 0.19821238349E+02 0.19797055034E+02 0.19417811508E+02 0.18144932156E+02
 0.15864166289E+02 0.13045970549E+02 0.10312559081E+02 0.63884689804E+01 0.49923983228E+01
 0.40560869860E+01 0.34803671012E+01 0.32046135333E+01 0.32036742986E+01 0.34789215183E+01
 0.40562796449E+01 0.49940757760E+01 0.63894913656E+01 0.83426153945E+01 0.10833772722E+02
 0.13676561519E+02 0.16412159657E+02 0.18435071546E+02 0.19474629063E+02 0.19794842618E+02
 0.19797055034E+02 0.19478807811E+02 0.18437066858E+02 0.16411228805E+02 0.13675389567E+02
 0.10834097429E+02 0.83431082843E+01 0.49328937526E+01 0.38689508703E+01 0.31788335513E+01
 0.27897338211E+01 0.26639128243E+01 0.27899207593E+01 0.31789090660E+01 0.38688260219E+01
 0.49329020104E+01 0.64754493110E+01 0.85704067748E+01 0.11146866628E+02 0.13975570231E+02
 0.16571045890E+02 0.18435087169E+02 0.19416278919E+02 0.19697665312E+02 0.19417811508E+02
 0.18437066858E+02 0.16572277973E+02 0.13975614716E+02 0.11146085387E+02 0.85694951760E+01
 0.64749510247E+01 0.37381647203E+01 0.29602467716E+01 0.24776185158E+01 0.22456452227E+01
 0.22464186099E+01 0.24788005154E+01 0.29600345190E+01 0.37366323622E+01 0.48920635237E+01
 0.65278116297E+01 0.86833797028E+01 0.11250741314E+02 0.13975118675E+02 0.16409760139E+02
 0.18143599126E+02 0.19006917235E+02 0.19007423464E+02 0.18144932156E+02 0.16411228805E+02
 0.13975614716E+02 0.11249630296E+02 0.86814801586E+01 0.65269252222E+01 0.48930229608E+01
 0.28170363123E+01 0.22652384259E+01 0.19490676002E+01 0.18453867923E+01 0.19489279901E+01
 0.22652125876E+01 0.28169057904E+01 0.36568385693E+01 0.48704503904E+01 0.65442641768E+01
 0.86835120990E+01 0.11148823729E+02 0.13675844787E+02 0.15861433562E+02 0.17324163779E+02
 0.17835932202E+02 0.17327279477E+02 0.15864166289E+02 0.13675389567E+02 0.11146085387E+02
 0.86814801586E+01 0.65444121109E+01 0.48717209508E+01 0.36576719587E+01 0.21415620927E+01
 0.17628940648E+01 0.15786552528E+01 0.15781301993E+01 0.17621239680E+01 0.21416875846E+01
 0.27459486162E+01 0.36303064587E+01 0.48705722913E+01 0.65263414052E+01 0.85705371323E+01
 0.10835606881E+02 0.13045998984E+02 0.14828169242E+02 0.15825382817E+02 0.15826292768E+02
 0.14829627902E+02 0.13045970549E+02 0.10834097429E+02 0.85694951760E+01 0.65269252222E+01
 0.48717209508E+01 0.36304754189E+01 0.27452918466E+01 0.16734180150E+01 0.14281466360E+01
 0.13478892139E+01 0.14279424682E+01 0.16734001052E+01 0.21014315296E+01 0.27459266490E+01
 0.36578115689E+01 0.48922174071E+01 0.64735733779E+01 0.83422584694E+01 0.10313160235E+02
 0.12096776864E+02 0.13359069211E+02 0.13816293539E+02 0.13357484046E+02 0.12094972787E+02
 0.10312559081E+02 0.83431082843E+01 0.64749510247E+01 0.48930229608E+01 0.36576719587E+01
 0.27452918466E+01 0.21009865034E+01 0.11670441126E+01 0.11083431081E+01 0.11669436460E+01
 0.13480821705E+01 0.16659829499E+01 0.21415983434E+01 0.27996757927E+01 0.36615660704E+01
 0.47292298092E+01 0.59608047827E+01 0.72472426711E+01 0.84086443321E+01 0.92286722245E+01
 0.95258072170E+01 0.92286768783E+01 0.84086251911E+01 0.72471543896E+01 0.59606723377E+01
 0.47291760584E+01 0.36616463990E+01 0.27997573651E+01 0.21415458393E+01 0.16658833565E+01
 0.13481034624E+01 0.11083431081E+01 0.11084517092E+01 0.12093248950E+01 0.14216372980E+01
 0.17621702070E+01 0.22485912944E+01 0.28951122971E+01 0.37049405170E+01 0.46561921177E+01
 0.56847836713E+01 0.66750531939E+01 0.74716775220E+01 0.79196013387E+01 0.79200695800E+01
 0.74725842883E+01 0.66753903810E+01 0.56840398647E+01 0.46548937718E+01 0.37041403828E+01
 0.28953528084E+01 0.22494709781E+01 0.17629011149E+01 0.14218317202E+01 0.12091747237E+01
 0.11669436460E+01 0.12093248950E+01 0.13420352862E+01 0.15786392413E+01 0.19341679251E+01
 0.24198232502E+01 0.30387388979E+01 0.37787815878E+01 0.46012095642E+01 0.54309365067E+01
 0.61585900440E+01 0.66617592560E+01 0.68420747249E+01 0.66616915233E+01 0.61585381099E+01
 0.54309481086E+01 0.46012494277E+01 0.37788118495E+01 0.30387740849E+01 0.24198810564E+01
 0.19342243540E+01 0.15786639941E+01 0.13420327371E+01 0.12093175327E+01 0.13480821705E+01
 0.14216372980E+01 0.15786392413E+01 0.18320538614E+01 0.21919224617E+01 0.26617683341E+01
 0.32354930178E+01 0.38908872821E+01 0.45806660366E+01 0.52285995671E+01 0.57392021316E+01
 0.60221014010E+01 0.60218740446E+01 0.57386196027E+01 0.52280613440E+01 0.45807948196E+01
 0.38919207201E+01 0.32367702308E+01 0.26622053435E+01 0.21911596623E+01 0.18308868988E+01
 0.15781056838E+01 0.14218593573E+01 0.13483150248E+01 0.16659829499E+01 0.17621702070E+01
 0.19341679251E+01 0.21919224617E+01 0.25399038967E+01 0.29751381451E+01 0.34854293977E+01
 0.40437745942E+01 0.46011525160E+01 0.50864788144E+01 0.54204464050E+01 0.55398626309E+01
 0.54205282358E+01 0.50865570267E+01 0.46011703213E+01 0.40437554588E+01 0.34854117221E+01
 0.29751229683E+01 0.25398802819E+01 0.21918895612E+01 0.19341185141E+01 0.17620999021E+01
 0.16659240821E+01 0.16353444770E+01 0.21415983434E+01 0.22485912944E+01 0.24198232502E+01
 0.26617683341E+01 0.29751381451E+01 0.33534432995E+01 0.37816174902E+01 0.42313995252E+01
 0.46561822486E+01 0.49937866230E+01 0.51821788091E+01 0.51822307015E+01 0.49940619709E+01
 0.46566765021E+01 0.42315827055E+01 0.37809194890E+01 0.33521506597E+01 0.29743463672E+01
 0.26622009866E+01 0.24209873320E+01 0.22494138866E+01 0.21416992197E+01 0.20905301963E+01
 0.20906300044E+01 0.27996757927E+01 0.28951122971E+01 0.30387388979E+01 0.32354930178E+01
 0.34854293977E+01 0.37816174902E+01 0.41083062400E+01 0.44379288117E+01 0.47292555516E+01
 0.49327949143E+01 0.50062086352E+01 0.49326477043E+01 0.47290431958E+01 0.44377661027E+01
 0.41082626813E+01 0.37816704341E+01 0.34855011215E+01 0.32355381982E+01 0.30387839606E+01
 0.28952041197E+01 0.27998069024E+01 0.27459562249E+01 0.27285732847E+01 0.27458563467E+01
 0.36615660704E+01 0.37049405170E+01 0.37787815878E+01 0.38908872821E+01 0.40437745942E+01
 0.42313995252E+01 0.44379288117E+01 0.46382769398E+01 0.48004627644E+01 0.48921786908E+01
 0.48921559714E+01 0.48002270055E+01 0.46377310795E+01 0.44375373786E+01 0.42317928857E+01
 0.40448887423E+01 0.38918703526E+01 0.37788592798E+01 0.37041486803E+01 0.36605455680E+01
 0.36386905797E+01 0.36302747484E+01 0.36305027842E+01 0.36393904844E+01 0.47292298092E+01
 0.46561921177E+01 0.46012095642E+01 0.45806660366E+01 0.46011525160E+01 0.46561822486E+01
 0.47292555516E+01 0.48004627644E+01 0.48518145083E+01 0.48705459272E+01 0.48518837344E+01
 0.48005099215E+01 0.47292832229E+01 0.46562662940E+01 0.46012486512E+01 0.45806513445E+01
 0.46011021373E+01 0.46561125138E+01 0.47291691757E+01 0.48003755766E+01 0.48517650299E+01
 0.48705564528E+01 0.48519223638E+01 0.48005150668E+01 0.59608047827E+01 0.56847836713E+01
 0.54309365067E+01 0.52285995671E+01 0.50864788144E+01 0.49937866230E+01 0.49327949143E+01
 0.48921786908E+01 0.48705459272E+01 0.48705342167E+01 0.48922107116E+01 0.49330096661E+01
 0.49941460629E+01 0.50865561310E+01 0.52279399933E+01 0.54297785256E+01 0.56840720955E+01
 0.59612299682E+01 0.62197852480E+01 0.64188919422E+01 0.65268812040E+01 0.65264050652E+01
 0.64176763195E+01 0.62185185127E+01 0.72472426711E+01 0.66750531939E+01 0.61585900440E+01
 0.57392021316E+01 0.54204464050E+01 0.51821788091E+01 0.50062086352E+01 0.48921559714E+01
 0.48518837344E+01 0.48922107116E+01 0.50061285882E+01 0.51820117268E+01 0.54204172170E+01
 0.57392521288E+01 0.61584789689E+01 0.66748795770E+01 0.72473314872E+01 0.78042975031E+01
 0.82668460323E+01 0.85706009936E+01 0.86762238168E+01 0.85706499740E+01 0.82666881742E+01
 0.78039926909E+01 0.84086443321E+01 0.74716775220E+01 0.66617592560E+01 0.60221014010E+01
 0.55398626309E+01 0.51822307015E+01 0.49326477043E+01 0.48002270055E+01 0.48005099215E+01
 0.49330096661E+01 0.51820117268E+01 0.55392856245E+01 0.60219268321E+01 0.66622976917E+01
 0.74726278897E+01 0.84094712705E+01 0.93670709532E+01 0.10210833813E+02 0.10834025304E+02
 0.11165437706E+02 0.11166265196E+02 0.10835706517E+02 0.10211933483E+02 0.93670063115E+01
 0.92286722245E+01 0.79196013387E+01 0.68420747249E+01 0.60218740446E+01 0.54205282358E+01
 0.49940619709E+01 0.47290431958E+01 0.46377310795E+01 0.47292832229E+01 0.49941460629E+01
 0.54204172170E+01 0.60219268321E+01 0.68423297213E+01 0.79197199002E+01 0.92286061579E+01
 0.10641375729E+02 0.11969223625E+02 0.13045898182E+02 0.13738836263E+02 0.13976466766E+02
 0.13739154752E+02 0.13046084103E+02 0.11969156881E+02 0.10641355476E+02 0.95258072170E+01
 0.79200695800E+01 0.66616915233E+01 0.57386196027E+01 0.50865570267E+01 0.46566765021E+01
 0.44377661027E+01 0.44375373786E+01 0.46562662940E+01 0.50865561310E+01 0.57392521288E+01
 0.66622976917E+01 0.79197199002E+01 0.95245890930E+01 0.11361253290E+02 0.13210922949E+02
 0.14829449075E+02 0.15992630673E+02 0.16585207861E+02 0.16584840543E+02 0.15991590131E+02
 0.14828246979E+02 0.13210551935E+02 0.11362125360E+02 0.92286768783E+01 0.74725842883E+01
 0.61585381099E+01 0.52280613440E+01 0.46011703213E+01 0.42315827055E+01 0.41082626813E+01
 0.42317928857E+01 0.46012486512E+01 0.52279399933E+01 0.61584789689E+01 0.74726278897E+01
 0.92286061579E+01 0.11361253290E+02 0.13660226726E+02 0.15825528870E+02 0.17517787754E+02
 0.18539113954E+02 0.18871328867E+02 0.18539314969E+02 0.17517846520E+02 0.15825397679E+02
 0.13660207646E+02 0.11361405560E+02 0.84086251911E+01 0.66753903810E+01 0.54309481086E+01
 0.45807948196E+01 0.40437554588E+01 0.37809194890E+01 0.37816704341E+01 0.40448887423E+01
 0.45806513445E+01 0.54297785256E+01 0.66748795770E+01 0.84094712705E+01 0.10641375729E+02
 0.13210922949E+02 0.15825528870E+02 0.18053781288E+02 0.19560349589E+02 0.20275389791E+02
 0.20275633505E+02 0.19561054116E+02 0.18054749788E+02 0.15826201538E+02 0.13210627663E+02
 0.10640202346E+02 0.72471543896E+01 0.56840398647E+01 0.46012494277E+01 0.38919207201E+01
 0.34854117221E+01 0.33521506597E+01 0.34855011215E+01 0.38918703526E+01 0.46011021373E+01
 0.56840720955E+01 0.72473314872E+01 0.93670709532E+01 0.11969223625E+02 0.14829449075E+02
 0.17517787754E+02 0.19560349589E+02 0.20736390568E+02 0.21103411904E+02 0.20736433151E+02
 0.19560250067E+02 0.17517622863E+02 0.14829483915E+02 0.11969395436E+02 0.93670636247E+01
 0.59606723377E+01 0.46548937718E+01 0.37788118495E+01 0.32367702308E+01 0.29751229683E+01
 0.29743463672E+01 0.32355381982E+01 0.37788592798E+01 0.46561125138E+01 0.59612299682E+01
 0.78042975031E+01 0.10210833813E+02 0.13045898182E+02 0.15992630673E+02 0.18539113954E+02
 0.20275389791E+02 0.21103411904E+02 0.21103765302E+02 0.20275637437E+02 0.18538230024E+02
 0.15991322594E+02 0.13045850477E+02 0.10212225374E+02 0.78053651174E+01 0.47291760584E+01
 0.37041403828E+01 0.30387740849E+01 0.26622053435E+01 0.25398802819E+01 0.26622009866E+01
 0.30387839606E+01 0.37041486803E+01 0.47291691757E+01 0.62197852480E+01 0.82668460323E+01
 0.10834025304E+02 0.13738836263E+02 0.16585207861E+02 0.18871328867E+02 0.20275633505E+02
 0.20736433151E+02 0.20275637437E+02 0.18871446121E+02 0.16585422824E+02 0.13738977422E+02
 0.10834007437E+02 0.82667714347E+01 0.62197606796E+01 0.36616463990E+01 0.28953528084E+01
 0.24198810564E+01 0.21911596623E+01 0.21918895612E+01 0.24209873320E+01 0.28952041197E+01
 0.36605455680E+01 0.48003755766E+01 0.64188919422E+01 0.85706009936E+01 0.11165437706E+02
 0.13976466766E+02 0.16584840543E+02 0.18539314969E+02 0.19561054116E+02 0.19560250067E+02
 0.18538230024E+02 0.16585422824E+02 0.13978270326E+02 0.11166177263E+02 0.85694240960E+01
 0.64175200782E+01 0.48005555502E+01 0.27997573651E+01 0.22494709781E+01 0.19342243540E+01
 0.18308868988E+01 0.19341185141E+01 0.22494138866E+01 0.27998069024E+01 0.36386905797E+01
 0.48517650299E+01 0.65268812040E+01 0.86762238168E+01 0.11166265196E+02 0.13739154752E+02
 0.15991590131E+02 0.17517846520E+02 0.18054749788E+02 0.17517622863E+02 0.15991322594E+02
 0.13738977422E+02 0.11166177263E+02 0.86762014179E+01 0.65269129710E+01 0.48517852955E+01
 0.36386404736E+01 0.21415458393E+01 0.17629011149E+01 0.15786639941E+01 0.15781056838E+01
 0.17620999021E+01 0.21416992197E+01 0.27459562249E+01 0.36302747484E+01 0.48705564528E+01
 0.65264050652E+01 0.85706499740E+01 0.10835706517E+02 0.13046084103E+02 0.14828246979E+02
 0.15825397679E+02 0.15826201538E+02 0.14829483915E+02 0.13045850477E+02 0.10834007437E+02
 0.85694240960E+01 0.65269129710E+01 0.48717865536E+01 0.36305486335E+01 0.27453051341E+01
 0.16658833565E+01 0.14218317202E+01 0.13420327371E+01 0.14218593573E+01 0.16659240821E+01
 0.20905301963E+01 0.27285732847E+01 0.36305027842E+01 0.48519223638E+01 0.64176763195E+01
 0.82666881742E+01 0.10211933483E+02 0.11969156881E+02 0.13210551935E+02 0.13660207646E+02
 0.13210627663E+02 0.11969395436E+02 0.10212225374E+02 0.82667714347E+01 0.64175200782E+01
 0.48517852955E+01 0.36305486335E+01 0.27286826803E+01 0.20905534861E+01 0.13481034624E+01
 0.12091747237E+01 0.12093175327E+01 0.13483150248E+01 0.16353444770E+01 0.20906300044E+01
 0.27458563467E+01 0.36393904844E+01 0.48005150668E+01 0.62185185127E+01 0.78039926909E+01
 0.93670063115E+01 0.10641355476E+02 0.11362125360E+02 0.11361405560E+02 0.10640202346E+02
 0.93670636247E+01 0.78053651174E+01 0.62197606796E+01 0.48005555502E+01 0.36386404736E+01
 0.27453051341E+01 0.20905534861E+01 0.16353203066E+01 0.10470214043E+01 0.10470114792E+01
 0.11442598679E+01 0.13480372438E+01 0.16734182565E+01 0.21372069432E+01 0.27537393882E+01
 0.35271931408E+01 0.44378889708E+01 0.54255835325E+01 0.63794943084E+01 0.71488386654E+01
 0.75818499059E+01 0.75817941545E+01 0.71488495801E+01 0.63797885155E+01 0.54259899072E+01
 0.44380162006E+01 0.35269316805E+01 0.27533570049E+01 0.21369824079E+01 0.16733831890E+01
 0.13480766119E+01 0.11442922202E+01 0.10470114792E+01 0.10864534585E+01 0.12093249338E+01
 0.14278480081E+01 0.17561563816E+01 0.22054333634E+01 0.27793560447E+01 0.34667922656E+01
 0.42314223510E+01 0.50033052248E+01 0.56808468041E+01 0.61499682730E+01 0.63184020604E+01
 0.61503089073E+01 0.56811252708E+01 0.50030729365E+01 0.42306593562E+01 0.34660300762E+01
 0.27792067567E+01 0.22059719377E+01 0.17568637114E+01 0.14281695619E+01 0.12091829598E+01
 0.10862040969E+01 0.11442598679E+01 0.12093249338E+01 0.13479090612E+01 0.15723634924E+01
 0.18933260251E+01 0.23154313285E+01 0.28330832100E+01 0.34242445863E+01 0.40438284065E+01
 0.46224105094E+01 0.50758911558E+01 0.53262884863E+01 0.53262824861E+01 0.50758694078E+01
 0.46223654375E+01 0.40437682239E+01 0.34242123022E+01 0.28331256830E+01 0.23155361193E+01
 0.18934211943E+01 0.15723977525E+01 0.13479005329E+01 0.12093148374E+01 0.11442582830E+01
 0.13480372438E+01 0.14278480081E+01 0.15723634924E+01 0.17919567599E+01 0.20926592795E+01
 0.24730288973E+01 0.29209392520E+01 0.34089460876E+01 0.38908614729E+01 0.43049808765E+01
 0.45866652767E+01 0.46865424723E+01 0.45862684711E+01 0.43045938500E+01 0.38909791167E+01
 0.34096864276E+01 0.29218335015E+01 0.24733798330E+01 0.20922032561E+01 0.17911308323E+01
 0.15718523247E+01 0.14278994121E+01 0.13482948622E+01 0.13229640928E+01 0.16734182565E+01
 0.17561563816E+01 0.18933260251E+01 0.20926592795E+01 0.23561105339E+01 0.26780448731E+01
 0.30433328874E+01 0.34241832358E+01 0.37787132322E+01 0.40560805373E+01 0.42090726161E+01
 0.42090890370E+01 0.40561192078E+01 0.37787645885E+01 0.34242494940E+01 0.30433895124E+01
 0.26780381750E+01 0.23560292404E+01 0.20925627836E+01 0.18932660656E+01 0.17561190105E+01
 0.16733787907E+01 0.16353496595E+01 0.16353703397E+01 0.21372069432E+01 0.22054333634E+01
 0.23154313285E+01 0.24730288973E+01 0.26780448731E+01 0.29235154456E+01 0.31946678926E+01
 0.34667854646E+01 0.37049401349E+01 0.38697160748E+01 0.39289851892E+01 0.38701297715E+01
 0.37053596634E+01 0.34667216790E+01 0.31939719430E+01 0.29225708421E+01 0.26775199412E+01
 0.24733140377E+01 0.23162577925E+01 0.22061249783E+01 0.21373682578E+01 0.21014688321E+01
 0.20906614483E+01 0.21016060212E+01 0.27537393882E+01 0.27793560447E+01 0.28330832100E+01
 0.29209392520E+01 0.30433328874E+01 0.31946678926E+01 0.33626547342E+01 0.35272452862E+01
 0.36615968059E+01 0.37380107158E+01 0.37381643111E+01 0.36617578917E+01 0.35269687714E+01
 0.33620304208E+01 0.31942353881E+01 0.30434053300E+01 0.29213045693E+01 0.28333826268E+01
 0.27795007585E+01 0.27538559785E+01 0.27462900237E+01 0.27459437549E+01 0.27458732100E+01
 0.27461488638E+01 0.35271931408E+01 0.34667922656E+01 0.34242445863E+01 0.34089460876E+01
 0.34241832358E+01 0.34667854646E+01 0.35272452862E+01 0.35906775186E+01 0.36393503090E+01
 0.36577859168E+01 0.36393642155E+01 0.35901459618E+01 0.35262373601E+01 0.34663214701E+01
 0.34249654061E+01 0.34103191929E+01 0.34249263785E+01 0.34663491837E+01 0.35263216831E+01
 0.35901657572E+01 0.36393161469E+01 0.36577851466E+01 0.36394029780E+01 0.35906767608E+01
 0.44378889708E+01 0.42314223510E+01 0.40438284065E+01 0.38908614729E+01 0.37787132322E+01
 0.37049401349E+01 0.36615968059E+01 0.36393503090E+01 0.36304486089E+01 0.36303335546E+01
 0.36388200971E+01 0.36606091286E+01 0.37041532140E+01 0.37788946455E+01 0.38918920496E+01
 0.40447932539E+01 0.42316380592E+01 0.44374614518E+01 0.46377221658E+01 0.48001904973E+01
 0.48921296305E+01 0.48922546675E+01 0.48005749213E+01 0.46382946948E+01 0.54255835325E+01
 0.50033052248E+01 0.46224105094E+01 0.43049808765E+01 0.40560805373E+01 0.38697160748E+01
 0.37380107158E+01 0.36577859168E+01 0.36303335546E+01 0.36569894645E+01 0.37367874439E+01
 0.38688599353E+01 0.40562366783E+01 0.43058589747E+01 0.46230378603E+01 0.50031836617E+01
 0.54251707624E+01 0.58489996092E+01 0.62189900766E+01 0.64740970146E+01 0.65652928239E+01
 0.64737222433E+01 0.62186113883E+01 0.58490468873E+01 0.63794943084E+01 0.56808468041E+01
 0.50758911558E+01 0.45866652767E+01 0.42090726161E+01 0.39289851892E+01 0.37381643111E+01
 0.36393642155E+01 0.36388200971E+01 0.37367874439E+01 0.39276805159E+01 0.42090418520E+01
 0.45881341894E+01 0.50775360874E+01 0.56811547356E+01 0.63784479374E+01 0.71148212116E+01
 0.78037752415E+01 0.83427947428E+01 0.86395350919E+01 0.86392765703E+01 0.83424076265E+01
 0.78040392815E+01 0.71159509695E+01 0.71488386654E+01 0.61499682730E+01 0.53262884863E+01
 0.46865424723E+01 0.42090890370E+01 0.38701297715E+01 0.36617578917E+01 0.35901459618E+01
 0.36606091286E+01 0.38688599353E+01 0.42090418520E+01 0.46881086356E+01 0.53283142766E+01
 0.61508804034E+01 0.71482531906E+01 0.82596281416E+01 0.93658082791E+01 0.10312283297E+02
 0.10953375117E+02 0.11181208643E+02 0.10953976439E+02 0.10313217111E+02 0.93669770736E+01
 0.82608846717E+01 0.75818499059E+01 0.63184020604E+01 0.53262824861E+01 0.45862684711E+01
 0.40561192078E+01 0.37053596634E+01 0.35269687714E+01 0.35262373601E+01 0.37041532140E+01
 0.40562366783E+01 0.45881341894E+01 0.53283142766E+01 0.63188072684E+01 0.75806505209E+01
 0.90679905349E+01 0.10640755194E+02 0.12096563454E+02 0.13228302203E+02 0.13849222317E+02
 0.13849492498E+02 0.13228724360E+02 0.12096780756E+02 0.10641290065E+02 0.90693060938E+01
 0.75817941545E+01 0.61503089073E+01 0.50758694078E+01 0.43045938500E+01 0.37787645885E+01
 0.34667216790E+01 0.33620304208E+01 0.34663214701E+01 0.37788946455E+01 0.43058589747E+01
 0.50775360874E+01 0.61508804034E+01 0.75806505209E+01 0.93599606054E+01 0.11360985838E+02
 0.13359322620E+02 0.15081744021E+02 0.16246734614E+02 0.16657434309E+02 0.16246041678E+02
 0.15080807923E+02 0.13359045115E+02 0.11362039014E+02 0.93618218561E+01 0.71488495801E+01
 0.56811252708E+01 0.46223654375E+01 0.38909791167E+01 0.34242494940E+01 0.31939719430E+01
 0.31942353881E+01 0.34249654061E+01 0.38918920496E+01 0.46230378603E+01 0.56811547356E+01
 0.71482531906E+01 0.90679905349E+01 0.11360985838E+02 0.13816205044E+02 0.16125072636E+02
 0.17914640961E+02 0.18885176746E+02 0.18885405377E+02 0.17915025009E+02 0.16125186031E+02
 0.13816170038E+02 0.11361278527E+02 0.90686901055E+01 0.63797885155E+01 0.50030729365E+01
 0.40437682239E+01 0.34096864276E+01 0.30433895124E+01 0.29225708421E+01 0.30434053300E+01
 0.34103191929E+01 0.40447932539E+01 0.50031836617E+01 0.63784479374E+01 0.82596281416E+01
 0.10640755194E+02 0.13359322620E+02 0.16125072636E+02 0.18510464817E+02 0.20108898001E+02
 0.20669017153E+02 0.20111428531E+02 0.18512449010E+02 0.16124359353E+02 0.13357253709E+02
 0.10640066998E+02 0.82608918654E+01 0.54259899072E+01 0.42306593562E+01 0.34242123022E+01
 0.29218335015E+01 0.26780381750E+01 0.26775199412E+01 0.29213045693E+01 0.34249263785E+01
 0.42316380592E+01 0.54251707624E+01 0.71148212116E+01 0.93658082791E+01 0.12096563454E+02
 0.15081744021E+02 0.17914640961E+02 0.20108898001E+02 0.21294361553E+02 0.21295487325E+02
 0.20110474983E+02 0.17913852755E+02 0.15078860281E+02 0.12094768841E+02 0.93669988248E+01
 0.71172351192E+01 0.44380162006E+01 0.34660300762E+01 0.28331256830E+01 0.24733798330E+01
 0.23560292404E+01 0.24733140377E+01 0.28333826268E+01 0.34663491837E+01 0.44374614518E+01
 0.58489996092E+01 0.78037752415E+01 0.10312283297E+02 0.13228302203E+02 0.16246734614E+02
 0.18885176746E+02 0.20669017153E+02 0.21295487325E+02 0.20668124652E+02 0.18883461526E+02
 0.16244661104E+02 0.13226888023E+02 0.10312475548E+02 0.78053900636E+01 0.58506607917E+01
 0.35269316805E+01 0.27792067567E+01 0.23155361193E+01 0.20922032561E+01 0.20925627836E+01
 0.23162577925E+01 0.27795007585E+01 0.35263216831E+01 0.46377221658E+01 0.62189900766E+01
 0.83427947428E+01 0.10953375117E+02 0.13849222317E+02 0.16657434309E+02 0.18885405377E+02
 0.20111428531E+02 0.20110474983E+02 0.18883461526E+02 0.16656040821E+02 0.13848794697E+02
 0.10953396923E+02 0.83430955605E+01 0.62198230068E+01 0.46388423726E+01 0.27533570049E+01
 0.22059719377E+01 0.18934211943E+01 0.17911308323E+01 0.18932660656E+01 0.22061249783E+01
 0.27538559785E+01 0.35901657572E+01 0.48001904973E+01 0.64740970146E+01 0.86395350919E+01
 0.11181208643E+02 0.13849492498E+02 0.16246041678E+02 0.17915025009E+02 0.18512449010E+02
 0.17913852755E+02 0.16244661104E+02 0.13848794697E+02 0.11181375075E+02 0.86402827643E+01
 0.64749657282E+01 0.48006263811E+01 0.35899205783E+01 0.21369824079E+01 0.17568637114E+01
 0.15723977525E+01 0.15718523247E+01 0.17561190105E+01 0.21373682578E+01 0.27462900237E+01
 0.36393161469E+01 0.48921296305E+01 0.65652928239E+01 0.86392765703E+01 0.10953976439E+02
 0.13228724360E+02 0.15080807923E+02 0.16125186031E+02 0.16124359353E+02 0.15078860281E+02
 0.13226888023E+02 0.10953396923E+02 0.86402827643E+01 0.65670456474E+01 0.48931115454E+01
 0.36387286323E+01 0.27450179588E+01 0.16733831890E+01 0.14281695619E+01 0.13479005329E+01
 0.14278994121E+01 0.16733787907E+01 0.21014688321E+01 0.27459437549E+01 0.36577851466E+01
 0.48922546675E+01 0.64737222433E+01 0.83424076265E+01 0.10313217111E+02 0.12096780756E+02
 0.13359045115E+02 0.13816170038E+02 0.13357253709E+02 0.12094768841E+02 0.10312475548E+02
 0.83430955605E+01 0.64749657282E+01 0.48931115454E+01 0.36578230386E+01 0.27453808393E+01
 0.21009621947E+01 0.13480766119E+01 0.12091829598E+01 0.12093148374E+01 0.13482948622E+01
 0.16353496595E+01 0.20906614483E+01 0.27458732100E+01 0.36394029780E+01 0.48005749213E+01
 0.62186113883E+01 0.78040392815E+01 0.93669770736E+01 0.10641290065E+02 0.11362039014E+02
 0.11361278527E+02 0.10640066998E+02 0.93669988248E+01 0.78053900636E+01 0.62198230068E+01
 0.48006263811E+01 0.36387286323E+01 0.27453808393E+01 0.20905612986E+01 0.16352748698E+01
 0.11442922202E+01 0.10862040969E+01 0.11442582830E+01 0.13229640928E+01 0.16353703397E+01
 0.21016060212E+01 0.27461488638E+01 0.35906767608E+01 0.46382946948E+01 0.58490468873E+01
 0.71159509695E+01 0.82608846717E+01 0.90693060938E+01 0.93618218561E+01 0.90686901055E+01
 0.82608918654E+01 0.71172351192E+01 0.58506607917E+01 0.46388423726E+01 0.35899205783E+01
 0.27450179588E+01 0.21009621947E+01 0.16352748698E+01 0.13230420740E+01  
augmentation occupancies   1  33
  0.2162402E+01 -0.1925623E+01 -0.3147484E-24  0.0000000E+00  0.0000000E+00
  0.0000000E+00  0.0000000E+00  0.0000000E+00  0.4518117E+00  0.3842485E-19
 -0.1524173E-19  0.1523984E-19 -0.7693693E-20 -0.5107896E-20 -0.3458741E-19
  0.1343327E+01  0.0000000E+00  0.0000000E+00  0.2508470E-17  0.0000000E+00
  0.2753005E-17  0.2321743E+00  0.0000000E+00  0.9521516E-19  0.6370261E-18
  0.0000000E+00 -0.3368491E-19  0.1119046E-01  0.2635571E-20  0.1678264E-19
 -0.1130164E-17 -0.6979243E-20 -0.2916694E-20
augmentation occupancies   2  33
  0.2162402E+01 -0.1925623E+01  0.3147484E-24  0.1573742E-24  0.1573742E-24
  0.0000000E+00  0.0000000E+00  0.0000000E+00  0.4518117E+00 -0.1262760E-19
 -0.5096893E-20  0.5098786E-20  0.1618008E-19  0.1489488E-19  0.1747600E-19
  0.1343327E+01  0.0000000E+00  0.0000000E+00 -0.9316498E-17  0.0000000E+00
 -0.1401108E-16  0.2321743E+00  0.0000000E+00  0.5052253E-20 -0.3441792E-18
  0.0000000E+00  0.6195393E-18  0.1119046E-01 -0.3484725E-20  0.1057313E-19
 -0.8759082E-19  0.2908595E-20 -0.2335092E-19
