C
   1.0
     0.0000000000000000    3.5668001199999999    3.5668001199999999
     3.5668001199999999    0.0000000000000000    3.5668001199999999
     3.5668001199999999    3.5668001199999999    0.0000000000000000
C
  16
Direct
  0.3750000000000000  0.3750000000000000  0.3750000000000000
  0.8750000000000000  0.3750000000000000  0.3750000000000000
  0.3750000000000000  0.8750000000000000  0.3750000000000000
  0.8750000000000000  0.8750000000000000  0.3750000000000000
  0.3750000000000000  0.3750000000000000  0.8750000000000000
  0.8750000000000000  0.3750000000000000  0.8750000000000000
  0.3750000000000000  0.8750000000000000  0.8750000000000000
  0.8750000000000000  0.8750000000000000  0.8750000000000000
  0.2500000000000000  0.2500000000000000  0.2500000000000000
  0.7500000000000000  0.2500000000000000  0.2500000000000000
  0.2500000000000000  0.7500000000000000  0.2500000000000000
  0.7500000000000000  0.7500000000000000  0.2500000000000000
  0.2500000000000000  0.2500000000000000  0.7500000000000000
  0.7500000000000000  0.2500000000000000  0.7500000000000000
  0.2500000000000000  0.7500000000000000  0.7500000000000000
  0.7500000000000000  0.7500000000000000  0.7500000000000000
