Wencai
1.00000000
   18.2794582058591679    0.0000000000000000    0.0000000000000000
  -15.6028034743862118    9.5231883337164813    0.0000000000000000
    0.0000000000000000    0.0000000000000000   27.1161186617284500
 P
 96
Direct
  0.8483333314999998  0.8258333342499998  0.4446823485797363
  0.0149999981666666  0.7425000009166667  0.4446823485797363
  0.1816666648333332  0.6591666675833332  0.4446823485797363
  0.3483333314999998  0.5758333342499999  0.4446823485797363
  0.5149999981666666  0.4925000009166667  0.4446823485797363
  0.6816666648333334  0.4091666675833334  0.4446823485797363
  0.8483333315000001  0.3258333342500002  0.4446823485797363
  0.0149999981666669  0.2425000009166668  0.4446823485797363
  0.1816666648333335  0.1591666675833334  0.4446823485797363
  0.3483333315000000  0.0758333342500000  0.4446823485797363
  0.5149999981666666  0.9925000009166667  0.4446823485797363
  0.6816666648333332  0.9091666675833332  0.4446823485797363
  0.7649999981666666  0.6175000009166668  0.3687843428017575
  0.9316666648333333  0.5341666675833335  0.3687843428017575
  0.0983333314999999  0.4508333342500001  0.3687843428017575
  0.2649999981666666  0.3675000009166667  0.3687843428017575
  0.4316666648333334  0.2841666675833335  0.3687843428017575
  0.5983333315000001  0.2008333342500001  0.3687843428017575
  0.7649999981666668  0.1175000009166667  0.3687843428017575
  0.9316666648333334  0.0341666675833334  0.3687843428017575
  0.0983333315000001  0.9508333342499999  0.3687843428017575
  0.2649999981666666  0.8675000009166668  0.3687843428017575
  0.4316666648333332  0.7841666675833334  0.3687843428017575
  0.5983333314999999  0.7008333342500002  0.3687843428017575
  0.7350000018333332  0.6324999990833333  0.4446823485797363
  0.9016666684999999  0.5491666657500001  0.4446823485797363
  0.0683333351666666  0.4658333324166667  0.4446823485797363
  0.2350000018333334  0.3824999990833334  0.4446823485797363
  0.4016666685000002  0.2991666657500002  0.4446823485797363
  0.5683333351666667  0.2158333324166667  0.4446823485797363
  0.7350000018333334  0.1324999990833333  0.4446823485797363
  0.9016666685000001  0.0491666657500001  0.4446823485797363
  0.0683333351666666  0.9658333324166665  0.4446823485797363
  0.2350000018333334  0.8824999990833333  0.4446823485797363
  0.4016666684999999  0.7991666657499999  0.4446823485797363
  0.5683333351666667  0.7158333324166667  0.4446823485797363
  0.9850000018333332  0.7574999990833333  0.3687843428017575
  0.1516666685000000  0.6741666657499999  0.3687843428017575
  0.3183333351666666  0.5908333324166667  0.3687843428017575
  0.4850000018333334  0.5074999990833334  0.3687843428017575
  0.6516666685000000  0.4241666657499999  0.3687843428017575
  0.8183333351666667  0.3408333324166667  0.3687843428017575
  0.9850000018333334  0.2574999990833333  0.3687843428017575
  0.1516666685000001  0.1741666657500001  0.3687843428017575
  0.3183333351666667  0.0908333324166667  0.3687843428017575
  0.4850000018333334  0.0074999990833333  0.3687843428017575
  0.6516666685000000  0.9241666657499999  0.3687843428017575
  0.8183333351666667  0.8408333324166668  0.3687843428017575
  0.1741666657499999  0.1516666685000000  0.6312156571982424
  0.2574999990833333  0.9850000018333334  0.6312156571982424
  0.3408333324166666  0.8183333351666666  0.6312156571982424
  0.4241666657499998  0.6516666685000000  0.6312156571982424
  0.5074999990833332  0.4850000018333333  0.6312156571982424
  0.5908333324166668  0.3183333351666667  0.6312156571982424
  0.6741666657500002  0.1516666685000001  0.6312156571982424
  0.7574999990833333  0.9850000018333334  0.6312156571982424
  0.8408333324166667  0.8183333351666668  0.6312156571982424
  0.9241666657500001  0.6516666685000001  0.6312156571982424
  0.0074999990833332  0.4850000018333333  0.6312156571982424
  0.0908333324166667  0.3183333351666667  0.6312156571982424
  0.0491666657500001  0.9016666685000000  0.5553176514202636
  0.1324999990833332  0.7350000018333334  0.5553176514202636
  0.2158333324166666  0.5683333351666667  0.5553176514202636
  0.2991666657500001  0.4016666685000001  0.5553176514202636
  0.3824999990833333  0.2350000018333334  0.5553176514202636
  0.4658333324166666  0.0683333351666667  0.5553176514202636
  0.5491666657500001  0.9016666685000000  0.5553176514202636
  0.6324999990833333  0.7350000018333334  0.5553176514202636
  0.7158333324166668  0.5683333351666668  0.5553176514202636
  0.7991666657500001  0.4016666685000001  0.5553176514202636
  0.8824999990833334  0.2350000018333334  0.5553176514202636
  0.9658333324166666  0.0683333351666668  0.5553176514202636
  0.0341666675833334  0.9316666648333333  0.6312156571982424
  0.1175000009166667  0.7649999981666666  0.6312156571982424
  0.2008333342500001  0.5983333315000000  0.6312156571982424
  0.2841666675833334  0.4316666648333333  0.6312156571982424
  0.3675000009166667  0.2649999981666665  0.6312156571982424
  0.4508333342500001  0.0983333315000000  0.6312156571982424
  0.5341666675833335  0.9316666648333335  0.6312156571982424
  0.6175000009166667  0.7649999981666666  0.6312156571982424
  0.7008333342500002  0.5983333315000001  0.6312156571982424
  0.7841666675833333  0.4316666648333333  0.6312156571982424
  0.8675000009166666  0.2649999981666665  0.6312156571982424
  0.9508333342500002  0.0983333315000001  0.6312156571982424
  0.2425000009166667  0.0149999981666666  0.5553176514202636
  0.3258333342499998  0.8483333314999999  0.5553176514202636
  0.4091666675833333  0.6816666648333333  0.5553176514202636
  0.4925000009166667  0.5149999981666666  0.5553176514202636
  0.5758333342499999  0.3483333315000000  0.5553176514202636
  0.6591666675833333  0.1816666648333334  0.5553176514202636
  0.7425000009166666  0.0149999981666666  0.5553176514202636
  0.8258333342500001  0.8483333315000001  0.5553176514202636
  0.9091666675833334  0.6816666648333334  0.5553176514202636
  0.9925000009166666  0.5149999981666666  0.5553176514202636
  0.0758333342500001  0.3483333315000000  0.5553176514202636
  0.1591666675833333  0.1816666648333334  0.5553176514202636
