Wencai
1.00000000
   13.1900000571999989    0.0000000000000000    0.0000000000000000
   -0.0000043104256005   13.1900000571992937    0.0000000000000000
    0.0000000000000000    0.0000000000000000   27.1161186617284500
 P
 96
Direct
  0.0299999963333333  0.1250000000000000  0.4446823485797363
  0.3633333296666666  0.1250000000000000  0.4446823485797363
  0.6966666630000000  0.1250000000000000  0.4446823485797363
  0.0299999963333333  0.3750000000000000  0.4446823485797363
  0.3633333296666666  0.3750000000000000  0.4446823485797363
  0.6966666630000000  0.3750000000000000  0.4446823485797363
  0.0299999963333333  0.6250000000000001  0.4446823485797363
  0.3633333296666666  0.6250000000000001  0.4446823485797363
  0.6966666630000000  0.6250000000000001  0.4446823485797363
  0.0299999963333333  0.8750000000000000  0.4446823485797363
  0.3633333296666666  0.8750000000000000  0.4446823485797363
  0.6966666630000000  0.8750000000000000  0.4446823485797363
  0.1966666630000000  0.0000000000000000  0.3687843428017575
  0.5299999963333333  0.0000000000000000  0.3687843428017575
  0.8633333296666666  0.0000000000000000  0.3687843428017575
  0.1966666629999999  0.2500000000000000  0.3687843428017575
  0.5299999963333333  0.2500000000000000  0.3687843428017575
  0.8633333296666666  0.2500000000000000  0.3687843428017575
  0.1966666630000000  0.4999999999999999  0.3687843428017575
  0.5299999963333333  0.4999999999999999  0.3687843428017575
  0.8633333296666666  0.4999999999999999  0.3687843428017575
  0.1966666629999999  0.7500000000000000  0.3687843428017575
  0.5299999963333333  0.7500000000000000  0.3687843428017575
  0.8633333296666666  0.7500000000000000  0.3687843428017575
  0.1366666703333335  0.0000000000000000  0.4446823485797363
  0.4700000036666667  0.0000000000000000  0.4446823485797363
  0.8033333370000001  0.0000000000000000  0.4446823485797363
  0.1366666703333335  0.2500000000000000  0.4446823485797363
  0.4700000036666667  0.2500000000000000  0.4446823485797363
  0.8033333370000001  0.2500000000000000  0.4446823485797363
  0.1366666703333335  0.5000000000000001  0.4446823485797363
  0.4700000036666667  0.5000000000000001  0.4446823485797363
  0.8033333370000001  0.5000000000000001  0.4446823485797363
  0.1366666703333335  0.7500000000000000  0.4446823485797363
  0.4700000036666667  0.7500000000000000  0.4446823485797363
  0.8033333370000001  0.7500000000000000  0.4446823485797363
  0.3033333370000000  0.1250000000000000  0.3687843428017575
  0.6366666703333335  0.1250000000000000  0.3687843428017575
  0.9700000036666666  0.1250000000000000  0.3687843428017575
  0.3033333370000001  0.3749999999999999  0.3687843428017575
  0.6366666703333335  0.3749999999999999  0.3687843428017575
  0.9700000036666666  0.3749999999999999  0.3687843428017575
  0.3033333370000000  0.6250000000000001  0.3687843428017575
  0.6366666703333335  0.6250000000000001  0.3687843428017575
  0.9700000036666666  0.6250000000000001  0.3687843428017575
  0.3033333370000000  0.8750000000000000  0.3687843428017575
  0.6366666703333335  0.8750000000000000  0.3687843428017575
  0.9700000036666666  0.8750000000000000  0.3687843428017575
  0.1250000000000000  0.0299999963333333  0.5553176514202636
  0.1250000000000000  0.3633333296666665  0.5553176514202636
  0.1250000000000000  0.6966666630000000  0.5553176514202636
  0.3749999999999999  0.0299999963333333  0.5553176514202636
  0.3749999999999999  0.3633333296666665  0.5553176514202636
  0.3749999999999999  0.6966666630000000  0.5553176514202636
  0.6250000000000001  0.0299999963333333  0.5553176514202636
  0.6250000000000001  0.3633333296666665  0.5553176514202636
  0.6250000000000001  0.6966666630000000  0.5553176514202636
  0.8750000000000000  0.0299999963333333  0.5553176514202636
  0.8750000000000000  0.3633333296666665  0.5553176514202636
  0.8750000000000000  0.6966666630000000  0.5553176514202636
 -0.0000000000000000  0.1966666629999999  0.6312156571982424
 -0.0000000000000000  0.5299999963333333  0.6312156571982424
 -0.0000000000000000  0.8633333296666666  0.6312156571982424
  0.2500000000000000  0.1966666629999999  0.6312156571982424
  0.2499999999999999  0.5299999963333333  0.6312156571982424
  0.2500000000000000  0.8633333296666666  0.6312156571982424
  0.5000000000000001  0.1966666629999999  0.6312156571982424
  0.5000000000000001  0.5299999963333333  0.6312156571982424
  0.5000000000000001  0.8633333296666666  0.6312156571982424
  0.7500000000000000  0.1966666629999999  0.6312156571982424
  0.7500000000000000  0.5299999963333333  0.6312156571982424
  0.7500000000000000  0.8633333296666666  0.6312156571982424
 -0.0000000000000000  0.1366666703333335  0.5553176514202636
 -0.0000000000000000  0.4700000036666666  0.5553176514202636
 -0.0000000000000000  0.8033333370000001  0.5553176514202636
  0.2500000000000000  0.1366666703333335  0.5553176514202636
  0.2499999999999999  0.4700000036666666  0.5553176514202636
  0.2499999999999999  0.8033333370000001  0.5553176514202636
  0.4999999999999999  0.1366666703333335  0.5553176514202636
  0.4999999999999999  0.4700000036666666  0.5553176514202636
  0.5000000000000001  0.8033333370000001  0.5553176514202636
  0.7500000000000000  0.1366666703333335  0.5553176514202636
  0.7500000000000000  0.4700000036666666  0.5553176514202636
  0.7500000000000000  0.8033333370000001  0.5553176514202636
  0.1250000000000000  0.3033333370000000  0.6312156571982424
  0.1250000000000000  0.6366666703333335  0.6312156571982424
  0.1250000000000000  0.9700000036666666  0.6312156571982424
  0.3750000000000000  0.3033333370000000  0.6312156571982424
  0.3750000000000000  0.6366666703333335  0.6312156571982424
  0.3750000000000000  0.9700000036666666  0.6312156571982424
  0.6250000000000001  0.3033333370000000  0.6312156571982424
  0.6250000000000001  0.6366666703333335  0.6312156571982424
  0.6250000000000000  0.9700000036666666  0.6312156571982424
  0.8750000000000000  0.3033333370000000  0.6312156571982424
  0.8750000000000000  0.6366666703333335  0.6312156571982424
  0.8749999999999999  0.9700000036666666  0.6312156571982424
