Wencai
1.00000000
   23.4623946069651943    0.0000000000000000    0.0000000000000000
  -17.6507954538841183   15.4574700561926743    0.0000000000000000
    0.0000000000000000    0.0000000000000000   27.1161186617284500
 P
 200
Direct
  0.9107999986800001  0.8928000008800001  0.4446823485797363
  0.0307999986800001  0.8128000008800002  0.4446823485797363
  0.1507999986799999  0.7328000008800001  0.4446823485797363
  0.2707999986800001  0.6528000008800000  0.4446823485797363
  0.3907999986800000  0.5728000008800000  0.4446823485797363
  0.5107999986800000  0.4928000008800000  0.4446823485797363
  0.6307999986799999  0.4128000008800001  0.4446823485797363
  0.7507999986799999  0.3328000008799999  0.4446823485797363
  0.8707999986799999  0.2528000008800000  0.4446823485797363
  0.9907999986799999  0.1728000008799999  0.4446823485797363
  0.1107999986800000  0.0928000008800000  0.4446823485797363
  0.2307999986800001  0.0128000008800001  0.4446823485797363
  0.3507999986799999  0.9328000008800000  0.4446823485797363
  0.4707999986800001  0.8528000008800000  0.4446823485797363
  0.5907999986799999  0.7728000008800001  0.4446823485797363
  0.7107999986800000  0.6928000008799999  0.4446823485797363
  0.8307999986799999  0.6128000008800000  0.4446823485797363
  0.9507999986800001  0.5328000008799999  0.4446823485797363
  0.0707999986799999  0.4528000008800000  0.4446823485797363
  0.1907999986799999  0.3728000008800000  0.4446823485797363
  0.3107999986800001  0.2928000008800000  0.4446823485797363
  0.4307999986800001  0.2128000008800001  0.4446823485797363
  0.5507999986800000  0.1328000008800000  0.4446823485797363
  0.6707999986799998  0.0528000008800000  0.4446823485797363
  0.7907999986799999  0.9728000008800000  0.4446823485797363
  0.8707999986799999  0.7528000008800000  0.3687843428017575
  0.9907999986799999  0.6728000008799999  0.3687843428017575
  0.1107999986799998  0.5928000008800000  0.3687843428017575
  0.2307999986800000  0.5128000008800000  0.3687843428017575
  0.3507999986799999  0.4328000008800000  0.3687843428017575
  0.4707999986799999  0.3528000008800000  0.3687843428017575
  0.5907999986799998  0.2728000008799999  0.3687843428017575
  0.7107999986799999  0.1928000008799999  0.3687843428017575
  0.8307999986799998  0.1128000008799999  0.3687843428017575
  0.9507999986800000  0.0328000008799998  0.3687843428017575
  0.0707999986799998  0.9528000008799999  0.3687843428017575
  0.1907999986800000  0.8728000008800001  0.3687843428017575
  0.3107999986800000  0.7928000008800001  0.3687843428017575
  0.4307999986800000  0.7128000008800000  0.3687843428017575
  0.5507999986800000  0.6328000008800000  0.3687843428017575
  0.6707999986800000  0.5528000008800000  0.3687843428017575
  0.7907999986799998  0.4728000008800000  0.3687843428017575
  0.9107999986799999  0.3928000008799999  0.3687843428017575
  0.0307999986799999  0.3128000008799999  0.3687843428017575
  0.1507999986799999  0.2328000008800000  0.3687843428017575
  0.2707999986799999  0.1528000008799999  0.3687843428017575
  0.3907999986799999  0.0728000008800000  0.3687843428017575
  0.5107999986799999  0.9928000008800000  0.3687843428017575
  0.6307999986799999  0.9128000008800000  0.3687843428017575
  0.7507999986799998  0.8328000008800001  0.3687843428017575
  0.8492000013199998  0.7671999991200000  0.4446823485797363
  0.9692000013199999  0.6871999991200000  0.4446823485797363
  0.0892000013199999  0.6071999991199999  0.4446823485797363
  0.2092000013199999  0.5271999991199999  0.4446823485797363
  0.3292000013200000  0.4471999991200000  0.4446823485797363
  0.4492000013199999  0.3671999991200000  0.4446823485797363
  0.5692000013199999  0.2871999991199999  0.4446823485797363
  0.6892000013199999  0.2071999991199999  0.4446823485797363
  0.8092000013200000  0.1271999991199999  0.4446823485797363
  0.9292000013199999  0.0471999991199998  0.4446823485797363
  0.0492000013200000  0.9671999991199998  0.4446823485797363
  0.1692000013199999  0.8871999991200000  0.4446823485797363
  0.2892000013200001  0.8071999991200001  0.4446823485797363
  0.4092000013200000  0.7271999991200000  0.4446823485797363
  0.5292000013200000  0.6471999991200000  0.4446823485797363
  0.6492000013200000  0.5671999991200000  0.4446823485797363
  0.7692000013200001  0.4871999991200001  0.4446823485797363
  0.8892000013200000  0.4071999991199999  0.4446823485797363
  0.0092000013200001  0.3271999991200000  0.4446823485797363
  0.1292000013200000  0.2471999991199999  0.4446823485797363
  0.2492000013200000  0.1671999991199999  0.4446823485797363
  0.3692000013200001  0.0871999991200000  0.4446823485797363
  0.4892000013200000  0.0071999991200000  0.4446823485797363
  0.6092000013200002  0.9271999991200000  0.4446823485797363
  0.7292000013200001  0.8471999991200000  0.4446823485797363
  0.0092000013200000  0.8271999991200001  0.3687843428017575
  0.1292000013200000  0.7471999991200000  0.3687843428017575
  0.2492000013199999  0.6671999991200001  0.3687843428017575
  0.3692000013200001  0.5871999991200000  0.3687843428017575
  0.4892000013200001  0.5071999991200000  0.3687843428017575
  0.6092000013200000  0.4271999991200000  0.3687843428017575
  0.7292000013200000  0.3471999991200000  0.3687843428017575
  0.8492000013200000  0.2671999991199999  0.3687843428017575
  0.9692000013199999  0.1871999991200000  0.3687843428017575
  0.0892000013199999  0.1071999991199999  0.3687843428017575
  0.2092000013199999  0.0271999991199998  0.3687843428017575
  0.3292000013200000  0.9471999991200000  0.3687843428017575
  0.4492000013199999  0.8671999991200000  0.3687843428017575
  0.5692000013200000  0.7871999991199999  0.3687843428017575
  0.6892000013199998  0.7071999991200000  0.3687843428017575
  0.8092000013199999  0.6271999991200000  0.3687843428017575
  0.9292000013199999  0.5471999991199999  0.3687843428017575
  0.0492000013200000  0.4671999991199999  0.3687843428017575
  0.1692000013200000  0.3871999991199999  0.3687843428017575
  0.2892000013199999  0.3071999991199998  0.3687843428017575
  0.4092000013200000  0.2271999991199999  0.3687843428017575
  0.5292000013199999  0.1471999991200000  0.3687843428017575
  0.6492000013200000  0.0671999991200000  0.3687843428017575
  0.7692000013200000  0.9871999991200000  0.3687843428017575
  0.8892000013200000  0.9071999991199999  0.3687843428017575
  0.8928000008799998  0.9107999986799998  0.5553176514202636
  0.8128000008799999  0.0307999986799998  0.5553176514202636
  0.7328000008799999  0.1507999986799999  0.5553176514202636
  0.6528000008800000  0.2707999986799998  0.5553176514202636
  0.5728000008799999  0.3907999986799998  0.5553176514202636
  0.4928000008800000  0.5107999986799999  0.5553176514202636
  0.4128000008800000  0.6307999986799999  0.5553176514202636
  0.3328000008800000  0.7507999986799999  0.5553176514202636
  0.2528000008799999  0.8707999986800000  0.5553176514202636
  0.1728000008800002  0.9907999986799999  0.5553176514202636
  0.0928000008800001  0.1107999986800001  0.5553176514202636
  0.0128000008799999  0.2307999986799998  0.5553176514202636
  0.9328000008799998  0.3507999986799998  0.5553176514202636
  0.8528000008800000  0.4707999986799998  0.5553176514202636
  0.7728000008799999  0.5907999986799998  0.5553176514202636
  0.6928000008799998  0.7107999986799999  0.5553176514202636
  0.6128000008799999  0.8307999986799999  0.5553176514202636
  0.5328000008800001  0.9507999986799999  0.5553176514202636
  0.4528000008799998  0.0707999986800000  0.5553176514202636
  0.3728000008800000  0.1907999986800000  0.5553176514202636
  0.2928000008799999  0.3107999986800000  0.5553176514202636
  0.2128000008799999  0.4307999986799998  0.5553176514202636
  0.1328000008799999  0.5507999986799998  0.5553176514202636
  0.0528000008799999  0.6707999986799998  0.5553176514202636
  0.9728000008799998  0.7907999986799998  0.5553176514202636
  0.7528000008799999  0.8707999986799998  0.6312156571982424
  0.6728000008799999  0.9907999986799997  0.6312156571982424
  0.5928000008799997  0.1107999986799999  0.6312156571982424
  0.5128000008799999  0.2307999986799999  0.6312156571982424
  0.4328000008799998  0.3507999986799998  0.6312156571982424
  0.3528000008800001  0.4707999986799998  0.6312156571982424
  0.2728000008799999  0.5907999986799998  0.6312156571982424
  0.1928000008799998  0.7107999986799999  0.6312156571982424
  0.1128000008799999  0.8307999986799999  0.6312156571982424
  0.0328000008800000  0.9507999986799999  0.6312156571982424
  0.9528000008799999  0.0707999986800000  0.6312156571982424
  0.8728000008799998  0.1907999986799999  0.6312156571982424
  0.7928000008799999  0.3107999986799999  0.6312156571982424
  0.7128000008799998  0.4307999986800000  0.6312156571982424
  0.6328000008800000  0.5507999986799998  0.6312156571982424
  0.5528000008799999  0.6707999986799998  0.6312156571982424
  0.4728000008800000  0.7907999986799999  0.6312156571982424
  0.3928000008799999  0.9107999986799998  0.6312156571982424
  0.3128000008800000  0.0307999986800001  0.6312156571982424
  0.2328000008800000  0.1507999986800000  0.6312156571982424
  0.1528000008800001  0.2707999986799999  0.6312156571982424
  0.0728000008799999  0.3907999986799999  0.6312156571982424
  0.9928000008800000  0.5107999986799999  0.6312156571982424
  0.9128000008800000  0.6307999986799998  0.6312156571982424
  0.8328000008800001  0.7507999986799999  0.6312156571982424
  0.7671999991199996  0.8492000013199997  0.5553176514202636
  0.6871999991199997  0.9692000013199998  0.5553176514202636
  0.6071999991199998  0.0892000013199998  0.5553176514202636
  0.5271999991199997  0.2092000013199999  0.5553176514202636
  0.4471999991199999  0.3292000013199998  0.5553176514202636
  0.3671999991199998  0.4492000013199998  0.5553176514202636
  0.2871999991199998  0.5692000013199999  0.5553176514202636
  0.2071999991200000  0.6892000013199998  0.5553176514202636
  0.1271999991199999  0.8092000013199999  0.5553176514202636
  0.0471999991199998  0.9292000013199999  0.5553176514202636
  0.9671999991200000  0.0492000013200000  0.5553176514202636
  0.8871999991200000  0.1692000013199999  0.5553176514202636
  0.8071999991199997  0.2892000013199999  0.5553176514202636
  0.7271999991199999  0.4092000013199998  0.5553176514202636
  0.6471999991199998  0.5292000013199999  0.5553176514202636
  0.5671999991199999  0.6492000013199999  0.5553176514202636
  0.4871999991199999  0.7692000013199999  0.5553176514202636
  0.4071999991199997  0.8892000013200000  0.5553176514202636
  0.3271999991200001  0.0092000013200001  0.5553176514202636
  0.2471999991200000  0.1292000013200001  0.5553176514202636
  0.1671999991200001  0.2492000013200001  0.5553176514202636
  0.0871999991199998  0.3692000013199998  0.5553176514202636
  0.0071999991199998  0.4892000013199999  0.5553176514202636
  0.9271999991199998  0.6092000013199999  0.5553176514202636
  0.8471999991200000  0.7292000013199998  0.5553176514202636
  0.8271999991199999  0.0092000013200000  0.6312156571982424
  0.7471999991199999  0.1292000013199999  0.6312156571982424
  0.6671999991199998  0.2492000013200000  0.6312156571982424
  0.5871999991200000  0.3692000013200000  0.6312156571982424
  0.5071999991199999  0.4892000013200000  0.6312156571982424
  0.4271999991200000  0.6092000013200000  0.6312156571982424
  0.3471999991199999  0.7292000013200000  0.6312156571982424
  0.2671999991199999  0.8492000013200000  0.6312156571982424
  0.1871999991199998  0.9692000013200001  0.6312156571982424
  0.1071999991200001  0.0892000013200002  0.6312156571982424
  0.0271999991200000  0.2092000013200002  0.6312156571982424
  0.9471999991200000  0.3292000013199998  0.6312156571982424
  0.8671999991199998  0.4492000013199998  0.6312156571982424
  0.7871999991199999  0.5692000013199999  0.6312156571982424
  0.7071999991199999  0.6892000013199998  0.6312156571982424
  0.6271999991199999  0.8092000013199999  0.6312156571982424
  0.5471999991199998  0.9292000013199999  0.6312156571982424
  0.4671999991200000  0.0492000013200000  0.6312156571982424
  0.3871999991199999  0.1692000013200001  0.6312156571982424
  0.3071999991200001  0.2892000013200001  0.6312156571982424
  0.2271999991199999  0.4092000013200001  0.6312156571982424
  0.1471999991200000  0.5292000013199999  0.6312156571982424
  0.0671999991200000  0.6492000013199999  0.6312156571982424
  0.9871999991199999  0.7692000013199999  0.6312156571982424
  0.9071999991199998  0.8892000013199999  0.6312156571982424
