Mo2 S2
1.0
  -2.8081100000000001    2.8081100000000001    5.1523149999999998
   2.8081100000000001   -2.8081100000000001    5.1523149999999998
   2.8081100000000001    2.8081100000000001   18.5106573924423650
Mo S Mo S
1 1 1 1
direct
   0.0000000000000000    0.0000000000000000   -0.0000000000000000 Mo
   0.6566080000000000    0.1250000000000000   -0.0002878717977546 S
   0.0000000000000000    0.0000000000000000    0.1893681365229286 Mo
   0.6566080000000000    0.1250000000000000    0.1890802647251739 S
