Cu   C    O    H 
   1.00000000000000     
   5.1119999886000000   0.0000000000000000   0.0000000000000000
  -0.0000088492000000   5.1119999885000000   0.0000000000000000
  -0.0000266965000000  -0.0000266965000000  15.4221000671000006
Cu   C    O    H 
16  1  1  1  
Selective dynamics
Direct
  0.0000300000000024  0.0013300000000029  0.1797900050000010 F F F
  0.0001744381800322  0.0039055585994916  0.4101693987986220 T T T
  0.2500000000000000  0.2500000000000000  0.0648399960000035 F F F
  0.2555362867137210  0.2510521720207630  0.2994581547846240 T T T
  0.5000100139999970  0.0004199999999983  0.1793099940000000 F F F
  0.4998057466299740  0.0014079689887865  0.4214137674067760 T T T
  0.7500000000000000  0.2500000000000000  0.0648399960000035 F F F
  0.7436869702057221  0.2509686000707770  0.3001338615892450 T T T
  0.0000199999999992  0.4999800029999970  0.1809100059999980 F F F
  0.0001567836809997  0.5003758972343350  0.4147250150536760 T T T
  0.2500000000000000  0.7500000000000000  0.0648399960000035 F F F
  0.2532038942600890  0.7509171928022770  0.2987518227487130 T T T
  0.5000200269999980  0.5008000139999990  0.1798200010000030 F F F
  0.4998162461716970  0.4907624777458960  0.4230822912595760 T T T
  0.7500000000000000  0.7500000000000000  0.0648399960000035 F F F
  0.7473551653819610  0.7509365452158649  0.2991184649843110 T T T
  0.5023395207461970  0.6520952054843010  0.5359381544811440 T T T
  0.5026434493365100  0.8595460085387220  0.5599324822300030 T T T
  0.4647830277412340  0.4674612439512560  0.5754171340384100 T T T
