Cu   C    O    H 
   1.00000000000000     
   5.1119999886000000   0.0000000000000000   0.0000000000000000
  -0.0000088492000000   5.1119999885000000   0.0000000000000000
  -0.0000266965000000  -0.0000266965000000  15.4221000671000006
Cu   C    O    H 
16  1  1  1  
Selective dynamics
Direct
  0.0000300000000024  0.0013300000000029  0.1797900050000010 F F F
  0.0003103384039989  0.0041274809580685  0.4116043048121510 T T T
  0.2500000000000000  0.2500000000000000  0.0648399960000035 F F F
  0.2545938929218610  0.2507685398344250  0.2983231226586370 T T T
  0.5000100139999970  0.0004199999999983  0.1793099940000000 F F F
  0.4990745643015520  0.0008959447671799  0.4223995387205410 T T T
  0.7500000000000000  0.2500000000000000  0.0648399960000035 F F F
  0.7424729789184350  0.2508168733796200  0.3003832434910410 T T T
  0.0000199999999992  0.4999800029999970  0.1809100059999980 F F F
  0.0002600882450352  0.4987121359544350  0.4147891930782630 T T T
  0.2500000000000000  0.7500000000000000  0.0648399960000035 F F F
  0.2525552981538870  0.7505205900611860  0.2984524316652970 T T T
  0.5000200269999980  0.5008000139999990  0.1798200010000030 F F F
  0.4992670819262560  0.4944581803901760  0.4243121225272830 T T T
  0.7500000000000000  0.7500000000000000  0.0648399960000035 F F F
  0.7483334084872840  0.7506855193018400  0.2996262451766750 T T T
  0.5060247641710660  0.6849136779416510  0.5324376195302279 T T T
  0.5075254519795680  0.8278462922020180  0.5736411891827440 T T T
  0.3924083420634620  0.3947665473393370  0.5353064064662120 T T T
