Title
   1.00000000000000
     8.4498996734999992    0.0000000000000000    0.0000000000000000
    -4.2249498366999996    7.3178277765999997    0.0000000000000000
     0.0000000000000000    0.0000000000000000   21.8992996216000009
   Pt   Zn   C    O    H                                           
    36     1     1     1     2                                     
Selective dynamics
Direct
  0.0000000000000000  0.0000000000000000  0.0000000000000000   F   F   F
  0.9947474952684621 -0.0035640032680903  0.3163601365912012   F   F   F
  0.2222200086671791  0.1111100043376254  0.2100300036291287   F   F   F
  0.1111100042679780  0.2222200085385921  0.1050200018146512   F   F   F
  0.3333300128797063  0.0000000000000000  0.0000000000000000   F   F   F
  0.3255688245771958  0.9957028981780016  0.3149729607923494   F   F   F
  0.5555600215472722  0.1111100043376254  0.2100300036291287   F   F   F
  0.4444400171476914  0.2222200085385921  0.1050200018146512   F   F   F
  0.6666700257598066  0.0000000000000000  0.0000000000000000   F   F   F
  0.6579955335360478 -0.0048284730653404  0.3202244055921006   F   F   F
  0.8888900344269857  0.1111100043376254  0.2100300036291287   F   F   F
  0.7777800300277846  0.2222200085385921  0.1050200018146512   F   F   F
  0.0000000386949637  0.3333300128762176  0.0000000000000000   F   F   F
  0.9907802587521171  0.3290354100815184  0.3160377203557862   F   F   F
  0.2222200086042889  0.4444400172138359  0.2100300036291287   F   F   F
  0.1111100043134172  0.5555600215135001  0.1050200018146512   F   F   F
  0.3333300129351642  0.3333300128762176  0.0000000000000000   F   F   F
  0.3175753347811749  0.3230995858935182  0.3153805727607624   F   F   F
  0.5555600214843821  0.4444400172138359  0.2100300036291287   F   F   F
  0.4444400171931235  0.5555600215135001  0.1050200018146512   F   F   F
  0.6666700258152574  0.3333300128762176  0.0000000000000000   F   F   F
  0.6594130222243976  0.3289575353407583  0.3214993373485168   F   F   F
  0.8888900343640955  0.4444400172138359  0.2100300036291287   F   F   F
  0.7777800300732167  0.5555600215135001  0.1050200018146512   F   F   F
  0.0000000386720771  0.6666700257144740  0.0000000000000000   F   F   F
 -0.0032844870100093  0.6632238879736359  0.3162263731293579   F   F   F
  0.2222200085813952  0.7777800300520923  0.2100300036291287   F   F   F
  0.1111100043688680  0.8888900343897177  0.1050200018146512   F   F   F
  0.3333300129122705  0.6666700257144740  0.0000000000000000   F   F   F
  0.3246366552352732  0.6573085649451221  0.3252063869348353   F   F   F
  0.5555600214614955  0.7777800300520923  0.2100300036291287   F   F   F
  0.4444400172485743  0.8888900343897177  0.1050200018146512   F   F   F
  0.6666700257923637  0.6666700257144740  0.0000000000000000   F   F   F
  0.6709136330077533  0.6694272204610942  0.3117523800582111   F   F   F
  0.8888900343412018  0.7777800300520923  0.2100300036291287   F   F   F
  0.7777800301286746  0.8888900343897177  0.1050200018146512   F   F   F
  0.5366497914784475  0.4667173729230412  0.4035913395816100   F   F   F
  0.4061456882851932  0.7155016363895533  0.4150652700708855   T   T   T
  0.4483067261234979  0.6146608590384222  0.4481687359907520   T   T   T
  0.5553019867199309  0.8687209301649320  0.3901267744361083   T   T   T
  0.3339404984043980  0.7756357784104477  0.4398526119016469   T   T   T
