Cu-COH                                
1.0
        5.1119999886         0.0000000000         0.0000000000
       -0.0000088492         5.1119999885         0.0000000000
       -0.0000266965        -0.0000266965        15.4221000671
   Cu    C    O    H
   16    1    1    1
Direct
     0.000030000         0.001330000         0.179790005
     0.000582139         0.004571326         0.414474130
     0.250000000         0.250000000         0.064839996
     0.252709091         0.250201285         0.296053052
     0.500010014         0.000420000         0.179309994
     0.497612208         0.999871910         0.424371094
     0.750000000         0.250000000         0.064839996
     0.740045011         0.250513434         0.300882012
     0.000020000         0.499980003         0.180910006
     0.000466697         0.495384604         0.414917558
     0.250000000         0.750000000         0.064839996
     0.251258105         0.749727368         0.297853649
     0.500020027         0.500800014         0.179820001
     0.498168766         0.501849592         0.426771790
     0.750000000         0.750000000         0.064839996
     0.750289917         0.750183463         0.300641805
     0.513395250         0.750550628         0.525436521
     0.517289460         0.764446855         0.601058602
     0.247658968         0.249377161         0.455084950
