2:Pnmb(53)                              
   1.00000000000000     
     6.6620543942381492    0.0000000000000000    0.0000000000000000
     0.0000000000000000    6.6650191227957718    0.0000000000000000
     0.0000000000000000    0.0000000000000000   11.9404463373872787
   Mg   N 
     4    40
Direct
  0.2495480360020608  0.0000000000000000  0.3749424038983378
  0.7504519639979392  0.5000000000000000  0.8749424038983378
  0.7504519639979392  0.0000000000000000  0.6250575961016622
  0.2495480360020608  0.5000000000000000  0.1250575961016622
  0.0904359258694498  0.0000000000000000  0.6264711069313265
  0.1524903696983131  0.0000000000000000  0.7322558777851356
  0.3490025211285541  0.0000000000000000  0.7321024032157766
  0.4105613416764129  0.0000000000000000  0.6262317685486067
  0.2503302433927601  0.0000000000000000  0.5605590667716029
  0.9095640741305502  0.5000000000000000  0.1264711069313265
  0.8475096303016869  0.5000000000000000  0.2322558777851356
  0.6509974788714459  0.5000000000000000  0.2321024032157766
  0.5894386583235871  0.5000000000000000  0.1262317685486067
  0.7496697566072399  0.5000000000000000  0.0605590667716029
  0.9095640741305502  0.0000000000000000  0.3735288930686735
  0.8475096303016869  0.0000000000000000  0.2677441222148644
  0.6509974788714459  0.0000000000000000  0.2678975967842234
  0.5894386583235871  0.0000000000000000  0.3737682314513933
  0.7496697566072399  0.0000000000000000  0.4394409332283971
  0.0904359258694498  0.5000000000000000  0.8735288930686735
  0.1524903696983131  0.5000000000000000  0.7677441222148644
  0.3490025211285541  0.5000000000000000  0.7678975967842234
  0.4105613416764129  0.5000000000000000  0.8737682314513933
  0.2503302433927601  0.5000000000000000  0.9394409332283971
  0.7506915683326696  0.0000000000000000  0.8105120794981246
  0.7507464541137452  0.8400009100061752  0.8762943528918115
  0.7506648610184996  0.9017846148795670  0.9821130451045761
  0.7506648610184996  0.0982153851204330  0.9821130451045761
  0.7507464541137452  0.1599990899938248  0.8762943528918115
  0.2493084316673304  0.5000000000000000  0.3105120794981246
  0.2492535458862548  0.6599990899938248  0.3762943528918115
  0.2493351389815004  0.5982153851204330  0.4821130451045761
  0.2493351389815004  0.4017846148795670  0.4821130451045761
  0.2492535458862548  0.3400009100061752  0.3762943528918115
  0.2493084316673304  0.0000000000000000  0.1894879205018754
  0.2492535458862548  0.8400009100061752  0.1237056471081885
  0.2493351389815004  0.9017846148795670  0.0178869548954239
  0.2493351389815004  0.0982153851204330  0.0178869548954239
  0.2492535458862548  0.1599990899938248  0.1237056471081885
  0.7506915683326696  0.5000000000000000  0.6894879205018754
  0.7507464541137452  0.6599990899938248  0.6237056471081885
  0.7506648610184996  0.5982153851204330  0.5178869548954239
  0.7506648610184996  0.4017846148795670  0.5178869548954239
  0.7507464541137452  0.3400009100061752  0.6237056471081885
 
  0.00000000E+00  0.00000000E+00  0.00000000E+00
  0.00000000E+00  0.00000000E+00  0.00000000E+00
  0.00000000E+00  0.00000000E+00  0.00000000E+00
  0.00000000E+00  0.00000000E+00  0.00000000E+00
  0.00000000E+00  0.00000000E+00  0.00000000E+00
  0.00000000E+00  0.00000000E+00  0.00000000E+00
  0.00000000E+00  0.00000000E+00  0.00000000E+00
  0.00000000E+00  0.00000000E+00  0.00000000E+00
  0.00000000E+00  0.00000000E+00  0.00000000E+00
  0.00000000E+00  0.00000000E+00  0.00000000E+00
  0.00000000E+00  0.00000000E+00  0.00000000E+00
  0.00000000E+00  0.00000000E+00  0.00000000E+00
  0.00000000E+00  0.00000000E+00  0.00000000E+00
  0.00000000E+00  0.00000000E+00  0.00000000E+00
  0.00000000E+00  0.00000000E+00  0.00000000E+00
  0.00000000E+00  0.00000000E+00  0.00000000E+00
  0.00000000E+00  0.00000000E+00  0.00000000E+00
  0.00000000E+00  0.00000000E+00  0.00000000E+00
  0.00000000E+00  0.00000000E+00  0.00000000E+00
  0.00000000E+00  0.00000000E+00  0.00000000E+00
  0.00000000E+00  0.00000000E+00  0.00000000E+00
  0.00000000E+00  0.00000000E+00  0.00000000E+00
  0.00000000E+00  0.00000000E+00  0.00000000E+00
  0.00000000E+00  0.00000000E+00  0.00000000E+00
  0.00000000E+00  0.00000000E+00  0.00000000E+00
  0.00000000E+00  0.00000000E+00  0.00000000E+00
  0.00000000E+00  0.00000000E+00  0.00000000E+00
  0.00000000E+00  0.00000000E+00  0.00000000E+00
  0.00000000E+00  0.00000000E+00  0.00000000E+00
  0.00000000E+00  0.00000000E+00  0.00000000E+00
  0.00000000E+00  0.00000000E+00  0.00000000E+00
  0.00000000E+00  0.00000000E+00  0.00000000E+00
  0.00000000E+00  0.00000000E+00  0.00000000E+00
  0.00000000E+00  0.00000000E+00  0.00000000E+00
  0.00000000E+00  0.00000000E+00  0.00000000E+00
  0.00000000E+00  0.00000000E+00  0.00000000E+00
  0.00000000E+00  0.00000000E+00  0.00000000E+00
  0.00000000E+00  0.00000000E+00  0.00000000E+00
  0.00000000E+00  0.00000000E+00  0.00000000E+00
  0.00000000E+00  0.00000000E+00  0.00000000E+00
  0.00000000E+00  0.00000000E+00  0.00000000E+00
  0.00000000E+00  0.00000000E+00  0.00000000E+00
  0.00000000E+00  0.00000000E+00  0.00000000E+00
  0.00000000E+00  0.00000000E+00  0.00000000E+00
