  44  44   0   0
  0.1204973E+02  0.6662054E-09  0.6665019E-09  0.1194045E-08  0.5000000E-15
  1.000000000000000E-004
  CAR 
 qvasp                                   
     11.24434411    -25.45804369  301      0.35692485      1.00000000
    -25.458  0.0000E+00  0.0000E+00
    -25.336  0.0000E+00  0.0000E+00
    -25.213  0.0000E+00  0.0000E+00
    -25.091  0.0000E+00  0.0000E+00
    -24.969  0.0000E+00  0.0000E+00
    -24.846  0.0000E+00  0.0000E+00
    -24.724  0.0000E+00  0.0000E+00
    -24.602  0.5294E-17  0.6476E-18
    -24.479  0.6424E-14  0.7865E-15
    -24.357  0.3186E-11  0.3905E-12
    -24.235  0.7803E-09  0.9586E-10
    -24.112  0.9466E-07  0.1168E-07
    -23.990  0.5701E-05  0.7091E-06
    -23.868  0.1709E-03  0.2162E-04
    -23.745  0.2557E-02  0.3344E-03
    -23.623  0.1914E-01  0.2676E-02
    -23.501  0.7189E-01  0.1147E-01
    -23.378  0.1357E+00  0.2807E-01
    -23.256  0.1287E+00  0.4382E-01
    -23.134  0.6130E-01  0.5132E-01
    -23.011  0.1460E-01  0.5311E-01
    -22.889  0.1731E-02  0.5332E-01
    -22.767  0.1015E-03  0.5333E-01
    -22.644  0.2932E-05  0.5333E-01
    -22.522  0.4144E-07  0.5333E-01
    -22.400  0.2854E-09  0.5333E-01
    -22.277  0.9539E-12  0.5333E-01
    -22.155  0.1545E-14  0.5333E-01
    -22.032  0.0000E+00  0.5333E-01
    -21.910  0.0000E+00  0.5333E-01
    -21.788  0.0000E+00  0.5333E-01
    -21.665  0.0000E+00  0.5333E-01
    -21.543  0.0000E+00  0.5333E-01
    -21.421  0.0000E+00  0.5333E-01
    -21.298  0.0000E+00  0.5333E-01
    -21.176  0.0000E+00  0.5333E-01
    -21.054  0.0000E+00  0.5333E-01
    -20.931  0.0000E+00  0.5333E-01
    -20.809  0.0000E+00  0.5333E-01
    -20.687  0.0000E+00  0.5333E-01
    -20.564  0.0000E+00  0.5333E-01
    -20.442  0.0000E+00  0.5333E-01
    -20.320  0.0000E+00  0.5333E-01
    -20.197  0.0000E+00  0.5333E-01
    -20.075  0.0000E+00  0.5333E-01
    -19.953  0.0000E+00  0.5333E-01
    -19.830  0.0000E+00  0.5333E-01
    -19.708  0.0000E+00  0.5333E-01
    -19.586  0.0000E+00  0.5333E-01
    -19.463  0.0000E+00  0.5333E-01
    -19.341  0.0000E+00  0.5333E-01
    -19.219  0.0000E+00  0.5333E-01
    -19.096  0.0000E+00  0.5333E-01
    -18.974  0.0000E+00  0.5333E-01
    -18.852  0.3781E-18  0.5333E-01
    -18.729  0.7252E-15  0.5333E-01
    -18.607  0.4450E-12  0.5333E-01
    -18.485  0.1332E-09  0.5333E-01
    -18.362  0.1963E-07  0.5333E-01
    -18.240  0.1432E-05  0.5333E-01
    -18.118  0.5215E-04  0.5334E-01
    -17.995  0.9591E-03  0.5346E-01
    -17.873  0.9072E-02  0.5457E-01
    -17.751  0.4554E-01  0.6014E-01
    -17.628  0.1280E+00  0.7580E-01
    -17.506  0.2172E+00  0.1024E+00
    -17.384  0.2351E+00  0.1311E+00
    -17.261  0.1589E+00  0.1506E+00
    -17.139  0.6227E-01  0.1582E+00
    -17.016  0.1319E-01  0.1598E+00
    -16.894  0.1448E-02  0.1600E+00
    -16.772  0.8037E-04  0.1600E+00
    -16.649  0.2222E-05  0.1600E+00
    -16.527  0.3030E-07  0.1600E+00
    -16.405  0.2025E-09  0.1600E+00
    -16.282  0.6590E-12  0.1600E+00
    -16.160  0.1040E-14  0.1600E+00
    -16.038  0.0000E+00  0.1600E+00
    -15.915  0.0000E+00  0.1600E+00
    -15.793  0.0000E+00  0.1600E+00
    -15.671  0.0000E+00  0.1600E+00
    -15.548  0.0000E+00  0.1600E+00
    -15.426  0.0000E+00  0.1600E+00
    -15.304  0.0000E+00  0.1600E+00
    -15.181  0.0000E+00  0.1600E+00
    -15.059  0.0000E+00  0.1600E+00
    -14.937  0.0000E+00  0.1600E+00
    -14.814  0.0000E+00  0.1600E+00
    -14.692  0.0000E+00  0.1600E+00
    -14.570  0.0000E+00  0.1600E+00
    -14.447  0.0000E+00  0.1600E+00
    -14.325  0.0000E+00  0.1600E+00
    -14.203  0.0000E+00  0.1600E+00
    -14.080  0.0000E+00  0.1600E+00
    -13.958  0.0000E+00  0.1600E+00
    -13.836  0.0000E+00  0.1600E+00
    -13.713  0.0000E+00  0.1600E+00
    -13.591  0.0000E+00  0.1600E+00
    -13.469  0.0000E+00  0.1600E+00
    -13.346  0.0000E+00  0.1600E+00
    -13.224  0.0000E+00  0.1600E+00
    -13.102  0.0000E+00  0.1600E+00
    -12.979  0.0000E+00  0.1600E+00
    -12.857  0.0000E+00  0.1600E+00
    -12.735  0.0000E+00  0.1600E+00
    -12.612  0.0000E+00  0.1600E+00
    -12.490  0.0000E+00  0.1600E+00
    -12.368  0.0000E+00  0.1600E+00
    -12.245  0.0000E+00  0.1600E+00
    -12.123  0.3781E-18  0.1600E+00
    -12.001  0.5320E-15  0.1600E+00
    -11.878  0.2518E-12  0.1600E+00
    -11.756  0.5796E-10  0.1600E+00
    -11.633  0.6589E-08  0.1600E+00
    -11.511  0.3796E-06  0.1600E+00
    -11.389  0.1162E-04  0.1600E+00
    -11.266  0.2034E-03  0.1600E+00
    -11.144  0.2188E-02  0.1603E+00
    -11.022  0.1475E-01  0.1621E+00
    -10.899  0.6055E-01  0.1695E+00
    -10.777  0.1495E+00  0.1878E+00
    -10.655  0.2282E+00  0.2157E+00
    -10.532  0.2220E+00  0.2429E+00
    -10.410  0.1351E+00  0.2594E+00
    -10.288  0.4854E-01  0.2653E+00
    -10.165  0.9727E-02  0.2665E+00
    -10.043  0.1052E-02  0.2667E+00
     -9.921  0.6032E-04  0.2667E+00
     -9.798  0.1820E-05  0.2667E+00
     -9.676  0.2869E-07  0.2667E+00
     -9.554  0.2342E-09  0.2667E+00
     -9.431  0.9779E-12  0.2667E+00
     -9.309  0.2057E-14  0.2667E+00
     -9.187  0.1512E-17  0.2667E+00
     -9.064  0.0000E+00  0.2667E+00
     -8.942  0.0000E+00  0.2667E+00
     -8.820  0.0000E+00  0.2667E+00
     -8.697  0.0000E+00  0.2667E+00
     -8.575  0.0000E+00  0.2667E+00
     -8.453  0.1134E-17  0.2667E+00
     -8.330  0.9287E-15  0.2667E+00
     -8.208  0.4007E-12  0.2667E+00
     -8.086  0.8299E-10  0.2667E+00
     -7.963  0.8281E-08  0.2667E+00
     -7.841  0.3997E-06  0.2667E+00
     -7.719  0.9392E-05  0.2667E+00
     -7.596  0.1085E-03  0.2667E+00
     -7.474  0.6324E-03  0.2668E+00
     -7.352  0.1992E-02  0.2670E+00
     -7.229  0.4080E-02  0.2675E+00
     -7.107  0.7250E-02  0.2684E+00
     -6.985  0.1311E-01  0.2700E+00
     -6.862  0.2440E-01  0.2730E+00
     -6.740  0.4309E-01  0.2782E+00
     -6.617  0.6256E-01  0.2859E+00
     -6.495  0.7369E-01  0.2949E+00
     -6.373  0.7820E-01  0.3045E+00
     -6.250  0.8518E-01  0.3149E+00
     -6.128  0.9628E-01  0.3267E+00
     -6.006  0.1010E+00  0.3390E+00
     -5.883  0.9101E-01  0.3502E+00
     -5.761  0.6992E-01  0.3587E+00
     -5.639  0.5095E-01  0.3650E+00
     -5.516  0.3689E-01  0.3695E+00
     -5.394  0.2138E-01  0.3721E+00
     -5.272  0.8094E-02  0.3731E+00
     -5.149  0.1825E-02  0.3733E+00
     -5.027  0.2322E-03  0.3733E+00
     -4.905  0.1595E-04  0.3733E+00
     -4.782  0.5689E-06  0.3733E+00
     -4.660  0.1030E-07  0.3733E+00
     -4.538  0.1041E-07  0.3733E+00
     -4.415  0.7192E-06  0.3733E+00
     -4.293  0.2467E-04  0.3733E+00
     -4.171  0.4188E-03  0.3734E+00
     -4.048  0.3540E-02  0.3738E+00
     -3.926  0.1498E-01  0.3757E+00
     -3.804  0.3192E-01  0.3796E+00
     -3.681  0.3469E-01  0.3838E+00
     -3.559  0.2099E-01  0.3864E+00
     -3.437  0.1137E-01  0.3878E+00
     -3.314  0.1054E-01  0.3891E+00
     -3.192  0.1486E-01  0.3909E+00
     -3.070  0.3131E-01  0.3947E+00
     -2.947  0.6348E-01  0.4025E+00
     -2.825  0.9335E-01  0.4139E+00
     -2.703  0.1102E+00  0.4274E+00
     -2.580  0.1289E+00  0.4431E+00
     -2.458  0.1422E+00  0.4605E+00
     -2.336  0.1468E+00  0.4785E+00
     -2.213  0.1658E+00  0.4988E+00
     -2.091  0.1819E+00  0.5210E+00
     -1.969  0.1718E+00  0.5420E+00
     -1.846  0.1484E+00  0.5602E+00
     -1.724  0.1262E+00  0.5756E+00
     -1.601  0.1080E+00  0.5889E+00
     -1.479  0.8873E-01  0.5997E+00
     -1.357  0.7761E-01  0.6092E+00
     -1.234  0.8204E-01  0.6192E+00
     -1.112  0.8915E-01  0.6301E+00
     -0.990  0.1070E+00  0.6432E+00
     -0.867  0.1359E+00  0.6599E+00
     -0.745  0.1346E+00  0.6763E+00
     -0.623  0.8939E-01  0.6873E+00
     -0.500  0.3799E-01  0.6919E+00
     -0.378  0.9902E-02  0.6931E+00
     -0.256  0.1499E-02  0.6933E+00
     -0.133  0.1249E-03  0.6933E+00
     -0.011  0.5469E-05  0.6933E+00
      0.111  0.1219E-06  0.6933E+00
      0.234  0.1355E-08  0.6933E+00
      0.356  0.7402E-11  0.6933E+00
      0.478  0.1969E-13  0.6933E+00
      0.601  0.2344E-16  0.6933E+00
      0.723  0.0000E+00  0.6933E+00
      0.845  0.0000E+00  0.6933E+00
      0.968  0.0000E+00  0.6933E+00
      1.090  0.0000E+00  0.6933E+00
      1.212  0.0000E+00  0.6933E+00
      1.335  0.0000E+00  0.6933E+00
      1.457  0.0000E+00  0.6933E+00
      1.579  0.0000E+00  0.6933E+00
      1.702  0.0000E+00  0.6933E+00
      1.824  0.0000E+00  0.6933E+00
      1.946  0.0000E+00  0.6933E+00
      2.069  0.0000E+00  0.6933E+00
      2.191  0.0000E+00  0.6933E+00
      2.313  0.0000E+00  0.6933E+00
      2.436  0.0000E+00  0.6933E+00
      2.558  0.0000E+00  0.6933E+00
      2.680  0.0000E+00  0.6933E+00
      2.803  0.3025E-17  0.6933E+00
      2.925  0.2378E-14  0.6933E+00
      3.047  0.1167E-11  0.6933E+00
      3.170  0.2747E-09  0.6933E+00
      3.292  0.3114E-07  0.6933E+00
      3.415  0.1706E-05  0.6933E+00
      3.537  0.4538E-04  0.6933E+00
      3.659  0.5903E-03  0.6934E+00
      3.782  0.3805E-02  0.6939E+00
      3.904  0.1265E-01  0.6954E+00
      4.026  0.2520E-01  0.6985E+00
      4.149  0.4284E-01  0.7037E+00
      4.271  0.7236E-01  0.7126E+00
      4.393  0.9485E-01  0.7242E+00
      4.516  0.9009E-01  0.7352E+00
      4.638  0.7627E-01  0.7446E+00
      4.760  0.7810E-01  0.7541E+00
      4.883  0.9143E-01  0.7653E+00
      5.005  0.9356E-01  0.7767E+00
      5.127  0.7271E-01  0.7856E+00
      5.250  0.4697E-01  0.7914E+00
      5.372  0.3235E-01  0.7953E+00
      5.494  0.2152E-01  0.7980E+00
      5.617  0.1089E-01  0.7993E+00
      5.739  0.4170E-02  0.7998E+00
      5.861  0.1212E-02  0.8000E+00
      5.984  0.2283E-03  0.8000E+00
      6.106  0.2374E-04  0.8000E+00
      6.228  0.1260E-05  0.8000E+00
      6.351  0.3302E-07  0.8000E+00
      6.473  0.4211E-09  0.8000E+00
      6.595  0.2595E-11  0.8000E+00
      6.718  0.3664E-13  0.8000E+00
      6.840  0.8436E-11  0.8000E+00
      6.962  0.1190E-08  0.8000E+00
      7.085  0.8187E-07  0.8000E+00
      7.207  0.2778E-05  0.8000E+00
      7.329  0.4732E-04  0.8000E+00
      7.452  0.4187E-03  0.8001E+00
      7.574  0.2052E-02  0.8003E+00
      7.696  0.6169E-02  0.8011E+00
      7.819  0.1237E-01  0.8026E+00
      7.941  0.1664E-01  0.8046E+00
      8.063  0.1692E-01  0.8067E+00
      8.186  0.2093E-01  0.8092E+00
      8.308  0.2911E-01  0.8128E+00
      8.430  0.3037E-01  0.8165E+00
      8.553  0.2515E-01  0.8196E+00
      8.675  0.2423E-01  0.8226E+00
      8.798  0.3820E-01  0.8272E+00
      8.920  0.5950E-01  0.8345E+00
      9.042  0.6443E-01  0.8424E+00
      9.165  0.4864E-01  0.8483E+00
      9.287  0.2690E-01  0.8516E+00
      9.409  0.1066E-01  0.8529E+00
      9.532  0.2733E-02  0.8533E+00
      9.654  0.4045E-03  0.8533E+00
      9.776  0.3191E-04  0.8533E+00
      9.899  0.1283E-05  0.8533E+00
     10.021  0.2567E-07  0.8533E+00
     10.143  0.2524E-09  0.8533E+00
     10.266  0.1209E-11  0.8533E+00
     10.388  0.2807E-14  0.8533E+00
     10.510  0.2269E-17  0.8533E+00
     10.633  0.0000E+00  0.8533E+00
     10.755  0.0000E+00  0.8533E+00
     10.877  0.0000E+00  0.8533E+00
     11.000  0.0000E+00  0.8533E+00
     11.122  0.0000E+00  0.8533E+00
     11.244  0.0000E+00  0.8533E+00
