2:Pnmb(53)                              
   1.00000000000000     
     6.6620543942381492    0.0000000000000000    0.0000000000000000
     0.0000000000000000    6.6650191227957718    0.0000000000000000
     0.0000000000000000    0.0000000000000000   11.9404463373872787
   Mg   N 
     4    40
Direct
  0.2495480360020607 -0.0000000000000000  0.3749424038983380
  0.7504519639979395  0.5000000000000000  0.8749424038983381
  0.7504519639979395 -0.0000000000000000  0.6250575961016619
  0.2495480360020607  0.5000000000000000  0.1250575961016618
  0.0904359258694523 -0.0000000000000000  0.6264711069313242
  0.1524903696983128 -0.0000000000000000  0.7322558777851370
  0.3490025211285562 -0.0000000000000000  0.7321024032157769
  0.4105613416764144 -0.0000000000000000  0.6262317685486081
  0.2503302433927605 -0.0000000000000000  0.5605590667715999
  0.9095640741305474  0.5000000000000000  0.1264711069313242
  0.8475096303016870  0.5000000000000000  0.2322558777851370
  0.6509974788714442  0.5000000000000000  0.2321024032157769
  0.5894386583235854  0.5000000000000000  0.1262317685486084
  0.7496697566072393  0.5000000000000000  0.0605590667716000
  0.9095640741305474 -0.0000000000000000  0.3735288930686756
  0.8475096303016870 -0.0000000000000000  0.2677441222148628
  0.6509974788714442 -0.0000000000000000  0.2678975967842228
  0.5894386583235854 -0.0000000000000000  0.3737682314513913
  0.7496697566072393 -0.0000000000000000  0.4394409332283999
  0.0904359258694523  0.5000000000000000  0.8735288930686758
  0.1524903696983128  0.5000000000000000  0.7677441222148630
  0.3490025211285562  0.5000000000000000  0.7678975967842231
  0.4105613416764144  0.5000000000000000  0.8737682314513919
  0.2503302433927605  0.5000000000000000  0.9394409332284001
  0.7506915683326726 -0.0000000000000000  0.8105120794981269
  0.7507464541137432  0.8400009100061756  0.8762943528918120
  0.7506648610185005  0.9017846148795698  0.9821130451045730
  0.7506648610185005  0.0982153851204298  0.9821130451045730
  0.7507464541137432  0.1599990899938245  0.8762943528918120
  0.2493084316673276  0.5000000000000000  0.3105120794981269
  0.2492535458862570  0.6599990899938244  0.3762943528918123
  0.2493351389814993  0.5982153851204302  0.4821130451045731
  0.2493351389814993  0.4017846148795703  0.4821130451045731
  0.2492535458862570  0.3400009100061757  0.3762943528918123
  0.2493084316673276 -0.0000000000000000  0.1894879205018731
  0.2492535458862570  0.8400009100061756  0.1237056471081876
  0.2493351389814993  0.9017846148795698  0.0178869548954270
  0.2493351389814993  0.0982153851204298  0.0178869548954270
  0.2492535458862570  0.1599990899938245  0.1237056471081876
  0.7506915683326726  0.5000000000000000  0.6894879205018731
  0.7507464541137432  0.6599990899938244  0.6237056471081880
  0.7506648610185005  0.5982153851204302  0.5178869548954270
  0.7506648610185005  0.4017846148795703  0.5178869548954270
  0.7507464541137432  0.3400009100061757  0.6237056471081880
 
  0.00000000E+00  0.00000000E+00  0.00000000E+00
  0.00000000E+00  0.00000000E+00  0.00000000E+00
  0.00000000E+00  0.00000000E+00  0.00000000E+00
  0.00000000E+00  0.00000000E+00  0.00000000E+00
  0.00000000E+00  0.00000000E+00  0.00000000E+00
  0.00000000E+00  0.00000000E+00  0.00000000E+00
  0.00000000E+00  0.00000000E+00  0.00000000E+00
  0.00000000E+00  0.00000000E+00  0.00000000E+00
  0.00000000E+00  0.00000000E+00  0.00000000E+00
  0.00000000E+00  0.00000000E+00  0.00000000E+00
  0.00000000E+00  0.00000000E+00  0.00000000E+00
  0.00000000E+00  0.00000000E+00  0.00000000E+00
  0.00000000E+00  0.00000000E+00  0.00000000E+00
  0.00000000E+00  0.00000000E+00  0.00000000E+00
  0.00000000E+00  0.00000000E+00  0.00000000E+00
  0.00000000E+00  0.00000000E+00  0.00000000E+00
  0.00000000E+00  0.00000000E+00  0.00000000E+00
  0.00000000E+00  0.00000000E+00  0.00000000E+00
  0.00000000E+00  0.00000000E+00  0.00000000E+00
  0.00000000E+00  0.00000000E+00  0.00000000E+00
  0.00000000E+00  0.00000000E+00  0.00000000E+00
  0.00000000E+00  0.00000000E+00  0.00000000E+00
  0.00000000E+00  0.00000000E+00  0.00000000E+00
  0.00000000E+00  0.00000000E+00  0.00000000E+00
  0.00000000E+00  0.00000000E+00  0.00000000E+00
  0.00000000E+00  0.00000000E+00  0.00000000E+00
  0.00000000E+00  0.00000000E+00  0.00000000E+00
  0.00000000E+00  0.00000000E+00  0.00000000E+00
  0.00000000E+00  0.00000000E+00  0.00000000E+00
  0.00000000E+00  0.00000000E+00  0.00000000E+00
  0.00000000E+00  0.00000000E+00  0.00000000E+00
  0.00000000E+00  0.00000000E+00  0.00000000E+00
  0.00000000E+00  0.00000000E+00  0.00000000E+00
  0.00000000E+00  0.00000000E+00  0.00000000E+00
  0.00000000E+00  0.00000000E+00  0.00000000E+00
  0.00000000E+00  0.00000000E+00  0.00000000E+00
  0.00000000E+00  0.00000000E+00  0.00000000E+00
  0.00000000E+00  0.00000000E+00  0.00000000E+00
  0.00000000E+00  0.00000000E+00  0.00000000E+00
  0.00000000E+00  0.00000000E+00  0.00000000E+00
  0.00000000E+00  0.00000000E+00  0.00000000E+00
  0.00000000E+00  0.00000000E+00  0.00000000E+00
  0.00000000E+00  0.00000000E+00  0.00000000E+00
  0.00000000E+00  0.00000000E+00  0.00000000E+00
