  PAW_PBE Mg 13Apr2007                   
   2.00000000000000     
 parameters from PSCTR are:
   VRHFIN =Mg: s2p0
   LEXCH  = PE
   EATOM  =    23.0369 eV,    1.6932 Ry

   TITEL  = PAW_PBE Mg 13Apr2007
   LULTRA =        F    use ultrasoft PP ?
   IUNSCR =        1    unscreen: 0-lin 1-nonlin 2-no
   RPACOR =    1.500    partial core radius
   POMASS =   24.305; ZVAL   =    2.000    mass and valenz
   RCORE  =    2.000    outmost cutoff radius
   RWIGS  =    2.880; RWIGS  =    1.524    wigner-seitz radius (au A)
   ENMAX  =  200.000; ENMIN  =  100.000 eV
   RCLOC  =    1.506    cutoff for local pot
   LCOR   =        T    correct aug charges
   LPAW   =        T    paw PP
   EAUG   =  454.734
   DEXC   =    0.000
   RMAX   =    2.045    core radius for proj-oper
   RAUG   =    1.300    factor for augmentation sphere
   RDEP   =    2.025    radius for radial grids
   RDEPT  =    1.942    core radius for aug-charge
 
   Atomic configuration
    6 entries
     n  l   j            E        occ.
     1  0  0.50     -1259.6230   2.0000
     2  0  0.50       -79.8442   2.0000
     2  1  1.50       -46.6121   6.0000
     3  0  0.50        -4.7055   2.0000
     3  1  0.50        -1.3660   0.0000
     3  2  1.50        -1.3606   0.0000
   Description
     l       E           TYP  RCUT    TYP  RCUT
     0     -4.7054661     23  2.000
     0     27.2116520     23  2.000
     1      1.3605826     23  2.000
     1     27.2116520     23  2.000
     2     -1.3605826     23  2.000
   Error from kinetic energy argument (eV)
   NDATA  =      100
   STEP   =   20.000   1.050
  1.04      1.04      1.04      1.03      1.02      1.01     0.987     0.975
 0.946     0.913     0.895     0.855     0.813     0.768     0.721     0.674
 0.626     0.579     0.532     0.465     0.423     0.382     0.326     0.291
 0.259     0.215     0.177     0.154     0.125     0.994E-01 0.783E-01 0.609E-01
 0.466E-01 0.352E-01 0.262E-01 0.192E-01 0.123E-01 0.874E-02 0.545E-02 0.385E-02
 0.252E-02 0.183E-02 0.152E-02 0.142E-02 0.140E-02 0.140E-02 0.137E-02 0.128E-02
 0.117E-02 0.990E-03 0.798E-03 0.649E-03 0.485E-03 0.355E-03 0.248E-03 0.195E-03
 0.167E-03 0.155E-03 0.153E-03 0.152E-03 0.146E-03 0.133E-03 0.115E-03 0.911E-04
 0.716E-04 0.533E-04 0.413E-04 0.353E-04 0.332E-04 0.331E-04 0.324E-04 0.299E-04
 0.256E-04 0.206E-04 0.155E-04 0.124E-04 0.106E-04 0.102E-04 0.102E-04 0.970E-05
 0.843E-05 0.674E-05 0.524E-05 0.428E-05 0.399E-05 0.398E-05 0.379E-05 0.325E-05
 0.256E-05 0.204E-05 0.184E-05 0.182E-05 0.173E-05 0.148E-05 0.116E-05 0.976E-06
 0.939E-06 0.920E-06 0.799E-06 0.641E-06
END of PSCTR-controll parameters
 local part
   94.4862994289462     
  0.22502855E+02  0.22499617E+02  0.22489890E+02  0.22473675E+02  0.22450970E+02
  0.22421771E+02  0.22386071E+02  0.22343864E+02  0.22295138E+02  0.22239883E+02
  0.22178084E+02  0.22109725E+02  0.22034790E+02  0.21953261E+02  0.21865119E+02
  0.21770348E+02  0.21668934E+02  0.21560863E+02  0.21446129E+02  0.21324729E+02
  0.21196668E+02  0.21061958E+02  0.20920620E+02  0.20772684E+02  0.20618190E+02
  0.20457189E+02  0.20289742E+02  0.20115923E+02  0.19935815E+02  0.19749516E+02
  0.19557131E+02  0.19358782E+02  0.19154597E+02  0.18944721E+02  0.18729307E+02
  0.18508521E+02  0.18282539E+02  0.18051549E+02  0.17815752E+02  0.17575357E+02
  0.17330584E+02  0.17081664E+02  0.16828836E+02  0.16572347E+02  0.16312455E+02
  0.16049422E+02  0.15783518E+02  0.15515020E+02  0.15244206E+02  0.14971361E+02
  0.14696772E+02  0.14420729E+02  0.14143523E+02  0.13865445E+02  0.13586788E+02
  0.13307843E+02  0.13028899E+02  0.12750243E+02  0.12472160E+02  0.12194931E+02
  0.11918833E+02  0.11644136E+02  0.11371106E+02  0.11100002E+02  0.10831076E+02
  0.10564574E+02  0.10300729E+02  0.10039771E+02  0.97819170E+01  0.95273754E+01
  0.92763451E+01  0.90290142E+01  0.87855604E+01  0.85461509E+01  0.83109416E+01
  0.80800777E+01  0.78536927E+01  0.76319093E+01  0.74148386E+01  0.72025801E+01
  0.69952223E+01  0.67928420E+01  0.65955048E+01  0.64032649E+01  0.62161657E+01
  0.60342396E+01  0.58575082E+01  0.56859828E+01  0.55196644E+01  0.53585444E+01
  0.52026046E+01  0.50518174E+01  0.49061467E+01  0.47655478E+01  0.46299679E+01
  0.44993467E+01  0.43736163E+01  0.42527022E+01  0.41365231E+01  0.40249918E+01
  0.39180154E+01  0.38154956E+01  0.37173293E+01  0.36234092E+01  0.35336240E+01
  0.34478586E+01  0.33659951E+01  0.32879131E+01  0.32134895E+01  0.31425999E+01
  0.30751182E+01  0.30109172E+01  0.29498693E+01  0.28918463E+01  0.28367202E+01
  0.27843632E+01  0.27346481E+01  0.26874488E+01  0.26426402E+01  0.26000989E+01
  0.25597031E+01  0.25213330E+01  0.24848711E+01  0.24502023E+01  0.24172142E+01
  0.23857973E+01  0.23558450E+01  0.23272539E+01  0.22999239E+01  0.22737582E+01
  0.22486637E+01  0.22245505E+01  0.22013326E+01  0.21789276E+01  0.21572568E+01
  0.21362451E+01  0.21158215E+01  0.20959183E+01  0.20764718E+01  0.20574222E+01
  0.20387131E+01  0.20202921E+01  0.20021103E+01  0.19841224E+01  0.19662867E+01
  0.19485650E+01  0.19309225E+01  0.19133277E+01  0.18957521E+01  0.18781707E+01
  0.18605611E+01  0.18429042E+01  0.18251833E+01  0.18073846E+01  0.17894970E+01
  0.17715115E+01  0.17534218E+01  0.17352237E+01  0.17169151E+01  0.16984961E+01
  0.16799686E+01  0.16613362E+01  0.16426042E+01  0.16237796E+01  0.16048707E+01
  0.15858870E+01  0.15668394E+01  0.15477396E+01  0.15286006E+01  0.15094358E+01
  0.14902597E+01  0.14710873E+01  0.14519340E+01  0.14328159E+01  0.14137493E+01
  0.13947508E+01  0.13758371E+01  0.13570251E+01  0.13383317E+01  0.13197735E+01
  0.13013672E+01  0.12831291E+01  0.12650753E+01  0.12472214E+01  0.12295826E+01
  0.12121735E+01  0.11950082E+01  0.11781001E+01  0.11614621E+01  0.11451061E+01
  0.11290435E+01  0.11132848E+01  0.10978397E+01  0.10827171E+01  0.10679250E+01
  0.10534704E+01  0.10393597E+01  0.10255979E+01  0.10121896E+01  0.99913798E+00
  0.98644553E+00  0.97411368E+00  0.96214295E+00  0.95053288E+00  0.93928210E+00
  0.92838834E+00  0.91784843E+00  0.90765834E+00  0.89781321E+00  0.88830740E+00
  0.87913447E+00  0.87028728E+00  0.86175799E+00  0.85353808E+00  0.84561843E+00
  0.83798934E+00  0.83064058E+00  0.82356140E+00  0.81674063E+00  0.81016671E+00
  0.80382773E+00  0.79771149E+00  0.79180557E+00  0.78609737E+00  0.78057416E+00
  0.77522316E+00  0.77003158E+00  0.76498666E+00  0.76007576E+00  0.75528635E+00
  0.75060610E+00  0.74602292E+00  0.74152496E+00  0.73710073E+00  0.73273906E+00
  0.72842917E+00  0.72416072E+00  0.71992382E+00  0.71570908E+00  0.71150765E+00
  0.70731120E+00  0.70311199E+00  0.69890290E+00  0.69467740E+00  0.69042960E+00
  0.68615422E+00  0.68184666E+00  0.67750293E+00  0.67311969E+00  0.66869422E+00
  0.66422443E+00  0.65970882E+00  0.65514653E+00  0.65053722E+00  0.64588117E+00
  0.64117916E+00  0.63643253E+00  0.63164308E+00  0.62681313E+00  0.62194542E+00
  0.61704310E+00  0.61210972E+00  0.60714918E+00  0.60216567E+00  0.59716369E+00
  0.59214793E+00  0.58712332E+00  0.58209491E+00  0.57706791E+00  0.57204757E+00
  0.56703921E+00  0.56204816E+00  0.55707974E+00  0.55213920E+00  0.54723171E+00
  0.54236235E+00  0.53753604E+00  0.53275753E+00  0.52803140E+00  0.52336198E+00
  0.51875339E+00  0.51420945E+00  0.50973373E+00  0.50532948E+00  0.50099964E+00
  0.49674680E+00  0.49257325E+00  0.48848091E+00  0.48447136E+00  0.48054584E+00
  0.47670524E+00  0.47295013E+00  0.46928072E+00  0.46569691E+00  0.46219828E+00
  0.45878412E+00  0.45545340E+00  0.45220481E+00  0.44903680E+00  0.44594753E+00
  0.44293492E+00  0.43999671E+00  0.43713039E+00  0.43433329E+00  0.43160258E+00
  0.42893529E+00  0.42632832E+00  0.42377851E+00  0.42128260E+00  0.41883731E+00
  0.41643930E+00  0.41408527E+00  0.41177190E+00  0.40949592E+00  0.40725411E+00
  0.40504330E+00  0.40286042E+00  0.40070248E+00  0.39856660E+00  0.39645004E+00
  0.39435017E+00  0.39226452E+00  0.39019075E+00  0.38812672E+00  0.38607043E+00
  0.38402008E+00  0.38197405E+00  0.37993088E+00  0.37788934E+00  0.37584834E+00
  0.37380700E+00  0.37176461E+00  0.36972063E+00  0.36767469E+00  0.36562657E+00
  0.36357621E+00  0.36152369E+00  0.35946922E+00  0.35741316E+00  0.35535596E+00
  0.35329819E+00  0.35124052E+00  0.34918373E+00  0.34712865E+00  0.34507620E+00
  0.34302735E+00  0.34098312E+00  0.33894457E+00  0.33691276E+00  0.33488879E+00
  0.33287373E+00  0.33086866E+00  0.32887463E+00  0.32689267E+00  0.32492376E+00
  0.32296884E+00  0.32102882E+00  0.31910452E+00  0.31719674E+00  0.31530620E+00
  0.31343356E+00  0.31157940E+00  0.30974427E+00  0.30792859E+00  0.30613275E+00
  0.30435705E+00  0.30260170E+00  0.30086686E+00  0.29915260E+00  0.29745890E+00
  0.29578569E+00  0.29413284E+00  0.29250014E+00  0.29088732E+00  0.28929408E+00
  0.28772005E+00  0.28616484E+00  0.28462802E+00  0.28310911E+00  0.28160763E+00
  0.28012306E+00  0.27865487E+00  0.27720253E+00  0.27576548E+00  0.27434315E+00
  0.27293499E+00  0.27154045E+00  0.27015897E+00  0.26879001E+00  0.26743305E+00
  0.26608759E+00  0.26475315E+00  0.26342928E+00  0.26211556E+00  0.26081161E+00
  0.25951706E+00  0.25823160E+00  0.25695493E+00  0.25568680E+00  0.25442699E+00
  0.25317530E+00  0.25193156E+00  0.25069563E+00  0.24946741E+00  0.24824679E+00
  0.24703372E+00  0.24582815E+00  0.24463007E+00  0.24343946E+00  0.24225636E+00
  0.24108078E+00  0.23991280E+00  0.23875245E+00  0.23759982E+00  0.23645498E+00
  0.23531800E+00  0.23418896E+00  0.23306792E+00  0.23195496E+00  0.23085012E+00
  0.22975344E+00  0.22866496E+00  0.22758470E+00  0.22651266E+00  0.22544883E+00
  0.22439321E+00  0.22334576E+00  0.22230642E+00  0.22127516E+00  0.22025190E+00
  0.21923656E+00  0.21822904E+00  0.21722922E+00  0.21623700E+00  0.21525223E+00
  0.21427476E+00  0.21330442E+00  0.21234105E+00  0.21138448E+00  0.21043450E+00
  0.20949093E+00  0.20855359E+00  0.20762229E+00  0.20669684E+00  0.20577707E+00
  0.20486280E+00  0.20395386E+00  0.20305011E+00  0.20215140E+00  0.20125759E+00
  0.20036855E+00  0.19948416E+00  0.19860433E+00  0.19772895E+00  0.19685794E+00
  0.19599124E+00  0.19512880E+00  0.19427056E+00  0.19341652E+00  0.19256667E+00
  0.19172101E+00  0.19087957E+00  0.19004240E+00  0.18920954E+00  0.18838107E+00
  0.18755707E+00  0.18673760E+00  0.18592278E+00  0.18511269E+00  0.18430744E+00
  0.18350712E+00  0.18271183E+00  0.18192169E+00  0.18113679E+00  0.18035722E+00
  0.17958309E+00  0.17881449E+00  0.17805151E+00  0.17729424E+00  0.17654274E+00
  0.17579710E+00  0.17505736E+00  0.17432357E+00  0.17359577E+00  0.17287397E+00
  0.17215818E+00  0.17144838E+00  0.17074454E+00  0.17004661E+00  0.16935455E+00
  0.16866827E+00  0.16798769E+00  0.16731271E+00  0.16664323E+00  0.16597911E+00
  0.16532024E+00  0.16466648E+00  0.16401768E+00  0.16337369E+00  0.16273435E+00
  0.16209949E+00  0.16146894E+00  0.16084252E+00  0.16022006E+00  0.15960136E+00
  0.15898625E+00  0.15837455E+00  0.15776608E+00  0.15716067E+00  0.15655816E+00
  0.15595839E+00  0.15536123E+00  0.15476654E+00  0.15417420E+00  0.15358410E+00
  0.15299615E+00  0.15241026E+00  0.15182636E+00  0.15124440E+00  0.15066431E+00
  0.15008607E+00  0.14950966E+00  0.14893506E+00  0.14836227E+00  0.14779132E+00
  0.14722223E+00  0.14665504E+00  0.14608982E+00  0.14552662E+00  0.14496554E+00
  0.14440665E+00  0.14385006E+00  0.14329587E+00  0.14274419E+00  0.14219512E+00
  0.14164878E+00  0.14110529E+00  0.14056475E+00  0.14002728E+00  0.13949298E+00
  0.13896195E+00  0.13843431E+00  0.13791014E+00  0.13738954E+00  0.13687259E+00
  0.13635938E+00  0.13584997E+00  0.13534444E+00  0.13484282E+00  0.13434517E+00
  0.13385152E+00  0.13336188E+00  0.13287625E+00  0.13239463E+00  0.13191700E+00
  0.13144331E+00  0.13097353E+00  0.13050760E+00  0.13004544E+00  0.12958697E+00
  0.12913213E+00  0.12868080E+00  0.12823289E+00  0.12778830E+00  0.12734691E+00
  0.12690860E+00  0.12647326E+00  0.12604074E+00  0.12561093E+00  0.12518368E+00
  0.12475885E+00  0.12433632E+00  0.12391594E+00  0.12349758E+00  0.12308111E+00
  0.12266640E+00  0.12225334E+00  0.12184180E+00  0.12143169E+00  0.12102292E+00
  0.12061539E+00  0.12020903E+00  0.11980377E+00  0.11939955E+00  0.11899633E+00
  0.11859406E+00  0.11819270E+00  0.11779224E+00  0.11739265E+00  0.11699394E+00
  0.11659611E+00  0.11619917E+00  0.11580315E+00  0.11540808E+00  0.11501401E+00
  0.11462098E+00  0.11422906E+00  0.11383831E+00  0.11344881E+00  0.11306062E+00
  0.11267385E+00  0.11228855E+00  0.11190482E+00  0.11152274E+00  0.11114239E+00
  0.11076384E+00  0.11038719E+00  0.11001250E+00  0.10963985E+00  0.10926932E+00
  0.10890097E+00  0.10853486E+00  0.10817107E+00  0.10780964E+00  0.10745063E+00
  0.10709408E+00  0.10674003E+00  0.10638850E+00  0.10603951E+00  0.10569308E+00
  0.10534921E+00  0.10500789E+00  0.10466910E+00  0.10433283E+00  0.10399904E+00
  0.10366770E+00  0.10333877E+00  0.10301219E+00  0.10268793E+00  0.10236591E+00
  0.10204609E+00  0.10172840E+00  0.10141277E+00  0.10109913E+00  0.10078741E+00
  0.10047753E+00  0.10016941E+00  0.99862973E-01  0.99558134E-01  0.99254813E-01
  0.98952930E-01  0.98652406E-01  0.98353167E-01  0.98055142E-01  0.97758265E-01
  0.97462475E-01  0.97167714E-01  0.96873933E-01  0.96581085E-01  0.96289129E-01
  0.95998028E-01  0.95707751E-01  0.95418269E-01  0.95129561E-01  0.94841607E-01
  0.94554394E-01  0.94267914E-01  0.93982162E-01  0.93697142E-01  0.93412860E-01
  0.93129330E-01  0.92846570E-01  0.92564604E-01  0.92283457E-01  0.92003162E-01
  0.91723752E-01  0.91445261E-01  0.91167726E-01  0.90891184E-01  0.90615671E-01
  0.90341222E-01  0.90067873E-01  0.89795657E-01  0.89524607E-01  0.89254754E-01
  0.88986129E-01  0.88718761E-01  0.88452678E-01  0.88187906E-01  0.87924470E-01
  0.87662392E-01  0.87401691E-01  0.87142383E-01  0.86884480E-01  0.86627990E-01
  0.86372917E-01  0.86119259E-01  0.85867012E-01  0.85616165E-01  0.85366706E-01
  0.85118618E-01  0.84871883E-01  0.84626480E-01  0.84382386E-01  0.84139579E-01
  0.83898033E-01  0.83657723E-01  0.83418624E-01  0.83180709E-01  0.82943949E-01
  0.82708317E-01  0.82473783E-01  0.82240318E-01  0.82007891E-01  0.81776472E-01
  0.81546030E-01  0.81316538E-01  0.81087968E-01  0.80860294E-01  0.80633495E-01
  0.80407550E-01  0.80182443E-01  0.79958161E-01  0.79734694E-01  0.79512034E-01
  0.79290178E-01  0.79069121E-01  0.78848864E-01  0.78629408E-01  0.78410753E-01
  0.78192904E-01  0.77975865E-01  0.77759641E-01  0.77544239E-01  0.77329667E-01
  0.77115935E-01  0.76903055E-01  0.76691039E-01  0.76479902E-01  0.76269658E-01
  0.76060324E-01  0.75851913E-01  0.75644442E-01  0.75437924E-01  0.75232370E-01
  0.75027789E-01  0.74824190E-01  0.74621577E-01  0.74419951E-01  0.74219312E-01
  0.74019657E-01  0.73820982E-01  0.73623280E-01  0.73426543E-01  0.73230761E-01
  0.73035923E-01  0.72842016E-01  0.72649027E-01  0.72456939E-01  0.72265734E-01
  0.72075391E-01  0.71885888E-01  0.71697200E-01  0.71509299E-01  0.71322157E-01
  0.71135743E-01  0.70950027E-01  0.70764977E-01  0.70580561E-01  0.70396751E-01
  0.70213517E-01  0.70030832E-01  0.69848670E-01  0.69667009E-01  0.69485827E-01
  0.69305105E-01  0.69124825E-01  0.68944972E-01  0.68765532E-01  0.68586493E-01
  0.68407846E-01  0.68229581E-01  0.68051694E-01  0.67874182E-01  0.67697046E-01
  0.67520289E-01  0.67343919E-01  0.67167946E-01  0.66992386E-01  0.66817256E-01
  0.66642577E-01  0.66468375E-01  0.66294673E-01  0.66121501E-01  0.65948887E-01
  0.65776860E-01  0.65605451E-01  0.65434689E-01  0.65264605E-01  0.65095228E-01
  0.64926589E-01  0.64758715E-01  0.64591637E-01  0.64425383E-01  0.64259981E-01
  0.64095458E-01  0.63931840E-01  0.63769152E-01  0.63607415E-01  0.63446649E-01
  0.63286870E-01  0.63128089E-01  0.62970315E-01  0.62813553E-01  0.62657803E-01
  0.62503060E-01  0.62349316E-01  0.62196561E-01  0.62044778E-01  0.61893950E-01
  0.61744057E-01  0.61595075E-01  0.61446979E-01  0.61299740E-01  0.61153329E-01
  0.61007712E-01  0.60862856E-01  0.60718721E-01  0.60575270E-01  0.60432460E-01
  0.60290248E-01  0.60148590E-01  0.60007439E-01  0.59866751E-01  0.59726479E-01
  0.59586581E-01  0.59447014E-01  0.59307736E-01  0.59168711E-01  0.59029902E-01
  0.58891278E-01  0.58752809E-01  0.58614469E-01  0.58476234E-01  0.58338083E-01
  0.58199999E-01  0.58061966E-01  0.57923973E-01  0.57786011E-01  0.57648075E-01
  0.57510164E-01  0.57372280E-01  0.57234431E-01  0.57096627E-01  0.56958884E-01
  0.56821221E-01  0.56683663E-01  0.56546235E-01  0.56408968E-01  0.56271895E-01
  0.56135050E-01  0.55998469E-01  0.55862190E-01  0.55726250E-01  0.55590688E-01
  0.55455541E-01  0.55320849E-01  0.55186648E-01  0.55052978E-01  0.54919874E-01
  0.54787376E-01  0.54655518E-01  0.54524335E-01  0.54393862E-01  0.54264129E-01
  0.54135165E-01  0.54006998E-01  0.53879648E-01  0.53753136E-01  0.53627475E-01
  0.53502677E-01  0.53378747E-01  0.53255687E-01  0.53133497E-01  0.53012169E-01
  0.52891696E-01  0.52772065E-01  0.52653261E-01  0.52535265E-01  0.52418058E-01
  0.52301616E-01  0.52185914E-01  0.52070924E-01  0.51956614E-01  0.51842953E-01
  0.51729904E-01  0.51617430E-01  0.51505491E-01  0.51394048E-01  0.51283058E-01
  0.51172481E-01  0.51062273E-01  0.50952396E-01  0.50842808E-01  0.50733474E-01
  0.50624356E-01  0.50515421E-01  0.50406639E-01  0.50297982E-01  0.50189422E-01
  0.50080937E-01  0.49972506E-01  0.49864109E-01  0.49755730E-01  0.49647357E-01
  0.49538978E-01  0.49430585E-01  0.49322174E-01  0.49213745E-01  0.49105298E-01
  0.48996842E-01  0.48888386E-01  0.48779942E-01  0.48671528E-01  0.48563164E-01
  0.48454871E-01  0.48346674E-01  0.48238598E-01  0.48130671E-01  0.48022920E-01
  0.47915373E-01  0.47808059E-01  0.47701007E-01  0.47594244E-01  0.47487799E-01
  0.47381702E-01  0.47275978E-01  0.47170657E-01  0.47065765E-01  0.46961328E-01
  0.46857371E-01  0.46753918E-01  0.46650990E-01  0.46548607E-01  0.46446784E-01
  0.46345536E-01  0.46244872E-01  0.46144799E-01  0.46045323E-01  0.45946443E-01
  0.45848158E-01  0.45750462E-01  0.45653350E-01  0.45556811E-01  0.45460836E-01
  0.45365410E-01  0.45270521E-01  0.45176151E-01  0.45082284E-01  0.44988900E-01
  0.44895980E-01  0.44803500E-01  0.44711439E-01  0.44619770E-01  0.44528468E-01
  0.44437507E-01  0.44346861E-01  0.44256503E-01  0.44166408E-01  0.44076550E-01
  0.43986906E-01  0.43897455E-01  0.43808178E-01  0.43719056E-01  0.43630073E-01
  0.43541217E-01  0.43452475E-01  0.43363837E-01  0.43275296E-01  0.43186844E-01
  0.43098476E-01  0.43010190E-01  0.42921984E-01  0.42833859E-01  0.42745816E-01
  0.42657862E-01  0.42570002E-01  0.42482246E-01  0.42394605E-01  0.42307093E-01
  0.42219725E-01  0.42132518E-01  0.42045489E-01  0.41958656E-01  0.41872038E-01
  0.41785654E-01  0.41699521E-01  0.41613657E-01  0.41528079E-01  0.41442802E-01
  0.41357841E-01  0.41273210E-01  0.41188923E-01  0.41104990E-01  0.41021425E-01
  0.40938236E-01  0.40855433E-01  0.40773024E-01  0.40691014E-01  0.40609408E-01
 gradient corrections used for XC
           5
 core charge-density (partial)
  0.32756800E+01  0.32743259E+01  0.32702674E+01  0.32635154E+01  0.32540879E+01
  0.32420102E+01  0.32273144E+01  0.32100397E+01  0.31902316E+01  0.31679422E+01
  0.31432295E+01  0.31161575E+01  0.30867957E+01  0.30552185E+01  0.30215055E+01
  0.29857403E+01  0.29480109E+01  0.29084087E+01  0.28670284E+01  0.28239673E+01
  0.27793255E+01  0.27332046E+01  0.26857080E+01  0.26369402E+01  0.25870063E+01
  0.25360120E+01  0.24840626E+01  0.24312633E+01  0.23777185E+01  0.23235313E+01
  0.22688037E+01  0.22136357E+01  0.21581256E+01  0.21023694E+01  0.20464605E+01
  0.19904898E+01  0.19345452E+01  0.18787118E+01  0.18230713E+01  0.17677021E+01
  0.17126794E+01  0.16580746E+01  0.16039557E+01  0.15503871E+01  0.14974295E+01
  0.14451397E+01  0.13935712E+01  0.13427735E+01  0.12927926E+01  0.12436709E+01
  0.11954470E+01  0.11481562E+01  0.11018303E+01  0.10564976E+01  0.10121834E+01
  0.96890941E+00  0.92669449E+00  0.88555441E+00  0.84550202E+00  0.80654741E+00
  0.76869794E+00  0.73195845E+00  0.69633129E+00  0.66181648E+00  0.62841184E+00
  0.59611306E+00  0.56491387E+00  0.53480614E+00  0.50577995E+00  0.47782380E+00
  0.45092464E+00  0.42506799E+00  0.40023812E+00  0.37641806E+00  0.35358976E+00
  0.33173419E+00  0.31083143E+00  0.29086074E+00  0.27180070E+00  0.25362924E+00
  0.23632379E+00  0.21986131E+00  0.20421839E+00  0.18937131E+00  0.17529614E+00
  0.16196878E+00  0.14936503E+00  0.13746066E+00  0.12623146E+00  0.11565330E+00
  0.10570217E+00  0.96354221E-01  0.87585851E-01  0.79373697E-01  0.71694700E-01
  0.64526130E-01  0.57845625E-01  0.51631217E-01  0.45861359E-01  0.40514949E-01
  0.35571354E-01  0.31010428E-01  0.26812528E-01  0.22958529E-01  0.19429838E-01
  0.16208404E-01  0.13276727E-01  0.10617863E-01  0.82154318E-02  0.60536163E-02
  0.41171685E-02  0.23914069E-02  0.86221642E-03 -0.48395467E-03 -0.16600983E-02
 -0.26786516E-02 -0.35515032E-02 -0.42900000E-02 -0.49049552E-02 -0.54066574E-02
 -0.58048800E-02 -0.61088916E-02 -0.63274670E-02 -0.64688990E-02 -0.65410099E-02
 -0.65511648E-02 -0.65062837E-02 -0.64128556E-02 -0.62769514E-02 -0.61042380E-02
 -0.58999922E-02 -0.56691148E-02 -0.54161447E-02 -0.51452733E-02 -0.48603586E-02
 -0.45649395E-02 -0.42622499E-02 -0.39552327E-02 -0.36465537E-02 -0.33386155E-02
 -0.30335709E-02 -0.27333364E-02 -0.24396051E-02 -0.21538597E-02 -0.18773849E-02
 -0.16112801E-02 -0.13564706E-02 -0.11137202E-02 -0.88364173E-03 -0.66670820E-03
 -0.46326360E-03 -0.27353293E-03 -0.97632105E-04  0.64422559E-04  0.21270526E-03
  0.34737201E-03  0.46865227E-03  0.57684105E-03  0.67229130E-03  0.75540678E-03
  0.82663522E-03  0.88646190E-03  0.93540361E-03  0.97400293E-03  0.10028229E-02
  0.10224420E-02  0.10334497E-02  0.10364417E-02  0.10320165E-02  0.10207714E-02
  0.10032991E-02  0.98018482E-03  0.95200351E-03  0.91931723E-03  0.88267299E-03
  0.84260076E-03  0.79961178E-03  0.75419700E-03  0.70682583E-03  0.65794510E-03
  0.60797816E-03  0.55732422E-03  0.50635784E-03  0.45542863E-03  0.40486102E-03
  0.35495429E-03  0.30598263E-03  0.25819538E-03  0.21181740E-03  0.16704948E-03
  0.12406890E-03  0.83030041E-04  0.44065135E-04  0.72849869E-05 -0.27220166E-04
 -0.59379777E-04 -0.89142066E-04 -0.11647305E-03 -0.14135555E-03 -0.16378820E-03
 -0.18378436E-03 -0.20137115E-03 -0.21658835E-03 -0.22948737E-03 -0.24013023E-03
 -0.24858851E-03 -0.25494236E-03 -0.25927948E-03 -0.26169420E-03 -0.26228646E-03
 -0.26116099E-03 -0.25842634E-03 -0.25419410E-03 -0.24857803E-03 -0.24169333E-03
 -0.23365590E-03 -0.22458161E-03 -0.21458569E-03 -0.20378211E-03 -0.19228299E-03
 -0.18019810E-03 -0.16763438E-03 -0.15469549E-03 -0.14148141E-03 -0.12808813E-03
 -0.11460728E-03 -0.10112591E-03 -0.87726210E-04 -0.74485386E-04 -0.61475446E-04
 -0.48763111E-04 -0.36409726E-04 -0.24471214E-04 -0.12998053E-04 -0.20352935E-05
  0.83774038E-05  0.18205700E-04  0.27420485E-04  0.35997765E-04  0.43918523E-04
  0.51168563E-04  0.57738340E-04  0.63622767E-04  0.68821016E-04  0.73336297E-04
  0.77175636E-04  0.80349640E-04  0.82872254E-04  0.84760512E-04  0.86034289E-04
  0.86716045E-04  0.86830568E-04  0.86404721E-04  0.85467190E-04  0.84048229E-04
  0.82179418E-04  0.79893416E-04  0.77223730E-04  0.74204484E-04  0.70870198E-04
  0.67255575E-04  0.63395299E-04  0.59323839E-04  0.55075270E-04  0.50683095E-04
  0.46180089E-04  0.41598147E-04  0.36968145E-04  0.32319818E-04  0.27681643E-04
  0.23080735E-04  0.18542764E-04  0.14091871E-04  0.97506046E-05  0.55398666E-05
  0.14788684E-05 -0.24149002E-05 -0.61256925E-05 -0.96395154E-05 -0.12944130E-04
 -0.16029043E-04 -0.18885489E-04 -0.21506401E-04 -0.23886381E-04 -0.26021653E-04
 -0.27910016E-04 -0.29550788E-04 -0.30944744E-04 -0.32094050E-04 -0.33002190E-04
 -0.33673891E-04 -0.34115046E-04 -0.34332626E-04 -0.34334601E-04 -0.34129851E-04
 -0.33728078E-04 -0.33139717E-04 -0.32375850E-04 -0.31448111E-04 -0.30368603E-04
 -0.29149810E-04 -0.27804508E-04 -0.26345684E-04 -0.24786457E-04 -0.23139992E-04
 -0.21419430E-04 -0.19637812E-04 -0.17808014E-04 -0.15942673E-04 -0.14054135E-04
 -0.12154389E-04 -0.10255020E-04 -0.83671567E-05 -0.65014253E-05 -0.46679131E-05
 -0.28761303E-05 -0.11349798E-05  0.54726935E-06  0.21630044E-05  0.37052859E-05
  0.51678612E-05  0.65451735E-05  0.78323661E-05  0.90252834E-05  0.10120468E-04
  0.11115152E-04  0.12007251E-04  0.12795344E-04  0.13478662E-04  0.14057064E-04
  0.14531018E-04  0.14901572E-04  0.15170331E-04  0.15339423E-04  0.15411470E-04
  0.15389557E-04  0.15277193E-04  0.15078281E-04  0.14797077E-04  0.14438157E-04
  0.14006378E-04  0.13506841E-04  0.12944852E-04  0.12325888E-04  0.11655557E-04
  0.10939563E-04  0.10183670E-04  0.93936693E-05  0.85753432E-05  0.77344348E-05
  0.68766158E-05  0.60074582E-05  0.51324052E-05  0.42567462E-05  0.33855915E-05
  0.25238500E-05  0.16762087E-05  0.84711386E-06  0.40753991E-07 -0.73895464E-06
 -0.14883809E-05 -0.22041894E-05 -0.28833495E-05 -0.35231419E-05 -0.41211632E-05
 -0.46753294E-05 -0.51838764E-05 -0.56453593E-05 -0.60586504E-05 -0.64229342E-05
 -0.67377021E-05 -0.70027453E-05 -0.72181457E-05 -0.73842658E-05 -0.75017380E-05
 -0.75714518E-05 -0.75945402E-05 -0.75723662E-05 -0.75065068E-05 -0.73987376E-05
 -0.72510164E-05 -0.70654665E-05 -0.68443588E-05 -0.65900951E-05 -0.63051898E-05
 -0.59922527E-05 -0.56539706E-05 -0.52930905E-05 -0.49124018E-05 -0.45147193E-05
 -0.41028667E-05 -0.36796604E-05 -0.32478940E-05 -0.28103231E-05 -0.23696511E-05
 -0.19285156E-05 -0.14894758E-05 -0.10550000E-05 -0.62745530E-06 -0.20909676E-06
  0.19794152E-06  0.59165478E-06  0.97017492E-06  0.13317768E-05  0.16748838E-05
  0.19980717E-05  0.23000726E-05  0.25797771E-05  0.28362358E-05  0.30686599E-05
  0.32764205E-05  0.34590479E-05  0.36162292E-05  0.37478053E-05  0.38537675E-05
  0.39342529E-05  0.39895394E-05  0.40200402E-05  0.40262972E-05  0.40089742E-05
  0.39688501E-05  0.39068104E-05  0.38238399E-05  0.37210137E-05  0.35994891E-05
  0.34604962E-05  0.33053292E-05  0.31353373E-05  0.29519155E-05  0.27564953E-05
  0.25505361E-05  0.23355156E-05  0.21129214E-05  0.18842424E-05  0.16509600E-05
  0.14145406E-05  0.11764271E-05  0.93803222E-06  0.70073068E-06  0.46585308E-06
  0.23467942E-06  0.84333889E-08 -0.21172297E-06 -0.42469407E-06 -0.62945506E-06
 -0.82505569E-06 -0.10106235E-05 -0.11853668E-05 -0.13485766E-05 -0.14996286E-05
 -0.16379841E-05 -0.17631912E-05 -0.18748844E-05 -0.19727847E-05 -0.20566988E-05
 -0.21265176E-05 -0.21822150E-05 -0.22238455E-05 -0.22515419E-05 -0.22655123E-05
 -0.22660372E-05 -0.22534657E-05 -0.22282121E-05 -0.21907514E-05 -0.21416156E-05
 -0.20813887E-05 -0.20107022E-05 -0.19302308E-05 -0.18406866E-05 -0.17428150E-05
 -0.16373890E-05 -0.15252048E-05 -0.14070761E-05 -0.12838294E-05 -0.11562990E-05
 -0.10253223E-05 -0.89173468E-06 -0.75636511E-06 -0.62003160E-06 -0.48353692E-06
 -0.34766443E-06 -0.21317425E-06 -0.80799546E-07  0.48756881E-07  0.17482578E-06
  0.29677436E-06  0.41400892E-06  0.52597717E-06  0.63217035E-06  0.73212495E-06
  0.82542422E-06  0.91169930E-06  0.99063015E-06  0.10619461E-05  0.11254262E-05
  0.11808993E-05  0.12282434E-05  0.12673857E-05  0.12983015E-05  0.13210131E-05
  0.13355888E-05  0.13421410E-05  0.13408249E-05  0.13318364E-05  0.13154102E-05
  0.12918171E-05  0.12613622E-05  0.12243820E-05  0.11812418E-05  0.11323332E-05
  0.10780708E-05  0.10188901E-05  0.95524369E-06  0.88759889E-06  0.81643460E-06
  0.74223837E-06  0.66550345E-06  0.58672590E-06  0.50640174E-06  0.42502418E-06
  0.34308091E-06  0.26105152E-06  0.17940498E-06  0.98597250E-07  0.19069055E-07
 -0.58756252E-07 -0.13447466E-06 -0.20770331E-06 -0.27808217E-06 -0.34527552E-06
 -0.40897328E-06 -0.46889215E-06 -0.52477660E-06 -0.57639970E-06 -0.62356367E-06
 -0.66610040E-06 -0.70387168E-06 -0.73676934E-06 -0.76471512E-06 -0.78766049E-06
 -0.80558624E-06 -0.81850192E-06 -0.82644517E-06 -0.82948085E-06 -0.82770009E-06
 -0.82121921E-06 -0.81017848E-06 -0.79474084E-06 -0.77509043E-06 -0.75143117E-06
 -0.72398512E-06 -0.69299085E-06 -0.65870175E-06 -0.62138431E-06 -0.58131629E-06
 -0.53878494E-06 -0.49408522E-06 -0.44751792E-06 -0.39938787E-06 -0.35000217E-06
 -0.29966839E-06 -0.24869285E-06 -0.19737890E-06 -0.14602535E-06 -0.94924807E-07
 -0.44362246E-07  0.53864758E-08  0.54055953E-07  0.10139250E-06  0.14715532E-06
  0.19111759E-06  0.23306743E-06  0.27280877E-06  0.31016215E-06  0.34496531E-06
  0.37707382E-06  0.40636145E-06  0.43272054E-06  0.45606217E-06  0.47631633E-06
  0.49343187E-06  0.50737640E-06  0.51813612E-06  0.52571546E-06  0.53013672E-06
  0.53143956E-06  0.52968041E-06  0.52493184E-06  0.51728178E-06  0.50683276E-06
  0.49370099E-06  0.47801546E-06  0.45991696E-06  0.43955701E-06  0.41709685E-06
  0.39270630E-06  0.36656262E-06  0.33884943E-06  0.30975548E-06  0.27947353E-06
  0.24819919E-06  0.21612974E-06  0.18346301E-06  0.15039625E-06  0.11712504E-06
  0.83842224E-07  0.50736895E-07  0.17993389E-07 -0.14209645E-07 -0.45700130E-07
 -0.76313405E-07 -0.10589300E-06 -0.13429134E-06 -0.16137042E-06 -0.18700238E-06
 -0.21107001E-06 -0.23346722E-06 -0.25409943E-06 -0.27288382E-06 -0.28974963E-06
 -0.30463828E-06 -0.31750348E-06 -0.32831126E-06 -0.33703991E-06 -0.34367984E-06
 -0.34823346E-06 -0.35071489E-06 -0.35114966E-06 -0.34957437E-06 -0.34603625E-06
 -0.34059269E-06 -0.33331077E-06 -0.32426664E-06 -0.31354493E-06 -0.30123815E-06
 -0.28744600E-06 -0.27227467E-06 -0.25583612E-06 -0.23824735E-06 -0.21962967E-06
 -0.20010787E-06 -0.17980955E-06 -0.15886426E-06 -0.13740282E-06 -0.11555648E-06
 -0.93456232E-07 -0.71232074E-07 -0.49012277E-07 -0.26922711E-07 -0.50861828E-08
  0.16378199E-07  0.37355621E-07  0.57736136E-07  0.77415180E-07  0.96294072E-07
  0.11428045E-06  0.13128868E-06  0.14724020E-06  0.16206386E-06  0.17569615E-06
  0.18808146E-06  0.19917218E-06  0.20892891E-06  0.21732047E-06  0.22432392E-06
  0.22992460E-06  0.23411601E-06  0.23689971E-06  0.23828517E-06  0.23828958E-06
  0.23693761E-06  0.23426114E-06  0.23029894E-06  0.22509635E-06  0.21870489E-06
  0.21118186E-06  0.20258994E-06  0.19299672E-06  0.18247423E-06  0.17109847E-06
  0.15894892E-06  0.14610801E-06  0.13266062E-06  0.11869356E-06  0.10429504E-06
  0.89554154E-07  0.74560385E-07  0.59403060E-07  0.44170877E-07  0.28951407E-07
  0.13830626E-07 -0.11075409E-08 -0.15781653E-07 -0.30113172E-07 -0.44026849E-07
 -0.57451090E-07 -0.70318299E-07 -0.82565183E-07 -0.94133035E-07 -0.10496799E-06
 -0.11502123E-06 -0.12424919E-06 -0.13261369E-06 -0.14008210E-06 -0.14662736E-06
 -0.15222810E-06 -0.15686864E-06 -0.16053896E-06 -0.16323470E-06 -0.16495707E-06
 -0.16571273E-06 -0.16551368E-06 -0.16437712E-06 -0.16232523E-06 -0.15938498E-06
 -0.15558789E-06 -0.15096980E-06 -0.14557056E-06 -0.13943376E-06 -0.13260643E-06
 -0.12513870E-06 -0.11708349E-06 -0.10849613E-06 -0.99434039E-07 -0.89956374E-07
 -0.80123640E-07 -0.69997350E-07 -0.59639652E-07 -0.49112977E-07 -0.38479680E-07
 -0.27801691E-07 -0.17140175E-07 -0.65552008E-08  0.38945765E-08  0.14152225E-07
  0.24162824E-07  0.33873743E-07  0.43234896E-07  0.52198985E-07  0.60721717E-07
  0.68762008E-07  0.76282156E-07  0.83248003E-07  0.89629066E-07  0.95398651E-07
  0.10053394E-06  0.10501606E-06  0.10883012E-06  0.11196523E-06  0.11441452E-06
  0.11617507E-06  0.11724791E-06  0.11763791E-06  0.11735374E-06  0.11640770E-06
  0.11481564E-06  0.11259681E-06  0.10977367E-06  0.10637173E-06  0.10241939E-06
  0.97947660E-07  0.92990019E-07  0.87582146E-07  0.81761699E-07  0.75568069E-07
  0.69042134E-07  0.62226002E-07  0.55162761E-07  0.47896217E-07  0.40470637E-07
  0.32930498E-07  0.25320227E-07  0.17683957E-07  0.10065283E-07  0.25070240E-08
 -0.49490030E-08 -0.12262205E-07 -0.19393421E-07 -0.26305118E-07 -0.32961580E-07
 -0.39329079E-07 -0.45376033E-07 -0.51073151E-07 -0.56393562E-07 -0.61312931E-07
 -0.65809554E-07 -0.69864441E-07 -0.73461381E-07 -0.76586991E-07 -0.79230748E-07
 -0.81385004E-07 -0.83044986E-07 -0.84208778E-07 -0.84877291E-07 -0.85054213E-07
 -0.84745945E-07 -0.83961529E-07 -0.82712553E-07 -0.81013046E-07 -0.78879371E-07
 -0.76330088E-07 -0.73385823E-07 -0.70069119E-07 -0.66404281E-07 -0.62417215E-07
 -0.58135254E-07 -0.53586988E-07 -0.48802083E-07 -0.43811098E-07 -0.38645298E-07
 -0.33336474E-07 -0.27916750E-07 -0.22418402E-07 -0.16873671E-07 -0.11314587E-07
 -0.57727869E-08 -0.27934713E-09  0.51353855E-08  0.10441953E-07  0.15611936E-07
  0.20618105E-07  0.25434547E-07  0.30036798E-07  0.34401958E-07  0.38508795E-07
  0.42337842E-07  0.45871481E-07  0.49094014E-07  0.51991720E-07  0.54552912E-07
  0.56767966E-07  0.58629345E-07  0.60131618E-07  0.61271453E-07  0.62047608E-07
  0.62460910E-07  0.62514218E-07  0.62212378E-07  0.61562168E-07  0.60572234E-07
  0.59253010E-07  0.57616638E-07  0.55676877E-07  0.53448994E-07  0.50949668E-07
  0.48196869E-07  0.45209740E-07  0.42008473E-07  0.38614184E-07  0.35048775E-07
  0.31334805E-07  0.27495352E-07  0.23553877E-07  0.19534086E-07  0.15459791E-07
  0.11354781E-07  0.72426833E-08  0.31468334E-08 -0.90984924E-09 -0.49049863E-08
 -0.88168581E-08 -0.12624517E-07 -0.16307892E-07 -0.19847895E-07 -0.23226506E-07
 -0.26426869E-07 -0.29433360E-07 -0.32231669E-07 -0.34808853E-07 -0.37153395E-07
 -0.39255247E-07 -0.41105867E-07 -0.42698246E-07 -0.44026927E-07 -0.45088011E-07
 -0.45879164E-07 -0.46399603E-07 -0.46650080E-07 -0.46632859E-07 -0.46351682E-07
 -0.45811727E-07 -0.45019558E-07 -0.43983074E-07 -0.42711440E-07 -0.41215024E-07
 -0.39505320E-07 -0.37594866E-07 -0.35497165E-07 -0.33226591E-07 -0.30798298E-07
 -0.28228125E-07 -0.25532497E-07 -0.22728327E-07 -0.19832910E-07 -0.16863825E-07
 -0.13838829E-07 -0.10775759E-07 -0.76924272E-08 -0.46065208E-08 -0.15355073E-08
  0.15034626E-08  0.44936471E-08  0.74188015E-08  0.10263263E-07  0.13012032E-07
  0.15650844E-07  0.18166247E-07  0.20545658E-07  0.22777429E-07  0.24850895E-07
  0.26756425E-07  0.28485462E-07  0.30030553E-07  0.31385380E-07  0.32544782E-07
  0.33504765E-07  0.34262510E-07  0.34816375E-07  0.35165890E-07  0.35311739E-07
  0.35255747E-07  0.35000853E-07  0.34551076E-07  0.33911483E-07  0.33088143E-07
  0.32088084E-07  0.30919236E-07  0.29590381E-07  0.28111085E-07  0.26491640E-07
  0.24742997E-07  0.22876692E-07  0.20904775E-07  0.18839738E-07  0.16694436E-07
  0.14482013E-07  0.12215821E-07  0.99093468E-08  0.75761296E-08  0.52296877E-08
  0.28834413E-08  0.55063863E-09 -0.17557162E-08 -0.40229333E-08 -0.62387043E-08
 -0.83911669E-08 -0.10468965E-07 -0.12461309E-07 -0.14358023E-07 -0.16149602E-07
 -0.17827253E-07 -0.19382933E-07 -0.20809390E-07 -0.22100189E-07 -0.23249743E-07
 -0.24253328E-07 -0.25107104E-07 -0.25808120E-07 -0.26354326E-07 -0.26744567E-07
 -0.26978584E-07 -0.27056998E-07 -0.26981302E-07 -0.26753837E-07 -0.26377770E-07
 -0.25857067E-07 -0.25196459E-07 -0.24401407E-07 -0.23478060E-07 -0.22433217E-07
 -0.21274276E-07 -0.20009185E-07 -0.18646396E-07 -0.17194803E-07 -0.15663693E-07
 -0.14062689E-07 -0.12401686E-07 -0.10690797E-07 -0.89402942E-08 -0.71605449E-08
 -0.53619553E-08 -0.35549108E-08 -0.17497179E-08  0.43453343E-10  0.18146239E-08
  0.35540604E-08  0.52523261E-08  0.69003311E-08  0.84893786E-08  0.10011209E-07
  0.11458042E-07  0.12822614E-07  0.14098211E-07  0.15278703E-07  0.16358569E-07
  0.17332921E-07  0.18197524E-07  0.18948814E-07  0.19583906E-07  0.20100606E-07
 kinetic energy density (partial)
  0.31013432E+03  0.31001207E+03  0.30964563E+03  0.30903592E+03  0.30818446E+03
  0.30709339E+03  0.30576543E+03  0.30420386E+03  0.30241256E+03  0.30039592E+03
  0.29815886E+03  0.29570682E+03  0.29304569E+03  0.29018182E+03  0.28712198E+03
  0.28387334E+03  0.28044339E+03  0.27684000E+03  0.27307130E+03  0.26914568E+03
  0.26507178E+03  0.26085840E+03  0.25651454E+03  0.25204928E+03  0.24747183E+03
  0.24279143E+03  0.23801738E+03  0.23315893E+03  0.22822535E+03  0.22322581E+03
  0.21816942E+03  0.21306514E+03  0.20792182E+03  0.20274815E+03  0.19755262E+03
  0.19234351E+03  0.18712892E+03  0.18191666E+03  0.17671432E+03  0.17152922E+03
  0.16636839E+03  0.16123859E+03  0.15614628E+03  0.15109761E+03  0.14609841E+03
  0.14115423E+03  0.13627027E+03  0.13145144E+03  0.12670230E+03  0.12202714E+03
  0.11742988E+03  0.11291417E+03  0.10848334E+03  0.10414039E+03  0.99888050E+02
  0.95728752E+02  0.91664632E+02  0.87697554E+02  0.83829106E+02  0.80060616E+02
  0.76393155E+02  0.72827551E+02  0.69364392E+02  0.66004043E+02  0.62746650E+02
  0.59592153E+02  0.56540292E+02  0.53590625E+02  0.50742528E+02  0.47995213E+02
  0.45347734E+02  0.42798999E+02  0.40347777E+02  0.37992712E+02  0.35732329E+02
  0.33565043E+02  0.31489173E+02  0.29502945E+02  0.27604504E+02  0.25791922E+02
  0.24063207E+02  0.22416308E+02  0.20849127E+02  0.19359523E+02  0.17945321E+02
  0.16604317E+02  0.15334287E+02  0.14132990E+02  0.12998178E+02  0.11927598E+02
  0.10918999E+02  0.99701381E+01  0.90787822E+01  0.82427151E+01  0.74597407E+01
  0.67276870E+01  0.60444095E+01  0.54077950E+01  0.48157640E+01  0.42662743E+01
  0.37573230E+01  0.32869489E+01  0.28532348E+01  0.24543091E+01  0.20883476E+01
  0.17535749E+01  0.14482654E+01  0.11707448E+01  0.91939034E+00  0.69263190E+00
  0.48895228E+00  0.30688755E+00  0.14502724E+00  0.20143579E-02 -0.12345475E+00
 -0.23263062E+00 -0.32671104E+00 -0.40684154E+00 -0.47411597E+00 -0.52957714E+00
 -0.57421768E+00 -0.60898080E+00 -0.63476125E+00 -0.65240635E+00 -0.66271700E+00
 -0.66644882E+00 -0.66431330E+00 -0.65697901E+00 -0.64507287E+00 -0.62918136E+00
 -0.60985191E+00 -0.58759414E+00 -0.56288125E+00 -0.53615137E+00 -0.50780890E+00
 -0.47822589E+00 -0.44774339E+00 -0.41667281E+00 -0.38529730E+00 -0.35387305E+00
 -0.32263065E+00 -0.29177636E+00 -0.26149347E+00 -0.23194348E+00 -0.20326742E+00
 -0.17558705E+00 -0.14900602E+00 -0.12361109E+00 -0.99473184E-01 -0.76648583E-01
 -0.55179923E-01 -0.35097255E-01 -0.16419035E-01  0.84690508E-03  0.16702440E-01
  0.31158259E-01  0.44233009E-01  0.55952485E-01  0.66348850E-01  0.75459890E-01
  0.83328315E-01  0.90001086E-01  0.95528786E-01  0.99965023E-01  0.10336587E+00
  0.10578934E+00  0.10729489E+00  0.10794298E+00  0.10779460E+00  0.10691095E+00
  0.10535301E+00  0.10318124E+00  0.10045528E+00  0.97233649E-01  0.93573529E-01
  0.89530517E-01  0.85158443E-01  0.80509191E-01  0.75632552E-01  0.70576098E-01
  0.65385072E-01  0.60102304E-01  0.54768142E-01  0.49420404E-01  0.44094341E-01
  0.38822623E-01  0.33635336E-01  0.28559987E-01  0.23621537E-01  0.18842426E-01
  0.14242625E-01  0.98396891E-02  0.56488196E-02  0.16829394E-02 -0.20472303E-02
 -0.55330842E-02 -0.87680424E-02 -0.11747455E-01 -0.14468505E-01 -0.16930102E-01
 -0.19132782E-01 -0.21078599E-01 -0.22771016E-01 -0.24214799E-01 -0.25415909E-01
 -0.26381393E-01 -0.27119275E-01 -0.27638455E-01 -0.27948604E-01 -0.28060062E-01
 -0.27983737E-01 -0.27731014E-01 -0.27313659E-01 -0.26743731E-01 -0.26033496E-01
 -0.25195347E-01 -0.24241724E-01 -0.23185043E-01 -0.22037625E-01 -0.20811634E-01
 -0.19519017E-01 -0.18171445E-01 -0.16780267E-01 -0.15356460E-01 -0.13910590E-01
 -0.12452774E-01 -0.10992646E-01 -0.95393311E-02 -0.81014199E-02 -0.66869486E-02
 -0.53033843E-02 -0.39576122E-02 -0.26559279E-02 -0.14040331E-02 -0.20703428E-03
  0.93055475E-03  0.20048077E-02  0.30123773E-02  0.39504844E-02  0.48169047E-02
  0.56099521E-02  0.63284617E-02  0.69717693E-02  0.75396897E-02  0.80324940E-02
  0.84508845E-02  0.87959697E-02  0.90692371E-02  0.92725263E-02  0.94080008E-02
  0.94781198E-02  0.94856093E-02  0.94334341E-02  0.93247685E-02  0.91629683E-02
  0.89515426E-02  0.86941267E-02  0.83944549E-02  0.80563340E-02  0.76836189E-02
  0.72801873E-02  0.68499170E-02  0.63966631E-02  0.59242373E-02  0.54363879E-02
  0.49367810E-02  0.44289836E-02  0.39164472E-02  0.34024936E-02  0.28903018E-02
  0.23828958E-02  0.18831345E-02  0.13937027E-02  0.91710367E-03  0.45565249E-03
  0.11471546E-04 -0.41351330E-03 -0.81757495E-03 -0.11991863E-02 -0.15570200E-02
 -0.18899475E-02 -0.21970367E-02 -0.24775489E-02 -0.27309341E-02 -0.29568265E-02
 -0.31550386E-02 -0.33255539E-02 -0.34685205E-02 -0.35842426E-02 -0.36731720E-02
 -0.37358997E-02 -0.37731459E-02 -0.37857509E-02 -0.37746648E-02 -0.37409376E-02
 -0.36857086E-02 -0.36101965E-02 -0.35156888E-02 -0.34035315E-02 -0.32751189E-02
 -0.31318835E-02 -0.29752863E-02 -0.28068071E-02 -0.26279351E-02 -0.24401601E-02
 -0.22449636E-02 -0.20438109E-02 -0.18381432E-02 -0.16293700E-02 -0.14188627E-02
 -0.12079479E-02 -0.99790161E-03 -0.78994406E-03 -0.58523472E-03 -0.38486813E-03
 -0.18987015E-03 -0.11947932E-05  0.18027844E-03  0.35374668E-03  0.51848532E-03
  0.67384908E-03  0.81927265E-03  0.95427079E-03  0.10784380E-02  0.11914478E-02
  0.12930516E-02  0.13830767E-02  0.14614252E-02  0.15280707E-02  0.15830565E-02
  0.16264922E-02  0.16585508E-02  0.16794652E-02  0.16895245E-02  0.16890704E-02
  0.16784931E-02  0.16582272E-02  0.16287478E-02  0.15905661E-02  0.15442248E-02
  0.14902943E-02  0.14293684E-02  0.13620595E-02  0.12889949E-02  0.12108126E-02
  0.11281570E-02  0.10416751E-02  0.95201288E-03  0.85981143E-03  0.76570352E-03
  0.67031027E-03  0.57423808E-03  0.47807563E-03  0.38239120E-03  0.28773013E-03
  0.19461255E-03  0.10353130E-03  0.14950086E-04 -0.70698100E-04 -0.15301240E-03
 -0.23162520E-03 -0.30620308E-03 -0.37644751E-03 -0.44209530E-03 -0.50291888E-03
 -0.55872636E-03 -0.60936136E-03 -0.65470270E-03 -0.69466382E-03 -0.72919212E-03
 -0.75826808E-03 -0.78190422E-03 -0.80014397E-03 -0.81306031E-03 -0.82075441E-03
 -0.82335406E-03 -0.82101207E-03 -0.81390454E-03 -0.80222909E-03 -0.78620303E-03
 -0.76606142E-03 -0.74205523E-03 -0.71444933E-03 -0.68352053E-03 -0.64955565E-03
 -0.61284958E-03 -0.57370328E-03 -0.53242197E-03 -0.48931320E-03 -0.44468507E-03
 -0.39884447E-03 -0.35209539E-03 -0.30473727E-03 -0.25706353E-03 -0.20936003E-03
 -0.16190375E-03 -0.11496151E-03 -0.68788774E-04 -0.23628596E-04  0.20289371E-04
  0.62749736E-04  0.10355213E-03  0.14251187E-03  0.17946048E-03  0.21424616E-03
  0.24673410E-03  0.27680673E-03  0.30436381E-03  0.32932249E-03  0.35161723E-03
  0.37119962E-03  0.38803815E-03  0.40211786E-03  0.41343992E-03  0.42202113E-03
  0.42789336E-03  0.43110291E-03  0.43170982E-03  0.42978712E-03  0.42542004E-03
  0.41870516E-03  0.40974952E-03  0.39866975E-03  0.38559109E-03  0.37064647E-03
  0.35397550E-03  0.33572355E-03  0.31604071E-03  0.29508086E-03  0.27300068E-03
  0.24995867E-03  0.22611428E-03  0.20162690E-03  0.17665506E-03  0.15135549E-03
  0.12588238E-03  0.10038651E-03  0.75014549E-04  0.49908351E-04  0.25204289E-04
  0.10326517E-05 -0.22482914E-04 -0.45225906E-04 -0.67087418E-04 -0.87966537E-04
 -0.10777068E-03 -0.12641590E-03 -0.14382708E-03 -0.15993813E-03 -0.17469213E-03
 -0.18804135E-03 -0.19994731E-03 -0.21038071E-03 -0.21932137E-03 -0.22675806E-03
 -0.23268838E-03 -0.23711848E-03 -0.24006281E-03 -0.24154386E-03 -0.24159175E-03
 -0.24024392E-03 -0.23754468E-03 -0.23354482E-03 -0.22830115E-03 -0.22187598E-03
 -0.21433669E-03 -0.20575519E-03 -0.19620741E-03 -0.18577274E-03 -0.17453357E-03
 -0.16257466E-03 -0.14998268E-03 -0.13684565E-03 -0.12325242E-03 -0.10929212E-03
 -0.95053704E-04 -0.80625446E-04 -0.66094440E-04 -0.51546165E-04 -0.37064045E-04
 -0.22729032E-04 -0.86192184E-05  0.51905279E-05  0.18628901E-04  0.31628465E-04
  0.44125938E-04  0.56062437E-04  0.67383704E-04  0.78040290E-04  0.87987714E-04
  0.97186592E-04  0.10560273E-03  0.11320719E-03  0.11997632E-03  0.12589175E-03
  0.13094040E-03  0.13511439E-03  0.13841096E-03  0.14083238E-03  0.14238581E-03
  0.14308315E-03  0.14294083E-03  0.14197965E-03  0.14022453E-03  0.13770430E-03
  0.13445140E-03  0.13050167E-03  0.12589404E-03  0.12067022E-03  0.11487445E-03
  0.10855315E-03  0.10175463E-03  0.94528764E-04  0.86926690E-04  0.79000480E-04
  0.70802832E-04  0.62386759E-04  0.53805287E-04  0.45111155E-04  0.36356527E-04
  0.27592713E-04  0.18869902E-04  0.10236903E-04  0.17409046E-05 -0.65727512E-05
 -0.14660784E-04 -0.22482170E-04 -0.29998322E-04 -0.37173249E-04 -0.43973701E-04
 -0.50369296E-04 -0.56332622E-04 -0.61839328E-04 -0.66868191E-04 -0.71401165E-04
 -0.75423414E-04 -0.78923322E-04 -0.81892485E-04 -0.84325692E-04 -0.86220882E-04
 -0.87579083E-04 -0.88404345E-04 -0.88703642E-04 -0.88486778E-04 -0.87766264E-04
 -0.86557190E-04 -0.84877086E-04 -0.82745768E-04 -0.80185178E-04 -0.77219214E-04
 -0.73873555E-04 -0.70175475E-04 -0.66153659E-04 -0.61838009E-04 -0.57259450E-04
 -0.52449733E-04 -0.47441241E-04 -0.42266793E-04 -0.36959446E-04 -0.31552310E-04
 -0.26078357E-04 -0.20570236E-04 -0.15060102E-04 -0.95794391E-05 -0.41589030E-05
  0.11718388E-05  0.63842510E-05  0.11451068E-04  0.16346420E-04  0.21045953E-04
  0.25526929E-04  0.29768325E-04  0.33750913E-04  0.37457334E-04  0.40872152E-04
  0.43981909E-04  0.46775152E-04  0.49242460E-04  0.51376456E-04  0.53171805E-04
  0.54625203E-04  0.55735353E-04  0.56502932E-04  0.56930547E-04  0.57022681E-04
  0.56785628E-04  0.56227422E-04  0.55357758E-04  0.54187899E-04  0.52730585E-04
  0.50999929E-04  0.49011313E-04  0.46781270E-04  0.44327373E-04  0.41668110E-04
  0.38822766E-04  0.35811296E-04  0.32654199E-04  0.29372391E-04  0.25987080E-04
  0.22519639E-04  0.18991484E-04  0.15423949E-04  0.11838172E-04  0.82549755E-05
  0.46947555E-05  0.11773773E-05 -0.22779283E-05 -0.56526605E-05 -0.89291385E-05
 -0.12090586E-04 -0.15121206E-04 -0.18006254E-04 -0.20732099E-04 -0.23286279E-04
 -0.25657547E-04 -0.27835915E-04 -0.29812682E-04 -0.31580460E-04 -0.33133189E-04
 -0.34466149E-04 -0.35575955E-04 -0.36460558E-04 -0.37119222E-04 -0.37552511E-04
 -0.37762258E-04 -0.37751526E-04 -0.37524575E-04 -0.37086809E-04 -0.36444726E-04
 -0.35605863E-04 -0.34578726E-04 -0.33372733E-04 -0.31998137E-04 -0.30465955E-04
 -0.28787890E-04 -0.26976254E-04 -0.25043884E-04 -0.23004062E-04 -0.20870430E-04
 -0.18656910E-04 -0.16377614E-04 -0.14046764E-04 -0.11678612E-04 -0.92873542E-05
 -0.68870547E-05 -0.44915681E-05 -0.21144648E-05  0.23104029E-06  0.25321557E-05
  0.47765779E-05  0.69525519E-05  0.90489274E-05  0.11055211E-04  0.12961611E-04
  0.14759086E-04  0.16439374E-04  0.17995032E-04  0.19419457E-04  0.20706914E-04
  0.21852547E-04  0.22852394E-04  0.23703392E-04  0.24403379E-04  0.24951088E-04
  0.25346137E-04  0.25589021E-04  0.25681086E-04  0.25624512E-04  0.25422281E-04
  0.25078150E-04  0.24596611E-04  0.23982859E-04  0.23242743E-04  0.22382725E-04
  0.21409835E-04  0.20331614E-04  0.19156071E-04  0.17891623E-04  0.16547040E-04
  0.15131397E-04  0.13654006E-04  0.12124370E-04  0.10552118E-04  0.89469534E-05
  0.73185939E-05  0.56767202E-05  0.40309195E-05  0.23906341E-05  0.76510991E-06
 -0.83665188E-06 -0.24059414E-05 -0.39343844E-05 -0.54139836E-05 -0.68371570E-05
 -0.81967740E-05 -0.94861876E-05 -0.10699264E-04 -0.11830406E-04 -0.12874580E-04
 -0.13827331E-04 -0.14684798E-04 -0.15443727E-04 -0.16101478E-04 -0.16656031E-04
 -0.17105983E-04 -0.17450551E-04 -0.17689561E-04 -0.17823440E-04 -0.17853205E-04
 -0.17780444E-04 -0.17607303E-04 -0.17336457E-04 -0.16971091E-04 -0.16514873E-04
 -0.15971923E-04 -0.15346784E-04 -0.14644389E-04 -0.13870026E-04 -0.13029301E-04
 -0.12128104E-04 -0.11172570E-04 -0.10169038E-04 -0.91240149E-05 -0.80441336E-05
 -0.69361152E-05 -0.58067287E-05 -0.46627520E-05 -0.35109339E-05 -0.23579560E-05
 -0.12103967E-05 -0.74695070E-07  0.10428827E-05  0.21362758E-05  0.31996602E-05
  0.42274768E-05  0.52144592E-05  0.61556582E-05  0.70464648E-05  0.78826305E-05
  0.86602853E-05  0.93759539E-05  0.10026568E-04  0.10609479E-04  0.11122461E-04
  0.11563726E-04  0.11931916E-04  0.12226111E-04  0.12445825E-04  0.12591002E-04
  0.12662008E-04  0.12659624E-04  0.12585034E-04  0.12439814E-04  0.12225912E-04
  0.11945635E-04  0.11601631E-04  0.11196864E-04  0.10734598E-04  0.10218370E-04
  0.96519648E-05  0.90393944E-05  0.83848675E-05  0.76927645E-05  0.69676094E-05
  0.62140426E-05  0.54367925E-05  0.46406473E-05  0.38304276E-05  0.30109582E-05
  0.21870407E-05  0.13634274E-05  0.54479475E-06 -0.26428190E-06 -0.10593522E-05
 -0.18361143E-05 -0.25904366E-05 -0.33183784E-05 -0.40162095E-05 -0.46804277E-05
 -0.53077750E-05 -0.58952525E-05 -0.64401332E-05 -0.69399730E-05 -0.73926204E-05
 -0.77962243E-05 -0.81492393E-05 -0.84504304E-05 -0.86988745E-05 -0.88939617E-05
 -0.90353932E-05 -0.91231786E-05 -0.91576313E-05 -0.91393618E-05 -0.90692700E-05
 -0.89485356E-05 -0.87786072E-05 -0.85611901E-05 -0.82982330E-05 -0.79919129E-05
 -0.76446200E-05 -0.72589402E-05 -0.68376384E-05 -0.63836397E-05 -0.59000105E-05
 -0.53899394E-05 -0.48567171E-05 -0.43037165E-05 -0.37343722E-05 -0.31521605E-05
 -0.25605788E-05 -0.19631261E-05 -0.13632825E-05 -0.76449050E-06 -0.17013571E-06
  0.41647117E-06  0.99211210E-06  0.15536784E-05  0.20981867E-05  0.26227939E-05
  0.31248114E-05  0.36017176E-05  0.40511699E-05  0.44710156E-05  0.48593006E-05
  0.52142782E-05  0.55344155E-05  0.58183992E-05  0.60651397E-05  0.62737740E-05
  0.64436674E-05  0.65744135E-05  0.66658337E-05  0.67179744E-05  0.67311037E-05
  0.67057068E-05  0.66424801E-05  0.65423239E-05  0.64063350E-05  0.62357972E-05
  0.60321716E-05  0.57970858E-05  0.55323222E-05  0.52398059E-05  0.49215918E-05
  0.45798509E-05  0.42168570E-05  0.38349714E-05  0.34366296E-05  0.30243253E-05
  0.26005964E-05  0.21680094E-05  0.17291450E-05  0.12865832E-05  0.84288835E-06
  0.40059560E-06 -0.37803579E-07 -0.46987458E-06 -0.89325268E-06 -0.13056554E-05
 -0.17048942E-05 -0.20888856E-05 -0.24556615E-05 -0.28033783E-05 -0.31303264E-05
 -0.34349371E-05 -0.37157900E-05 -0.39716188E-05 -0.42013164E-05 -0.44039390E-05
 -0.45787090E-05 -0.47250172E-05 -0.48424238E-05 -0.49306588E-05 -0.49896210E-05
 -0.50193762E-05 -0.50201549E-05 -0.49923482E-05 -0.49365038E-05 -0.48533207E-05
 -0.47436431E-05 -0.46084535E-05 -0.44488658E-05 -0.42661167E-05 -0.40615571E-05
 -0.38366435E-05 -0.35929273E-05 -0.33320459E-05 -0.30557116E-05 -0.27657008E-05
 -0.24638437E-05 -0.21520129E-05 -0.18321122E-05 -0.15060654E-05 -0.11758056E-05
 -0.84326364E-06 -0.51035739E-06 -0.17898125E-06  0.14900437E-06  0.47178306E-06
  0.78759211E-06  0.10947317E-05  0.13915737E-05  0.16765699E-05  0.19482597E-05
  0.22052771E-05  0.24463573E-05  0.26703425E-05  0.28761867E-05  0.30629609E-05
  0.32298557E-05  0.33761853E-05  0.35013891E-05  0.36050337E-05  0.36868132E-05
  0.37465496E-05  0.37841918E-05  0.37998149E-05  0.37936172E-05  0.37659182E-05
  0.37171548E-05  0.36478776E-05  0.35587460E-05  0.34505234E-05  0.33240712E-05
  0.31803431E-05  0.30203778E-05  0.28452930E-05  0.26562771E-05  0.24545823E-05
  0.22415163E-05  0.20184344E-05  0.17867312E-05  0.15478320E-05  0.13031848E-05
  0.10542513E-05  0.80249895E-06  0.54939230E-06  0.29638484E-06  0.44910957E-07
 -0.20362194E-06 -0.44784101E-06 -0.68641533E-06 -0.91806283E-06 -0.11415569E-05
 -0.13557328E-05 -0.15594931E-05 -0.17518133E-05 -0.19317466E-05 -0.20984284E-05
 -0.22510798E-05 -0.23890114E-05 -0.25116256E-05 -0.26184191E-05 -0.27089845E-05
 -0.27830113E-05 -0.28402867E-05 -0.28806952E-05 -0.29042182E-05 -0.29109332E-05
 -0.29010115E-05 -0.28747168E-05 -0.28324018E-05 -0.27745059E-05 -0.27015511E-05
 -0.26141379E-05 -0.25129415E-05 -0.23987067E-05 -0.22722429E-05 -0.21344185E-05
 -0.19861557E-05 -0.18284243E-05 -0.16622359E-05 -0.14886372E-05 -0.13087043E-05
 -0.11235357E-05 -0.93424609E-06 -0.74195990E-06 -0.54780465E-06 -0.35290467E-06
 -0.15837474E-06  0.34686069E-07  0.22520042E-06  0.41211853E-06  0.59442376E-06
  0.77113796E-06  0.94132651E-06  0.11041031E-05  0.12586341E-05  0.14041427E-05
  0.15399126E-05  0.16652911E-05  0.17796925E-05  0.18826001E-05  0.19735685E-05
  0.20522253E-05  0.21182723E-05  0.21714863E-05  0.22117194E-05  0.22388987E-05
 atomic pseudo charge-density
  0.20000000E+01  0.19902945E+01  0.19614773E+01  0.19144285E+01  0.18505570E+01
  0.17717195E+01  0.16801177E+01  0.15781838E+01  0.14684626E+01  0.13534996E+01
  0.12357419E+01  0.11174569E+01  0.10006707E+01  0.88712841E+00  0.77827353E+00
  0.67524455E+00  0.57888595E+00  0.48976950E+00  0.40822294E+00  0.33436267E+00
  0.26812799E+00  0.20931497E+00  0.15760828E+00  0.11261018E+00  0.73866000E-01
  0.40885979E-01  0.13163432E-01 -0.98105308E-02 -0.28535423E-01 -0.43492570E-01
 -0.55138695E-01 -0.63901506E-01 -0.70176951E-01 -0.74327805E-01 -0.76683318E-01
 -0.77539689E-01 -0.77161142E-01 -0.75781461E-01 -0.73605826E-01 -0.70812846E-01
 -0.67556697E-01 -0.63969294E-01 -0.60162450E-01 -0.56229963E-01 -0.52249620E-01
 -0.48285081E-01 -0.44387642E-01 -0.40597855E-01 -0.36947009E-01 -0.33458476E-01
 -0.30148914E-01 -0.27029342E-01 -0.24106090E-01 -0.21381629E-01 -0.18855301E-01
 -0.16523942E-01 -0.14382423E-01 -0.12424107E-01 -0.10641233E-01 -0.90252481E-02
 -0.75670674E-02 -0.62573019E-02 -0.50864368E-02 -0.40449765E-02 -0.31235605E-02
 -0.23130524E-02 -0.16046091E-02 -0.98973175E-03 -0.46030192E-03 -0.86061388E-05
  0.37264934E-03  0.69033174E-03  0.95088105E-03  0.11603144E-02  0.13242342E-02
  0.14478391E-02  0.15359375E-02  0.15929624E-02  0.16229873E-02  0.16297432E-02
  0.16166356E-02  0.15867621E-02  0.15429298E-02  0.14876723E-02  0.14232669E-02
  0.13517511E-02  0.12749386E-02  0.11944354E-02  0.11116540E-02  0.10278290E-02
  0.94403003E-03  0.86117583E-03  0.78004645E-03  0.70129555E-03  0.62546177E-03
  0.55297962E-03  0.48418965E-03  0.41934808E-03  0.35863585E-03  0.30216701E-03
  0.24999666E-03  0.20212825E-03  0.15852037E-03  0.11909306E-03  0.83733577E-04
  0.52301724E-04  0.24634721E-04  0.55163368E-06 -0.20142606E-04 -0.37653560E-04
 -0.52194019E-04 -0.63981080E-04 -0.73233552E-04 -0.80169663E-04 -0.85005050E-04
 -0.87951026E-04 -0.89213074E-04 -0.88989587E-04 -0.87470808E-04 -0.84837966E-04
 -0.81262593E-04 -0.76905995E-04 -0.71918882E-04 -0.66441119E-04 -0.60601612E-04
 -0.54518285E-04 -0.48298168E-04 -0.42037563E-04 -0.35822288E-04 -0.29727982E-04
 -0.23820468E-04 -0.18156166E-04 -0.12782543E-04 -0.77385929E-05 -0.30553424E-05
  0.12436203E-05  0.51416101E-05  0.86282988E-05  0.11699168E-04  0.14354964E-04
  0.16601158E-04  0.18447418E-04  0.19907093E-04  0.20996713E-04  0.21735509E-04
  0.22144951E-04  0.22248313E-04  0.22070258E-04  0.21636452E-04  0.20973202E-04
  0.20107119E-04  0.19064816E-04  0.17872624E-04  0.16556345E-04  0.15141021E-04
  0.13650744E-04  0.12108478E-04  0.10535919E-04  0.89533696E-05  0.73796428E-05
  0.58319880E-05  0.43260365E-05  0.28757682E-05  0.14934965E-05  0.18987119E-06
 -0.10261035E-05 -0.21470356E-05 -0.31670997E-05 -0.40819789E-05 -0.48887972E-05
 -0.55860426E-05 -0.61734828E-05 -0.66520751E-05 -0.70238708E-05 -0.72919166E-05
 -0.74601530E-05 -0.75333115E-05 -0.75168119E-05 -0.74166593E-05 -0.72393431E-05
 -0.69917387E-05 -0.66810115E-05 -0.63145252E-05 -0.58997541E-05 -0.54442002E-05
 -0.49553157E-05 -0.44404312E-05 -0.39066893E-05 -0.33609850E-05 -0.28099117E-05
 -0.22597138E-05 -0.17162462E-05 -0.11849390E-05 -0.67076953E-06 -0.17823988E-06
  0.28863925E-06  0.72635927E-06  0.11319187E-05  0.15028233E-05  0.18370807E-05
  0.21331914E-05  0.23901346E-05  0.26073513E-05  0.27847228E-05  0.29225472E-05
  0.30215125E-05  0.30826680E-05  0.31073939E-05  0.30973686E-05  0.30545360E-05
  0.29810716E-05  0.28793479E-05  0.27519007E-05  0.26013945E-05  0.24305898E-05
  0.22423101E-05  0.20394108E-05  0.18247493E-05  0.16011562E-05  0.13714090E-05
  0.11382072E-05  0.90414924E-06  0.67171249E-06  0.44323439E-06  0.22089653E-06
  0.67108141E-08 -0.19749199E-06 -0.39007141E-06 -0.56958414E-06 -0.73478870E-06
 -0.88464785E-06 -0.10183290E-05 -0.11352027E-05 -0.12348389E-05 -0.13170021E-05
 -0.13816441E-05 -0.14288959E-05 -0.14590581E-05 -0.14725899E-05 -0.14700973E-05
 -0.14523203E-05 -0.14201196E-05 -0.13744627E-05 -0.13164094E-05 -0.12470971E-05
 -0.11677262E-05 -0.10795459E-05 -0.98383883E-06 -0.88190791E-06 -0.77506197E-06
 -0.66460289E-06 -0.55181302E-06 -0.43794341E-06 -0.32420286E-06 -0.21174779E-06
 -0.10167313E-06  0.49958747E-08  0.10731079E-06  0.20440611E-06  0.29550435E-06
  0.37991996E-06  0.45706234E-06  0.52643771E-06  0.58765002E-06  0.64040083E-06
  0.68448834E-06  0.71980543E-06  0.74633696E-06  0.76415618E-06  0.77342057E-06
  0.77436691E-06  0.76730584E-06  0.75261593E-06  0.73073728E-06  0.70216485E-06
  0.66744145E-06  0.62715055E-06  0.58190904E-06  0.53235987E-06  0.47916474E-06
  0.42299692E-06  0.36453420E-06  0.30445204E-06  0.24341707E-06  0.18208086E-06
  0.12107405E-06  0.61000992E-07  0.24347433E-08 -0.54087402E-07 -0.10806788E-06
 -0.15905231E-06 -0.20663238E-06 -0.25044820E-06 -0.29019011E-06 -0.32559993E-06
 -0.35647164E-06 -0.38265159E-06 -0.40403815E-06 -0.42058087E-06 -0.43227921E-06
 -0.43918081E-06 -0.44137931E-06 -0.43901193E-06 -0.43225652E-06 -0.42132854E-06
 -0.40647756E-06 -0.38798373E-06 -0.36615395E-06 -0.34131799E-06 -0.31382448E-06
 -0.28403686E-06 -0.25232932E-06 -0.21908277E-06 -0.18468092E-06 -0.14950636E-06
 -0.11393691E-06 -0.78342061E-07 -0.43079577E-07 -0.84924278E-08  0.25094126E-07
  0.57375139E-07  0.88068324E-07  0.11691609E-06  0.14368727E-06  0.16817858E-06
  0.19021568E-06  0.20965402E-06  0.22637929E-06  0.24030758E-06  0.25138532E-06
  0.25958878E-06  0.26492344E-06  0.26742300E-06  0.26714820E-06  0.26418541E-06
  0.25864496E-06  0.25065937E-06  0.24038137E-06  0.22798178E-06  0.21364732E-06
  0.19757827E-06  0.17998614E-06  0.16109124E-06  0.14112026E-06  0.12030388E-06
  0.98874400E-07  0.77063373E-07  0.55099406E-07  0.33205989E-07  0.11599458E-07
 -0.95129157E-08 -0.29934693E-07 -0.49481878E-07 -0.67984362E-07 -0.85287190E-07
 -0.10125165E-06 -0.11575616E-06 -0.12869700E-06 -0.13998877E-06 -0.14956476E-06
 -0.15737707E-06 -0.16339653E-06 -0.16761249E-06 -0.17003238E-06 -0.17068117E-06
 -0.16960061E-06 -0.16684840E-06 -0.16249713E-06 -0.15663321E-06 -0.14935564E-06
 -0.14077468E-06 -0.13101047E-06 -0.12019162E-06 -0.10845366E-06 -0.95937594E-07
 -0.82788344E-07 -0.69153221E-07 -0.55180434E-07 -0.41017610E-07 -0.26810369E-07
 -0.12700952E-07  0.11730836E-08  0.14680083E-07  0.27695427E-07  0.40102570E-07
  0.51793967E-07  0.62671892E-07  0.72649139E-07  0.81649605E-07  0.89608749E-07
  0.96473923E-07  0.10220459E-06  0.10677240E-06  0.11016116E-06  0.11236671E-06
  0.11339663E-06  0.11326987E-06  0.11201629E-06  0.10967611E-06  0.10629924E-06
  0.10194454E-06  0.96679049E-07  0.90577126E-07  0.83719524E-07  0.76192458E-07
  0.68086627E-07  0.59496216E-07  0.50517898E-07  0.41249821E-07  0.31790620E-07
  0.22238439E-07  0.12689987E-07  0.32396265E-08 -0.60214914E-08 -0.15006240E-07
 -0.23632270E-07 -0.31822705E-07 -0.39506756E-07 -0.46620272E-07 -0.53106209E-07
 -0.58915023E-07 -0.64004971E-07 -0.68342343E-07 -0.71901599E-07 -0.74665430E-07
 -0.76624738E-07 -0.77778532E-07 -0.78133751E-07 -0.77705014E-07 -0.76514304E-07
 -0.74590580E-07 -0.71969339E-07 -0.68692118E-07 -0.64805954E-07 -0.60362799E-07
 -0.55418904E-07 -0.50034170E-07 -0.44271486E-07 -0.38196044E-07 -0.31874658E-07
 -0.25375069E-07 -0.18765269E-07 -0.12112833E-07 -0.54842654E-08  0.10556205E-08
  0.74442992E-08  0.13622091E-07  0.19532682E-07  0.25123598E-07  0.30346633E-07
  0.35158225E-07  0.39519782E-07  0.43397946E-07  0.46764810E-07  0.49598068E-07
  0.51881116E-07  0.53603089E-07  0.54758844E-07  0.55348890E-07  0.55379263E-07
  0.54861349E-07  0.53811659E-07  0.52251566E-07  0.50206987E-07  0.47708043E-07
  0.44788673E-07  0.41486226E-07  0.37841027E-07  0.33895924E-07  0.29695814E-07
  0.25287172E-07  0.20717559E-07  0.16035142E-07  0.11288210E-07  0.65247041E-08
  0.17917557E-08 -0.28647531E-08 -0.74006117E-08 -0.11773677E-07 -0.15944241E-07
 -0.19875371E-07 -0.23533206E-07 -0.26887234E-07 -0.29910515E-07 -0.32579874E-07
 -0.34876052E-07 -0.36783813E-07 -0.38292019E-07 -0.39393648E-07 -0.40085790E-07
 -0.40369590E-07 -0.40250156E-07 -0.39736438E-07 -0.38841057E-07 -0.37580121E-07
 -0.35972991E-07 -0.34042039E-07 -0.31812364E-07 -0.29311502E-07 -0.26569106E-07
 -0.23616624E-07 -0.20486952E-07 -0.17214091E-07 -0.13832797E-07 -0.10378224E-07
 -0.68855810E-08 -0.33897846E-08  0.74871898E-10  0.34750403E-08  0.67786233E-08
  0.99550625E-08  0.12975606E-07  0.15813554E-07  0.18444478E-07  0.20846419E-07
  0.23000050E-07  0.24888819E-07  0.26499057E-07  0.27820054E-07  0.28844115E-07
  0.29566575E-07  0.29985790E-07  0.30103099E-07  0.29922755E-07  0.29451831E-07
  0.28700105E-07  0.27679911E-07  0.26405975E-07  0.24895232E-07  0.23166621E-07
  0.21240865E-07  0.19140238E-07  0.16888326E-07  0.14509769E-07  0.12030008E-07
  0.94750259E-08  0.68710807E-08  0.42444509E-08  0.16211793E-08 -0.97317553E-09
 -0.35137780E-08 -0.59767436E-08 -0.83393538E-08 -0.10580256E-07 -0.12679647E-07
 -0.14619437E-07 -0.16383398E-07 -0.17957285E-07 -0.19328946E-07 -0.20488398E-07
 -0.21427890E-07 -0.22141939E-07 -0.22627346E-07 -0.22883188E-07 -0.22910787E-07
 -0.22713660E-07 -0.22297451E-07 -0.21669836E-07 -0.20840418E-07 -0.19820602E-07
 -0.18623450E-07 -0.17263534E-07 -0.15756766E-07 -0.14120221E-07 -0.12371955E-07
 -0.10530814E-07 -0.86162376E-08 -0.66480604E-08 -0.46463168E-08 -0.26310419E-08
 -0.62207846E-09  0.13611119E-08  0.32996303E-08  0.51753145E-08  0.69709019E-08
  0.86701824E-08  0.10258138E-07  0.11721067E-07  0.13046699E-07  0.14224287E-07
  0.15244689E-07  0.16100429E-07  0.16785745E-07  0.17296618E-07  0.17630779E-07
  0.17787708E-07  0.17768610E-07  0.17576379E-07  0.17215537E-07  0.16692175E-07
  0.16013860E-07  0.15189547E-07  0.14229467E-07  0.13145011E-07  0.11948601E-07
  0.10653553E-07  0.92739400E-08  0.78244393E-08  0.63201847E-08  0.47766126E-08
  0.32093089E-08  0.16338563E-08  0.65683582E-10 -0.14800803E-08 -0.29887483E-08
 -0.44462101E-08 -0.58390597E-08 -0.71547147E-08 -0.83815251E-08 -0.95088721E-08
 -0.10527256E-07 -0.11428369E-07 -0.12205162E-07 -0.12851891E-07 -0.13364154E-07
 -0.13738914E-07 -0.13974510E-07 -0.14070649E-07 -0.14028394E-07 -0.13850130E-07
 -0.13539526E-07 -0.13101476E-07 -0.12542038E-07 -0.11868359E-07 -0.11088585E-07
 -0.10211778E-07 -0.92478052E-08 -0.82072398E-08 -0.71012455E-08 -0.59414616E-08
 -0.47398840E-08 -0.35087448E-08 -0.22603909E-08 -0.10071636E-08  0.23872006E-09
  0.14652834E-08  0.26609017E-08  0.38144095E-08  0.49152016E-08  0.59533272E-08
  0.69195769E-08  0.78055607E-08  0.86037782E-08  0.93076777E-08  0.99117070E-08
  0.10411353E-07  0.10803171E-07  0.11084802E-07  0.11254986E-07  0.11313551E-07
  0.11261409E-07  0.11100524E-07  0.10833887E-07  0.10465470E-07  0.10000173E-07
  0.94437693E-08  0.88028339E-08  0.80846728E-08  0.72972422E-08  0.64490633E-08
  0.55491332E-08  0.46068323E-08  0.36318288E-08  0.26339821E-08  0.16232458E-08
  0.60956993E-09 -0.39719385E-09 -0.13873865E-08 -0.23516317E-08 -0.32809228E-08
 -0.41667045E-08 -0.50009498E-08 -0.57762302E-08 -0.64857800E-08 -0.71235530E-08
 -0.76842713E-08 -0.81634670E-08 -0.85575145E-08 -0.88636553E-08 -0.90800133E-08
 -0.92056023E-08 -0.92403238E-08 -0.91849574E-08 -0.90411424E-08 -0.88113509E-08
 -0.84988541E-08 -0.81076810E-08 -0.76425700E-08 -0.71089148E-08 -0.65127047E-08
 -0.58604591E-08 -0.51591591E-08 -0.44161743E-08 -0.36391874E-08 -0.28361164E-08
 -0.20150360E-08 -0.11840979E-08 -0.35145159E-09  0.47483373E-09  0.12868459E-08
  0.20769037E-08  0.28376282E-08  0.35620094E-08  0.42434699E-08  0.48759225E-08
  0.54538229E-08  0.59722167E-08  0.64267803E-08  0.68138544E-08  0.71304724E-08
  0.73743799E-08  0.75440490E-08  0.76386842E-08  0.76582218E-08  0.76033222E-08
  0.74753553E-08  0.72763797E-08  0.70091145E-08  0.66769067E-08  0.62836911E-08
  0.58339467E-08  0.53326471E-08  0.47852077E-08  0.41974286E-08  0.35754344E-08
  0.29256120E-08  0.22545467E-08  0.15689558E-08  0.87562358E-09  0.18133472E-09
 -0.50719074E-09 -0.11833613E-08 -0.18407760E-08 -0.24732840E-08 -0.30750409E-08
 -0.36405618E-08 -0.41647702E-08 -0.46430421E-08 -0.50712460E-08 -0.54457774E-08
 -0.57635874E-08 -0.60222065E-08 -0.62197619E-08 -0.63549894E-08 -0.64272389E-08
 -0.64364741E-08 -0.63832664E-08 -0.62687830E-08 -0.60947694E-08 -0.58635264E-08
 -0.55778820E-08 -0.52411593E-08 -0.48571386E-08 -0.44300167E-08 -0.39643622E-08
 -0.34650677E-08 -0.29372995E-08 -0.23864451E-08 -0.18180591E-08 -0.12378085E-08
 -0.65141662E-09 -0.64608024E-10  0.51694662E-09  0.10876844E-08  0.16422023E-08
  0.21753078E-08  0.26820663E-08  0.31578458E-08  0.35983585E-08  0.39996988E-08
  0.43583763E-08  0.46713458E-08  0.49360322E-08  0.51503501E-08  0.53127194E-08
  0.54220757E-08  0.54778752E-08  0.54800954E-08  0.54292298E-08  0.53262785E-08
  0.51727340E-08  0.49705617E-08  0.47221771E-08  0.44304178E-08  0.40985130E-08
  0.37300479E-08  0.33289268E-08  0.28993319E-08  0.24456809E-08  0.19725821E-08
  0.14847885E-08  0.98715075E-09  0.48456926E-09 -0.18053099E-10 -0.51585837E-09
 -0.10040798E-08 -0.14780869E-08 -0.19334288E-08 -0.23658754E-08 -0.27714563E-08
 -0.31464964E-08 -0.34876487E-08 -0.37919235E-08 -0.40567143E-08 -0.42798186E-08
 -0.44594564E-08 -0.45942828E-08 -0.46833974E-08 -0.47263488E-08 -0.47231347E-08
 -0.46741983E-08 -0.45804196E-08 -0.44431033E-08 -0.42639622E-08 -0.40450974E-08
 -0.37889742E-08 -0.34983953E-08 -0.31764710E-08 -0.28265863E-08 -0.24523663E-08
 -0.20576389E-08 -0.16463962E-08 -0.12227550E-08 -0.79091586E-09 -0.35512204E-09
  0.80381433E-10  0.51138870E-09  0.93377315E-09  0.13435264E-08  0.17367959E-08
  0.21099203E-08  0.24594635E-08  0.27822453E-08  0.30753699E-08  0.33362518E-08
  0.35626376E-08  0.37526252E-08  0.39046790E-08  0.40176420E-08  0.40907433E-08
  0.41236030E-08  0.41162324E-08  0.40690306E-08  0.39827782E-08  0.38586259E-08
  0.36980811E-08  0.35029902E-08  0.32755185E-08  0.30181264E-08  0.27335439E-08
  0.24247418E-08  0.20949012E-08  0.17473812E-08  0.13856852E-08  0.10134262E-08
  0.63429042E-09  0.25200203E-09 -0.12971368E-09 -0.50716610E-09 -0.87673472E-09
 -0.12349035E-08 -0.15782939E-08 -0.19036965E-08 -0.22081008E-08 -0.24887224E-08
 -0.27430286E-08 -0.29687607E-08 -0.31639536E-08 -0.33269526E-08 -0.34564271E-08
 -0.35513805E-08 -0.36111576E-08 -0.36354483E-08 -0.36242880E-08 -0.35780544E-08
 -0.34974612E-08 -0.33835489E-08 -0.32376718E-08 -0.30614830E-08 -0.28569160E-08
 -0.26261641E-08 -0.23716571E-08 -0.20960361E-08 -0.18021265E-08 -0.14929093E-08
 -0.11714913E-08 -0.84107438E-09 -0.50492378E-09 -0.16633631E-09  0.17139180E-09
  0.50499662E-09  0.83127778E-09  0.11471287E-08  0.14495659E-08  0.17357568E-08
  0.20030457E-08  0.22489787E-08  0.24713257E-08  0.26681001E-08  0.28375766E-08
  0.29783060E-08  0.30891266E-08  0.31691742E-08  0.32178880E-08  0.32350145E-08
  0.32206073E-08  0.31750247E-08  0.30989244E-08  0.29932546E-08  0.28592434E-08
  0.26983848E-08  0.25124227E-08  0.23033324E-08  0.20733000E-08  0.18246995E-08
  0.15600690E-08  0.12820846E-08  0.99353386E-09  0.69728821E-09  0.39627451E-09
  0.93446394E-10 -0.20824463E-09 -0.50587783E-09 -0.79659139E-09 -0.10776097E-08
 -0.13462695E-08 -0.16000452E-08 -0.18365718E-08 -0.20536676E-08 -0.22493535E-08
 -0.24218716E-08 -0.25697001E-08 -0.26915667E-08 -0.27864593E-08 -0.28536338E-08
 -0.28926196E-08 -0.29032227E-08 -0.28855253E-08 -0.28398840E-08 -0.27669238E-08
 -0.26675304E-08 -0.25428398E-08 -0.23942259E-08 -0.22232853E-08 -0.20318209E-08
 -0.18218232E-08 -0.15954494E-08 -0.13550020E-08 -0.11029047E-08 -0.84167908E-09
 -0.57391877E-09 -0.30226460E-09 -0.29378724E-10  0.24208122E-09  0.50948782E-09
  0.77026923E-09  0.10219338E-08  0.12620937E-08  0.14884872E-08  0.16989998E-08
  0.18916836E-08  0.20647751E-08  0.22167113E-08  0.23461440E-08  0.24519513E-08
  0.25332473E-08  0.25893894E-08  0.26199826E-08  0.26248820E-08  0.26041929E-08
  0.25582682E-08  0.24877042E-08  0.23933330E-08  0.22762134E-08  0.21376189E-08
  0.19790242E-08  0.18020897E-08  0.16086443E-08  0.14006668E-08  0.11802663E-08
  0.94966044E-09  0.71115382E-09  0.46711442E-09  0.21995031E-09 -0.27914094E-10
 -0.27406160E-09 -0.51610550E-09 -0.75171252E-09 -0.97862514E-09 -0.11946833E-08
 -0.13978449E-08 -0.15862053E-08 -0.17580152E-08 -0.19116962E-08 -0.20458556E-08
 -0.21592980E-08 -0.22510365E-08 -0.23203009E-08 -0.23665438E-08 -0.23894457E-08
   18.8972598857892      T
 Non local Part
           0           2   1.08222577167122     
   2.74573399047559        8.02602464320969        8.02602464320969     
   23.4107648722800     
 Reciprocal Space Part
  0.53647450E+01  0.52129835E+01  0.47605496E+01  0.40159364E+01  0.29931033E+01
  0.17111875E+01  0.19410902E+00 -0.15299218E+01 -0.34289819E+01 -0.54680876E+01
 -0.76099031E+01 -0.98154933E+01 -0.12045101E+02 -0.14258933E+02 -0.16417937E+02
 -0.18484555E+02 -0.20423430E+02 -0.22202064E+02 -0.23791397E+02 -0.25166311E+02
 -0.26306043E+02 -0.27194491E+02 -0.27820428E+02 -0.28177605E+02 -0.28264742E+02
 -0.28085428E+02 -0.27647911E+02 -0.26964801E+02 -0.26052695E+02 -0.24931715E+02
 -0.23625006E+02 -0.22158166E+02 -0.20558664E+02 -0.18855215E+02 -0.17077177E+02
 -0.15253931E+02 -0.13414307E+02 -0.11586025E+02 -0.97951989E+01 -0.80658829E+01
 -0.64196909E+01 -0.48754811E+01 -0.34491171E+01 -0.21533044E+01 -0.99750580E+00
  0.12069334E-01  0.87240160E+00  0.15835313E+01  0.21483662E+01  0.25724360E+01
  0.28636003E+01  0.30317216E+01  0.30883109E+01  0.30461572E+01  0.29189502E+01
  0.27209057E+01  0.24664032E+01  0.21696435E+01  0.18443331E+01  0.15034034E+01
  0.11587677E+01  0.82112073E+00  0.49978332E+00  0.20259303E+00 -0.64159557E-01
 -0.29574983E+00 -0.48899616E+00 -0.64219825E+00 -0.75504120E+00 -0.82847008E+00
 -0.86454065E+00 -0.86625185E+00 -0.83736607E+00 -0.78222302E+00 -0.70555292E+00
 -0.61229439E+00 -0.50742179E+00 -0.39578638E+00 -0.28197486E+00 -0.17018808E+00
 -0.64142089E-01  0.33007370E-01  0.11871627E+00  0.19108001E+00  0.24883842E+00
  0.29135951E+00  0.31860428E+00  0.33107507E+00  0.32975035E+00  0.31600916E+00
  0.29154838E+00  0.25829607E+00  0.21832404E+00  0.17376268E+00  0.12672050E+00
  0.79210984E-01  0.33088514E-01 -0.10005132E-01 -0.48682580E-01 -0.81840458E-01
 Real Space Part
 -0.11917229E+03 -0.11912100E+03 -0.11896716E+03 -0.11871088E+03 -0.11835237E+03
 -0.11789189E+03 -0.11732980E+03 -0.11666654E+03 -0.11590263E+03 -0.11503869E+03
 -0.11407542E+03 -0.11301362E+03 -0.11185422E+03 -0.11059820E+03 -0.10924672E+03
 -0.10780099E+03 -0.10626239E+03 -0.10463241E+03 -0.10291266E+03 -0.10110491E+03
 -0.99211072E+02 -0.97233189E+02 -0.95173471E+02 -0.93034286E+02 -0.90818163E+02
 -0.88527799E+02 -0.86166062E+02 -0.83735996E+02 -0.81240819E+02 -0.78683930E+02
 -0.76068908E+02 -0.73399514E+02 -0.70679689E+02 -0.67913554E+02 -0.65105410E+02
 -0.62259733E+02 -0.59381173E+02 -0.56474547E+02 -0.53544837E+02 -0.50597181E+02
 -0.47636867E+02 -0.44669326E+02 -0.41700120E+02 -0.38734935E+02 -0.35779569E+02
 -0.32839921E+02 -0.29921976E+02 -0.27031795E+02 -0.24175495E+02 -0.21359242E+02
 -0.18589227E+02 -0.15871655E+02 -0.13212725E+02 -0.10618613E+02 -0.80954535E+01
 -0.56493218E+01 -0.32862139E+01 -0.10120274E+01  0.11674576E+01  0.32465987E+01
  0.52199106E+01  0.70820847E+01  0.88280086E+01  0.10452785E+02  0.11951753E+02
  0.13320501E+02  0.14554893E+02  0.15651076E+02  0.16605508E+02  0.17414965E+02
  0.18076559E+02  0.18587755E+02  0.18946374E+02  0.19150682E+02  0.19202044E+02
  0.19127683E+02  0.18936000E+02  0.18627454E+02  0.18203633E+02  0.17667545E+02
  0.17024038E+02  0.16280191E+02  0.15445574E+02  0.14532320E+02  0.13554892E+02
  0.12529561E+02  0.11473558E+02  0.10403996E+02  0.93367044E+01  0.82851380E+01
  0.72595350E+01  0.62664835E+01  0.53089179E+01  0.43865544E+01  0.34967121E+01
  0.26346424E+01  0.17949784E+01  0.98785049E+00  0.11906733E+00 -0.23207380E-14
 Reciprocal Space Part
  0.48859099E+01  0.49174452E+01  0.50113448E+01  0.51655051E+01  0.53764718E+01
  0.56395147E+01  0.59487316E+01  0.62971767E+01  0.66770113E+01  0.70796740E+01
  0.74960649E+01  0.79167408E+01  0.83321166E+01  0.87326684E+01  0.91091327E+01
  0.94526990E+01  0.97551901E+01  0.10009227E+02  0.10208374E+02  0.10347261E+02
  0.10421686E+02  0.10428680E+02  0.10366558E+02  0.10234930E+02  0.10034691E+02
  0.97679803E+01  0.94381160E+01  0.90495060E+01  0.86075363E+01  0.81184423E+01
  0.75891641E+01  0.70271911E+01  0.64403988E+01  0.58368817E+01  0.52247869E+01
  0.46121512E+01  0.40067465E+01  0.34159348E+01  0.28465388E+01  0.23047271E+01
  0.17959190E+01  0.13247085E+01  0.89480986E+00  0.50902398E+00  0.16922659E+00
 -0.12362306E+00 -0.36945363E+00 -0.56903495E+00 -0.72391498E+00 -0.83634257E+00
 -0.90917861E+00 -0.94579818E+00 -0.94998642E+00 -0.92583101E+00 -0.87761389E+00
 -0.80970499E+00 -0.72646036E+00 -0.63212701E+00 -0.53075640E+00 -0.42612814E+00
 -0.32168541E+00 -0.22048280E+00 -0.12514735E+00 -0.37852811E-01  0.39692986E-01
  0.10624806E+00  0.16102447E+00  0.20366571E+00  0.23421473E+00  0.25307393E+00
  0.26095887E+00  0.25884724E+00  0.24792501E+00  0.22953113E+00  0.20510277E+00
  0.17612230E+00  0.14406755E+00  0.11036642E+00  0.76356933E-01  0.43253354E-01
  0.12119040E-01 -0.16153782E-01 -0.40857191E-01 -0.61473831E-01 -0.77676619E-01
 -0.89322396E-01 -0.96440183E-01 -0.99214832E-01 -0.97966940E-01 -0.93129936E-01
 -0.85225322E-01 -0.74836982E-01 -0.62585487E-01 -0.49103227E-01 -0.35011141E-01
 -0.20897698E-01 -0.73006640E-02  0.53079408E-02  0.16533405E-01  0.26066283E-01
 Real Space Part
  0.41656347E+02  0.41639875E+02  0.41590468E+02  0.41508160E+02  0.41393007E+02
  0.41245087E+02  0.41064504E+02  0.40851384E+02  0.40605878E+02  0.40328165E+02
  0.40018452E+02  0.39676972E+02  0.39303991E+02  0.38899807E+02  0.38464749E+02
  0.37999185E+02  0.37503517E+02  0.36978187E+02  0.36423678E+02  0.35840517E+02
  0.35229272E+02  0.34590560E+02  0.33925045E+02  0.33233442E+02  0.32516514E+02
  0.31775080E+02  0.31010012E+02  0.30222236E+02  0.29412735E+02  0.28582549E+02
  0.27732776E+02  0.26864570E+02  0.25979145E+02  0.25077773E+02  0.24161782E+02
  0.23232558E+02  0.22291542E+02  0.21340233E+02  0.20380179E+02  0.19412982E+02
  0.18440293E+02  0.17463810E+02  0.16485275E+02  0.15506472E+02  0.14529222E+02
  0.13555380E+02  0.12586834E+02  0.11625494E+02  0.10673295E+02  0.97321875E+01
  0.88041356E+01  0.78911089E+01  0.69950792E+01  0.61180142E+01  0.52618718E+01
  0.44285945E+01  0.36201030E+01  0.28382905E+01  0.20850164E+01  0.13620998E+01
  0.67131364E+00  0.14378446E-01 -0.60704411E+00 -0.11913572E+01 -0.17370348E+01
 -0.22426278E+01 -0.27067696E+01 -0.31281820E+01 -0.35056803E+01 -0.38381785E+01
 -0.41246943E+01 -0.43643538E+01 -0.45563944E+01 -0.47001882E+01 -0.47959598E+01
 -0.48509971E+01 -0.48676308E+01 -0.48460591E+01 -0.47867896E+01 -0.46907273E+01
 -0.45592996E+01 -0.43945756E+01 -0.41993466E+01 -0.39771572E+01 -0.37322459E+01
 -0.34694036E+01 -0.31937338E+01 -0.29103448E+01 -0.26240100E+01 -0.23388467E+01
 -0.20580624E+01 -0.17838176E+01 -0.15172126E+01 -0.12584030E+01 -0.10068302E+01
 -0.76131118E+00 -0.52045919E+00 -0.28739710E+00 -0.34715627E-01  0.69957665E-15
 Non local Part
           1           2   1.08222577167122     
   9.28424501867690        11.6341629805203        11.6341629805203     
   14.1158283152743     
 Reciprocal Space Part
  0.00000000E+00  0.56146280E+00  0.11040566E+01  0.16093555E+01  0.20598091E+01
  0.24391542E+01  0.27327952E+01  0.29281448E+01  0.30149170E+01  0.29853648E+01
  0.28344580E+01  0.25599967E+01  0.21626579E+01  0.16459754E+01  0.10162524E+01
  0.28241088E+00 -0.54421848E+00 -0.14501615E+01 -0.24201121E+01 -0.34372842E+01
 -0.44837937E+01 -0.55410616E+01 -0.65902293E+01 -0.76125747E+01 -0.85899194E+01
 -0.95050190E+01 -0.10341925E+02 -0.11086314E+02 -0.11725769E+02 -0.12250021E+02
 -0.12651129E+02 -0.12923612E+02 -0.13064512E+02 -0.13073410E+02 -0.12952378E+02
 -0.12705877E+02 -0.12340602E+02 -0.11865288E+02 -0.11290463E+02 -0.10628182E+02
 -0.98917201E+01 -0.90952605E+01 -0.82535630E+01 -0.73816350E+01 -0.64944070E+01
 -0.56064218E+01 -0.47315444E+01 -0.38826983E+01 -0.30716336E+01 -0.23087324E+01
 -0.16028534E+01 -0.96121820E+00 -0.38934131E+00  0.10899739E+00  0.53173834E+00
  0.87848833E+00  0.11504301E+01  0.13501996E+01  0.14817348E+01  0.15501021E+01
  0.15613053E+01  0.15220827E+01  0.14396987E+01  0.13217343E+01  0.11758834E+01
  0.10097589E+01  0.83071314E+00  0.64567685E+00  0.46101946E+00  0.28243350E+00
  0.11484448E+00 -0.37652724E-01 -0.17183097E+00 -0.28534207E+00 -0.37670334E+00
 -0.44526163E+00 -0.49113708E+00 -0.51514958E+00 -0.51873118E+00 -0.50382780E+00
 -0.47279379E+00 -0.42828293E+00 -0.37313915E+00 -0.31029027E+00 -0.24264776E+00
 -0.17301490E+00 -0.10400566E+00 -0.37975983E-01  0.23031435E-01  0.77327943E-01
  0.12360523E+00  0.16094722E+00  0.18882835E+00  0.20709904E+00  0.21596001E+00
  0.21592689E+00  0.20778690E+00  0.19254987E+00  0.17139527E+00  0.14561750E+00
 Real Space Part
  0.00000000E+00 -0.22324603E+01 -0.44585467E+01 -0.66719048E+01 -0.88662189E+01
 -0.11035231E+02 -0.13172762E+02 -0.15272726E+02 -0.17329154E+02 -0.19336210E+02
 -0.21288209E+02 -0.23179634E+02 -0.25005154E+02 -0.26759644E+02 -0.28438194E+02
 -0.30036132E+02 -0.31549033E+02 -0.32972738E+02 -0.34303366E+02 -0.35537326E+02
 -0.36671329E+02 -0.37702403E+02 -0.38627899E+02 -0.39445503E+02 -0.40153242E+02
 -0.40749497E+02 -0.41233004E+02 -0.41602864E+02 -0.41858544E+02 -0.41999884E+02
 -0.42027096E+02 -0.41940769E+02 -0.41741866E+02 -0.41431727E+02 -0.41012063E+02
 -0.40484955E+02 -0.39852848E+02 -0.39118548E+02 -0.38285216E+02 -0.37356355E+02
 -0.36335807E+02 -0.35227739E+02 -0.34036636E+02 -0.32767284E+02 -0.31424761E+02
 -0.30014420E+02 -0.28541877E+02 -0.27012991E+02 -0.25433849E+02 -0.23810750E+02
 -0.22150182E+02 -0.20458808E+02 -0.18743441E+02 -0.17011027E+02 -0.15268621E+02
 -0.13523367E+02 -0.11782475E+02 -0.10053200E+02 -0.83428176E+01 -0.66586004E+01
 -0.50077970E+01 -0.33976072E+01 -0.18351597E+01 -0.32748818E+00  0.11184907E+01
  0.24960003E+01  0.37984266E+01  0.50193391E+01  0.61525132E+01  0.71919500E+01
  0.81318968E+01  0.89668661E+01  0.96916534E+01  0.10301373E+02  0.10792201E+02
  0.11169117E+02  0.11434798E+02  0.11589884E+02  0.11635296E+02  0.11572540E+02
  0.11404097E+02  0.11133845E+02  0.10767414E+02  0.10312475E+02  0.97787880E+01
  0.91780594E+01  0.85234739E+01  0.78289984E+01  0.71084877E+01  0.63747426E+01
  0.56386503E+01  0.49085671E+01  0.41900113E+01  0.34857224E+01  0.27960848E+01
  0.21192294E+01  0.14521453E+01  0.80385793E+00  0.97662107E-01 -0.19281648E-14
 Reciprocal Space Part
  0.00000000E+00 -0.24534428E-01 -0.40591385E-01 -0.39921827E-01 -0.14727789E-01
  0.42126359E-01  0.13691938E+00  0.27490023E+00  0.46014114E+00  0.69542022E+00
  0.98213662E+00  0.13202603E+01  0.17083174E+01  0.21434121E+01  0.26212828E+01
  0.31363934E+01  0.36820554E+01  0.42505775E+01  0.48334413E+01  0.54214952E+01
  0.60051641E+01  0.65746689E+01  0.71202502E+01  0.76323902E+01  0.81020285E+01
  0.85207662E+01  0.88810524E+01  0.91763505E+01  0.94012791E+01  0.95517249E+01
  0.96249259E+01  0.96195217E+01  0.95355718E+01  0.93745411E+01  0.91392540E+01
  0.88338176E+01  0.84635185E+01  0.80346939E+01  0.75545824E+01  0.70311572E+01
  0.64729468E+01  0.58888481E+01  0.52879354E+01  0.46792708E+01  0.40717207E+01
  0.34737816E+01  0.28934204E+01  0.23379308E+01  0.18138113E+01  0.13266640E+01
  0.88111858E+00  0.48078052E+00  0.12820502E+00 -0.17510422E+00 -0.42867207E+00
 -0.63300657E+00 -0.78953300E+00 -0.90050996E+00 -0.96893019E+00 -0.99840942E+00
 -0.99306645E+00 -0.95739783E+00 -0.89615066E+00 -0.81419662E+00 -0.71641047E+00
 -0.60755586E+00 -0.49218091E+00 -0.37452574E+00 -0.25844375E+00 -0.14733777E+00
 -0.44112078E-01  0.48859567E-01  0.12974978E+00  0.19727802E+00  0.25069646E+00
  0.28976266E+00  0.31470056E+00  0.32615158E+00  0.32511794E+00  0.31290015E+00
  0.29103093E+00  0.26120762E+00  0.22522516E+00  0.18491147E+00  0.14206700E+00
  0.98410022E-01  0.55528649E-01  0.14840831E-01 -0.22437233E-01 -0.55313807E-01
 -0.83035405E-01 -0.10509186E+00 -0.12121316E+00 -0.13135866E+00 -0.13569968E+00
 -0.13459640E+00 -0.12857025E+00 -0.11827304E+00 -0.10445400E+00 -0.87926010E-01
 Real Space Part
  0.00000000E+00  0.15822551E+01  0.31602120E+01  0.47295855E+01  0.62861155E+01
  0.78255801E+01  0.93438079E+01  0.10836690E+02  0.12300194E+02  0.13730373E+02
  0.15123381E+02  0.16475481E+02  0.17783058E+02  0.19042633E+02  0.20250867E+02
  0.21404578E+02  0.22500745E+02  0.23536523E+02  0.24509249E+02  0.25416451E+02
  0.26255855E+02  0.27025396E+02  0.27723221E+02  0.28347699E+02  0.28897423E+02
  0.29371219E+02  0.29768147E+02  0.30087510E+02  0.30328850E+02  0.30491959E+02
  0.30576873E+02  0.30583879E+02  0.30513510E+02  0.30366552E+02  0.30144036E+02
  0.29847239E+02  0.29477682E+02  0.29037126E+02  0.28527567E+02  0.27951234E+02
  0.27310580E+02  0.26608277E+02  0.25847211E+02  0.25030473E+02  0.24161347E+02
  0.23243307E+02  0.22280003E+02  0.21275254E+02  0.20233033E+02  0.19157459E+02
  0.18052784E+02  0.16923377E+02  0.15773718E+02  0.14608379E+02  0.13432011E+02
  0.12249332E+02  0.11065110E+02  0.98841500E+01  0.87112780E+01  0.75513267E+01
  0.64091197E+01  0.52894564E+01  0.41970968E+01  0.31367462E+01  0.21130400E+01
  0.11305289E+01  0.19366381E+00 -0.69321826E+00 -0.15259087E+01 -0.23003410E+01
 -0.30126043E+01 -0.36589560E+01 -0.42358341E+01 -0.47398761E+01 -0.51682240E+01
 -0.55220987E+01 -0.58026816E+01 -0.60103885E+01 -0.61457510E+01 -0.62096094E+01
 -0.62033537E+01 -0.61291863E+01 -0.59903585E+01 -0.57913598E+01 -0.55379813E+01
 -0.52372487E+01 -0.48971670E+01 -0.45263149E+01 -0.41333082E+01 -0.37262241E+01
 -0.33120616E+01 -0.28963403E+01 -0.24828835E+01 -0.20738227E+01 -0.16698295E+01
 -0.12701594E+01 -0.87331769E+00 -0.48505088E+00 -0.59060369E-01  0.11194660E-14
 Non local Part
           2           1   1.08222577167122     
 -0.786733241298172     
 Reciprocal Space Part
  0.00000000E+00  0.12154453E-01  0.48505842E-01  0.10871860E+00  0.19223464E+00
  0.29827518E+00  0.42584358E+00  0.57372924E+00  0.74051293E+00  0.92457363E+00
  0.11240972E+01  0.13370875E+01  0.15613790E+01  0.17946530E+01  0.20344559E+01
  0.22782202E+01  0.25232883E+01  0.27669397E+01  0.30064194E+01  0.32389700E+01
  0.34618646E+01  0.36724417E+01  0.38681413E+01  0.40465406E+01  0.42053902E+01
  0.43426484E+01  0.44565146E+01  0.45454594E+01  0.46082520E+01  0.46439833E+01
  0.46520845E+01  0.46323405E+01  0.45848977E+01  0.45102656E+01  0.44093123E+01
  0.42832538E+01  0.41336363E+01  0.39623137E+01  0.37714176E+01  0.35633238E+01
  0.33406129E+01  0.31060275E+01  0.28624260E+01  0.26127350E+01  0.23598996E+01
  0.21068346E+01  0.18563752E+01  0.16112315E+01  0.13739441E+01  0.11468451E+01
  0.93202261E+00  0.73129120E+00  0.54616833E+00  0.37785703E+00  0.22723533E+00
  0.94852555E-01 -0.19067640E-01 -0.11461763E+00 -0.19218995E+00 -0.25245575E+00
 -0.29633809E+00 -0.32498092E+00 -0.33971459E+00 -0.34201867E+00 -0.33348316E+00
 -0.31576903E+00 -0.29056894E+00 -0.25956922E+00 -0.22441386E+00 -0.18667136E+00
 -0.14780510E+00 -0.10914787E+00 -0.71880872E-01 -0.37017739E-01 -0.53934986E-02
  0.22341278E-01  0.45721352E-01  0.64462897E-01  0.78455150E-01  0.87748076E-01
  0.92536588E-01  0.93141941E-01  0.89990955E-01  0.83593773E-01  0.74520848E-01
  0.63379854E-01  0.50793192E-01  0.37376691E-01  0.23720066E-01  0.10369593E-01
 -0.21866048E-02 -0.13530384E-01 -0.23322334E-01 -0.31307371E-01 -0.37317191E-01
 -0.41269698E-01 -0.43165608E-01 -0.43082501E-01 -0.41166676E-01 -0.37623194E-01
 Real Space Part
  0.00000000E+00  0.13377743E-01  0.53455589E-01  0.12006754E+00  0.21293744E+00
  0.33167972E+00  0.47580048E+00  0.64469886E+00  0.83766870E+00  0.10539006E+01
  0.12924840E+01  0.15524104E+01  0.18325757E+01  0.21317836E+01  0.24487498E+01
  0.27821054E+01  0.31304014E+01  0.34921134E+01  0.38656468E+01  0.42493420E+01
  0.46414800E+01  0.50402889E+01  0.54439499E+01  0.58506044E+01  0.62583608E+01
  0.66653022E+01  0.70694938E+01  0.74689912E+01  0.78618484E+01  0.82461266E+01
  0.86199025E+01  0.89812780E+01  0.93283883E+01  0.96594120E+01  0.99725799E+01
  0.10266185E+02  0.10538590E+02  0.10788241E+02  0.11013671E+02  0.11213514E+02
  0.11386511E+02  0.11531521E+02  0.11647528E+02  0.11733649E+02  0.11789142E+02
  0.11813417E+02  0.11806037E+02  0.11766728E+02  0.11695383E+02  0.11592071E+02
  0.11457036E+02  0.11290705E+02  0.11093688E+02  0.10866782E+02  0.10610972E+02
  0.10327430E+02  0.10017518E+02  0.96827815E+01  0.93249502E+01  0.89459342E+01
  0.85478189E+01  0.81328598E+01  0.77034761E+01  0.72622427E+01  0.68118825E+01
  0.63552563E+01  0.58953526E+01  0.54352766E+01  0.49782373E+01  0.45275352E+01
  0.40865482E+01  0.36587179E+01  0.32475359E+01  0.28564830E+01  0.24873239E+01
  0.21263557E+01  0.17735623E+01  0.14341397E+01  0.11125896E+01  0.81263234E+00
  0.53706337E+00  0.28763918E+00  0.65042138E-01 -0.13106756E+00 -0.30187229E+00
 -0.44911012E+00 -0.57469009E+00 -0.68025281E+00 -0.76675137E+00 -0.83410765E+00
 -0.88100858E+00 -0.90488354E+00 -0.90204948E+00 -0.86800416E+00 -0.79783627E+00
 -0.68640022E+00 -0.52888483E+00 -0.32707948E+00 -0.42650299E-01  0.83523814E-15
 PAW radial sets
         363   1.07140351395451     
(5E20.12)                                
 augmentation charges (non sperical)
 -0.634906993230E-02 -0.399406753783E-01  0.385708367300E-02 -0.188163187553E-01 -0.359880658157E-01
 -0.399406753783E-01 -0.181814242204E+00 -0.235110296815E-01 -0.985610972506E-01 -0.989168044830E-01
  0.385708367300E-02 -0.235110296815E-01  0.568969233835E-01  0.308210538836E-01 -0.631801981982E-01
 -0.188163187553E-01 -0.985610972506E-01  0.308210538836E-01 -0.109849186715E-01 -0.743048090904E-01
 -0.359880658157E-01 -0.989168044830E-01 -0.631801981982E-01 -0.743048090904E-01  0.485011814505E-02
 uccopancies in atom
  0.200000000229E+01  0.000000000000E+00  0.000000000000E+00  0.000000000000E+00  0.000000000000E+00
  0.000000000000E+00  0.000000000000E+00  0.000000000000E+00  0.000000000000E+00  0.000000000000E+00
  0.000000000000E+00  0.000000000000E+00  0.000000000000E+00  0.000000000000E+00  0.000000000000E+00
  0.000000000000E+00  0.000000000000E+00  0.000000000000E+00  0.000000000000E+00  0.000000000000E+00
  0.000000000000E+00  0.000000000000E+00  0.000000000000E+00  0.000000000000E+00  0.000000000000E+00
 grid
  0.336657177523E-04  0.347604429080E-04  0.358907657946E-04  0.370578439618E-04  0.382628725994E-04
  0.395070857621E-04  0.407917576330E-04  0.421182038282E-04  0.434877827446E-04  0.449018969507E-04
  0.463619946230E-04  0.478695710292E-04  0.494261700591E-04  0.510333858062E-04  0.526928641998E-04
  0.544063046910E-04  0.561754619924E-04  0.580021478758E-04  0.598882330270E-04  0.618356489622E-04
  0.638463900054E-04  0.659225153311E-04  0.680661510731E-04  0.702794925017E-04  0.725648062720E-04
  0.749244327449E-04  0.773607883842E-04  0.798763682309E-04  0.824737484586E-04  0.851555890116E-04
  0.879246363290E-04  0.907837261573E-04  0.937357864543E-04  0.967838403876E-04  0.999310094308E-04
  0.103180516560E-03  0.106535689555E-03  0.109999964405E-03  0.113576888831E-03  0.117270125916E-03
  0.121083457858E-03  0.125020789841E-03  0.129086154038E-03  0.133283713737E-03  0.137617767605E-03
  0.142092754093E-03  0.146713255979E-03  0.151484005058E-03  0.156409886996E-03  0.161495946326E-03
  0.166747391618E-03  0.172169600809E-03  0.177768126717E-03  0.183548702721E-03  0.189517248635E-03
  0.195679876773E-03  0.202042898204E-03  0.208612829218E-03  0.215396397999E-03  0.222400551514E-03
  0.229632462628E-03  0.237099537449E-03  0.244809422916E-03  0.252770014625E-03  0.260989464916E-03
  0.269476191226E-03  0.278238884704E-03  0.287286519113E-03  0.296628360023E-03  0.306273974293E-03
  0.316233239877E-03  0.326516355933E-03  0.337133853269E-03  0.348096605131E-03  0.359415838335E-03
  0.371103144765E-03  0.383170493244E-03  0.395630241790E-03  0.408495150277E-03  0.421778393493E-03
  0.435493574641E-03  0.449654739265E-03  0.464276389634E-03  0.479373499597E-03  0.494961529913E-03
  0.511056444088E-03  0.527674724720E-03  0.544833390381E-03  0.562550013043E-03  0.580842736076E-03
  0.599730292828E-03  0.619232025807E-03  0.639367906491E-03  0.660158555782E-03  0.681625265122E-03
  0.703790018297E-03  0.726675513950E-03  0.750305188830E-03  0.774703241789E-03  0.799894658563E-03
  0.825905237367E-03  0.852761615304E-03  0.880491295654E-03  0.909122676031E-03  0.938685077472E-03
  0.969208774459E-03  0.100072502592E-02  0.103326610726E-02  0.106686534339E-02  0.110155714285E-02
  0.113737703309E-02  0.117436169680E-02  0.121254900950E-02  0.125197807835E-02  0.129268928215E-02
  0.133472431275E-02  0.137812621767E-02  0.142293944426E-02  0.146920988519E-02  0.151698492542E-02
  0.156631349078E-02  0.161724609803E-02  0.166983490660E-02  0.172413377204E-02  0.178019830112E-02
  0.183808590882E-02  0.189785587711E-02  0.195956941566E-02  0.202328972453E-02  0.208908205888E-02
  0.215701379581E-02  0.222715450336E-02  0.229957601174E-02  0.237435248690E-02  0.245156050649E-02
  0.253127913826E-02  0.261359002107E-02  0.269857744845E-02  0.278632845494E-02  0.287693290526E-02
  0.297048358627E-02  0.306707630204E-02  0.316680997197E-02  0.326978673203E-02  0.337611203944E-02
  0.348589478059E-02  0.359924738261E-02  0.371628592847E-02  0.383713027586E-02  0.396190417996E-02
  0.409073542015E-02  0.422375593088E-02  0.436110193677E-02  0.450291409214E-02  0.464933762502E-02
  0.480052248590E-02  0.495662350131E-02  0.511780053230E-02  0.528421863826E-02  0.545604824587E-02
  0.563346532365E-02  0.581665156220E-02  0.600579456023E-02  0.620108801670E-02  0.640273192918E-02
  0.661093279866E-02  0.682590384101E-02  0.704786520537E-02  0.727704419958E-02  0.751367552294E-02
  0.775800150662E-02  0.801027236177E-02  0.827074643579E-02  0.853969047689E-02  0.881737990728E-02
  0.910409910519E-02  0.940014169614E-02  0.970581085361E-02  0.100214196095E-01  0.103472911749E-01
  0.106837592705E-01  0.110311684693E-01  0.113898745485E-01  0.117602448546E-01  0.121426586790E-01
  0.125375076470E-01  0.129451961184E-01  0.133661416019E-01  0.138007751824E-01  0.142495419626E-01
  0.147129015189E-01  0.151913283721E-01  0.156853124731E-01  0.161953597046E-01  0.167219923997E-01
  0.172657498763E-01  0.178271889895E-01  0.184068847020E-01  0.190054306730E-01  0.196234398657E-01
  0.202615451756E-01  0.209204000784E-01  0.216006792989E-01  0.223030795026E-01  0.230283200087E-01
  0.237771435267E-01  0.245503169175E-01  0.253486319781E-01  0.261729062529E-01  0.270239838708E-01
  0.279027364097E-01  0.288100637890E-01  0.297468951911E-01  0.307141900132E-01  0.317129388499E-01
  0.327441645072E-01  0.338089230503E-01  0.349083048850E-01  0.360434358743E-01  0.372154784915E-01
  0.384256330108E-01  0.396751387361E-01  0.409652752704E-01  0.422973638263E-01  0.436727685790E-01
  0.450928980629E-01  0.465592066149E-01  0.480731958630E-01  0.496364162645E-01  0.512504686937E-01
  0.529170060813E-01  0.546377351073E-01  0.564144179485E-01  0.582488740835E-01  0.601429821555E-01
  0.620986818968E-01  0.641179761148E-01  0.662029327433E-01  0.683556869600E-01  0.705784433733E-01
  0.728734782802E-01  0.752431419967E-01  0.776898612658E-01  0.802161417417E-01  0.828245705563E-01
  0.855178189687E-01  0.882986451007E-01  0.911698967612E-01  0.941345143628E-01  0.971955339330E-01
  0.100356090223E+00  0.103619419920E+00  0.106988864957E+00  0.110467875940E+00  0.114060015682E+00
  0.117768962847E+00  0.121598515721E+00  0.125552596102E+00  0.129635253311E+00  0.133850668349E+00
  0.138203158167E+00  0.142697180096E+00  0.147337336406E+00  0.152128379025E+00  0.157075214397E+00
  0.162182908514E+00  0.167456692102E+00  0.172901965976E+00  0.178524306572E+00  0.184329471658E+00
  0.190323406230E+00  0.196512248602E+00  0.202902336689E+00  0.209500214498E+00  0.216312638835E+00
  0.223346586216E+00  0.230609260018E+00  0.238108097854E+00  0.245850779189E+00  0.253845233205E+00
  0.262099646923E+00  0.270622473582E+00  0.279422441302E+00  0.288508562020E+00  0.297890140716E+00
  0.307576784947E+00  0.317578414683E+00  0.327905272468E+00  0.338567933905E+00  0.349577318491E+00
  0.360944700800E+00  0.372681722023E+00  0.384800401896E+00  0.397313151006E+00  0.410232783502E+00
  0.423572530216E+00  0.437346052214E+00  0.451567454787E+00  0.466251301894E+00  0.481412631077E+00
  0.497066968862E+00  0.513230346659E+00  0.529919317179E+00  0.547150971387E+00  0.564942956001E+00
  0.583313491570E+00  0.602281391127E+00  0.621866079458E+00  0.642087612996E+00  0.662966700358E+00
  0.684524723554E+00  0.706783759883E+00  0.729766604545E+00  0.753496793980E+00  0.777998629975E+00
  0.803297204553E+00  0.829418425664E+00  0.856389043720E+00  0.884236678993E+00  0.912989849893E+00
  0.942678002180E+00  0.973331539117E+00  0.100498185260E+01  0.103766135533E+01  0.107140351395E+01
  0.110624288340E+01  0.114221514223E+01  0.117935712918E+01  0.121770688089E+01  0.125730367084E+01
  0.129818804963E+01  0.134040188642E+01  0.138398841187E+01  0.142899226240E+01  0.147545952587E+01
  0.152343778883E+01  0.157297618521E+01  0.162412544666E+01  0.167693795449E+01  0.173146779332E+01
  0.178777080648E+01  0.184590465316E+01  0.190592886751E+01  0.196790491957E+01  0.203189627823E+01
  0.209796847624E+01  0.216618917730E+01  0.223662824536E+01  0.230935781620E+01  0.238445237124E+01
  0.246198881387E+01  0.254204654818E+01  0.262470756030E+01  0.271005650232E+01  0.279818077901E+01
  0.288917063733E+01  0.298311925886E+01  0.308012285519E+01  0.318028076647E+01  0.328369556317E+01
  0.339047315106E+01  0.350072287974E+01  0.361455765455E+01
 aepotential
  0.277308849449E+05  0.273443136370E+05  0.269173912346E+05  0.264528025058E+05  0.259538426699E+05
  0.254235725880E+05  0.248655460897E+05  0.242830535403E+05  0.236796216279E+05  0.230585872140E+05
  0.224233875478E+05  0.217773254071E+05  0.211234887926E+05  0.204650157789E+05  0.198045140136E+05
  0.191449865053E+05  0.184887324155E+05  0.178380515867E+05  0.171950659772E+05  0.165616061847E+05
  0.159393176900E+05  0.153296605915E+05  0.147338688910E+05  0.141529754258E+05  0.135878462157E+05
  0.130391632192E+05  0.125074466845E+05  0.119930671269E+05  0.114962583851E+05  0.110171301995E+05
  0.105556816512E+05  0.101118138473E+05  0.968534229517E+04  0.927600850054E+04  0.888349120030E+04
  0.850741671010E+04  0.814736792330E+04  0.780289350939E+04  0.747351529695E+04  0.715873592348E+04
  0.685804421366E+04  0.657092256940E+04  0.629684523639E+04  0.603529531947E+04  0.578575237914E+04
  0.554771018694E+04  0.532066101741E+04  0.510412876862E+04  0.489762403802E+04  0.470070122737E+04
  0.451290773972E+04  0.433379939090E+04  0.416297939279E+04  0.400006013893E+04  0.384462939714E+04
  0.369635529871E+04  0.355486112391E+04  0.341984245454E+04  0.329096083520E+04  0.316792383884E+04
  0.305044441237E+04  0.293824846270E+04  0.283107197619E+04  0.272867603741E+04  0.263082078998E+04
  0.253728694251E+04  0.244786354588E+04  0.236234616449E+04  0.228055160722E+04  0.220229408675E+04
  0.212740858598E+04  0.205572733297E+04  0.198710196568E+04  0.192138300278E+04  0.185843511167E+04
  0.179812676800E+04  0.174033329683E+04  0.168493743738E+04  0.163182721417E+04  0.158089744289E+04
  0.153204644385E+04  0.148517989103E+04  0.144020669678E+04  0.139704030096E+04  0.135559993994E+04
  0.131580737740E+04  0.127759023388E+04  0.124087541342E+04  0.120560112784E+04  0.117169852644E+04
  0.113911124756E+04  0.110778120319E+04  0.107765279484E+04  0.104867582290E+04  0.102079947387E+04
  0.993977342461E+03  0.968164542628E+03  0.943318823248E+03  0.919398743154E+03  0.896365776616E+03
  0.874183525154E+03  0.852816073500E+03  0.832229924376E+03  0.812393080318E+03  0.793275004223E+03
  0.774846093747E+03  0.757078673181E+03  0.739945989520E+03  0.723422409179E+03  0.707483620342E+03
  0.692106206387E+03  0.677267957161E+03  0.662947498884E+03  0.649124313469E+03  0.635778908095E+03
  0.622892544268E+03  0.610447256097E+03  0.598425825947E+03  0.586811893804E+03  0.575589487101E+03
  0.564743551830E+03  0.554259719455E+03  0.544123521736E+03  0.534322285408E+03  0.524842601861E+03
  0.515672313187E+03  0.506799750499E+03  0.498213213677E+03  0.489901925044E+03  0.481855273471E+03
  0.474063270061E+03  0.466516012172E+03  0.459204201579E+03  0.452118825680E+03  0.445251130337E+03
  0.438592801816E+03  0.432135712092E+03  0.425872136935E+03  0.419794540260E+03  0.413895708907E+03
  0.408168651965E+03  0.402606606767E+03  0.397203117133E+03  0.391951867424E+03  0.386846771259E+03
  0.381882007635E+03  0.377051854878E+03  0.372350843832E+03  0.367773662830E+03  0.363315174293E+03
  0.358970385446E+03  0.354734488767E+03  0.350602799931E+03  0.346570791108E+03  0.342634067723E+03
  0.338788364287E+03  0.335029540862E+03  0.331353585731E+03  0.327756571150E+03  0.324234754430E+03
  0.320784375630E+03  0.317401908454E+03  0.314083824642E+03  0.310826752698E+03  0.307627364358E+03
  0.304482444930E+03  0.301388857626E+03  0.298343534593E+03  0.295343493810E+03  0.292385822232E+03
  0.289467682075E+03  0.286586298241E+03  0.283738956196E+03  0.280923019208E+03  0.278135903314E+03
  0.275375082618E+03  0.272638090181E+03  0.269922517481E+03  0.267226009430E+03  0.264546260580E+03
  0.261881023742E+03  0.259228099321E+03  0.256585335096E+03  0.253950635306E+03  0.251321945664E+03
  0.248697265828E+03  0.246074639042E+03  0.243452160564E+03  0.240827970541E+03  0.238200257949E+03
  0.235567261358E+03  0.232927265842E+03  0.230278608068E+03  0.227619673016E+03  0.224948898309E+03
  0.222264772655E+03  0.219565837896E+03  0.216850691474E+03  0.214117987117E+03  0.211366435404E+03
  0.208594808601E+03  0.205801939740E+03  0.202986726717E+03  0.200148134824E+03  0.197285198180E+03
  0.194397024121E+03  0.191482795556E+03  0.188541774599E+03  0.185573307023E+03  0.182576824003E+03
  0.179551851245E+03  0.176498008085E+03  0.173415016906E+03  0.170302708014E+03  0.167161024152E+03
  0.163990031425E+03  0.160789922486E+03  0.157561029960E+03  0.154303831551E+03  0.151018966058E+03
  0.147707240460E+03  0.144369647756E+03  0.141007379659E+03  0.137621845511E+03  0.134214690487E+03
  0.130787816177E+03  0.127343405527E+03  0.123883946020E+03  0.120412256434E+03  0.116931516275E+03
  0.113445290240E+03  0.109957556997E+03  0.106472729759E+03  0.102995673487E+03  0.995317090635E+02
  0.960866047083E+02  0.926665430767E+02  0.892780609543E+02  0.859279497331E+02  0.826231093537E+02
  0.793703452222E+02  0.761761009914E+02  0.730461238642E+02  0.699850652653E+02  0.669960354252E+02
  0.640801488636E+02  0.612361332381E+02  0.584601184529E+02  0.557457803331E+02  0.530850910799E+02
  0.504699349606E+02  0.478948472189E+02  0.453608911972E+02  0.428802547583E+02  0.404804600089E+02
  0.382063924916E+02  0.361181291298E+02  0.342832791912E+02  0.327643303596E+02  0.316036738154E+02
  0.308105553083E+02  0.303544903026E+02  0.301684721819E+02  0.301623663798E+02  0.302425275278E+02
  0.303301803604E+02  0.303717230341E+02  0.303389912413E+02  0.302227089295E+02  0.300241564753E+02
  0.297485736027E+02  0.294014031119E+02  0.289868861940E+02  0.285080270165E+02  0.279670965065E+02
  0.273661869143E+02  0.267075715794E+02  0.259938934584E+02  0.252281682154E+02  0.244137076506E+02
  0.235540091758E+02  0.226526488782E+02  0.217131937238E+02  0.207391353710E+02  0.197338642468E+02
  0.187006376308E+02  0.176425892428E+02  0.165627329063E+02  0.154639650910E+02  0.143490986155E+02
  0.132208690440E+02  0.120819642566E+02  0.109350501101E+02  0.978280249537E+01  0.862794545905E+01
  0.747329641285E+01  0.632182072583E+01  0.517669313297E+01  0.404136637320E+01  0.291964101692E+01
  0.181572825584E+01  0.734290862801E+00 -0.319555183808E+00 -0.134030144223E+01 -0.232219151659E+01
 -0.325946476291E+01 -0.414670003522E+01 -0.497924401093E+01 -0.575367993983E+01 -0.646830179401E+01
 -0.712354524773E+01 -0.772237796342E+01 -0.827068026812E+01 -0.877763939775E+01 -0.925600779178E+01
 -0.972158381206E+01 -0.101904120556E+02 -0.106715205001E+02 -0.111544337882E+02 -0.115970787895E+02
 -0.119294832823E+02 -0.120869624566E+02 -0.120562929154E+02 -0.118881841450E+02 -0.116597686598E+02
 -0.114295566301E+02 -0.112230857747E+02 -0.110431638210E+02 -0.108837047534E+02 -0.107377677821E+02
 -0.106003034826E+02 -0.104683294206E+02 -0.103403495759E+02 -0.102157387693E+02 -0.100943315582E+02
 -0.997618784722E+01 -0.986146407572E+01 -0.975035920968E+01 -0.964306112165E+01 -0.953967872382E+01
 -0.944015392354E+01 -0.934415673430E+01 -0.925097596549E+01 -0.915945853477E+01 -0.906799864883E+01
 -0.897462362691E+01 -0.887715252821E+01 -0.877342484537E+01 -0.866153200651E+01 -0.854003196214E+01
 -0.840810077934E+01 -0.826561038491E+01 -0.811313260997E+01 -0.795188069629E+01 -0.778360313319E+01
 -0.761044371070E+01 -0.743477909412E+01 -0.725904344234E+01 -0.708555045189E+01 -0.691632601863E+01
 -0.675296800345E+01 -0.659655038183E+01 -0.644758511408E+01
 core charge-density
  0.313547588868E-04  0.334171000979E-04  0.356150326079E-04  0.379574651246E-04  0.404538911007E-04
  0.431144270586E-04  0.459498534191E-04  0.489716580010E-04  0.521920823625E-04  0.556241711720E-04
  0.592818248020E-04  0.631798553606E-04  0.673340463796E-04  0.717612163973E-04  0.764792866976E-04
  0.815073534553E-04  0.868657646013E-04  0.925762016889E-04  0.986617670991E-04  0.105147076929E-03
  0.112058359930E-03  0.119423562886E-03  0.127272462851E-03  0.135636786692E-03  0.144550338406E-03
  0.154049134707E-03  0.164171549436E-03  0.174958467343E-03  0.186453447854E-03  0.198702899473E-03
  0.211756265492E-03  0.225666221739E-03  0.240488887148E-03  0.256284047966E-03  0.273115396469E-03
  0.291050785127E-03  0.310162497209E-03  0.330527534864E-03  0.352227925816E-03  0.375351049853E-03
  0.399989986374E-03  0.426243884336E-03  0.454218356035E-03  0.484025896225E-03  0.515786328200E-03
  0.549627278542E-03  0.585684682350E-03  0.624103320901E-03  0.665037393742E-03  0.708651127479E-03
  0.755119423459E-03  0.804628546902E-03  0.857376860039E-03  0.913575602001E-03  0.973449718402E-03
  0.103723874382E-02  0.110519774024E-02  0.117759829528E-02  0.125472958356E-02  0.133689949549E-02
  0.142443583733E-02  0.151768760716E-02  0.161702635134E-02  0.172284760645E-02  0.183557243188E-02
  0.195564903880E-02  0.208355452116E-02  0.221979669510E-02  0.236491605341E-02  0.251948784170E-02
  0.268412426407E-02  0.285947682568E-02  0.304623882068E-02  0.324514797409E-02  0.345698924681E-02
  0.368259781345E-02  0.392286222322E-02  0.417872775462E-02  0.445119997526E-02  0.474134851894E-02
  0.505031109233E-02  0.537929772490E-02  0.572959527561E-02  0.610257221160E-02  0.649968367387E-02
  0.692247684636E-02  0.737259664580E-02  0.785179174936E-02  0.836192098020E-02  0.890496006897E-02
  0.948300881355E-02  0.100982986570E-01  0.107532007075E-01  0.114502342232E-01  0.121920755863E-01
  0.129815677926E-01  0.138217304831E-01  0.147157705449E-01  0.156670933101E-01  0.166793143839E-01
  0.177562721313E-01  0.189020408552E-01  0.201209446994E-01  0.214175723096E-01  0.227967922886E-01
  0.242637694808E-01  0.258239821243E-01  0.274832399071E-01  0.292477029661E-01  0.311239018692E-01
  0.331187586188E-01  0.352396087175E-01  0.374942243361E-01  0.398908386237E-01  0.424381712003E-01
  0.451454548715E-01  0.480224636034E-01  0.510795417953E-01  0.543276348880E-01  0.577783213381E-01
  0.614438459952E-01  0.653371549064E-01  0.694719315746E-01  0.738626346966E-01  0.785245373874E-01
  0.834737679133E-01  0.887273519291E-01  0.943032562189E-01  0.100220433934E+00  0.106498871293E+00
  0.113159635735E+00  0.120224925446E+00  0.127718120243E+00  0.135663833706E+00  0.144087966481E+00
  0.153017760651E+00  0.162481855030E+00  0.172510341232E+00  0.183134820338E+00  0.194388459945E+00
  0.206306051365E+00  0.218924066699E+00  0.232280715472E+00  0.246416000488E+00  0.261371772504E+00
  0.277191783297E+00  0.293921736616E+00  0.311609336496E+00  0.330304332316E+00  0.350058559951E+00
  0.370925978281E+00  0.392962700265E+00  0.416227017697E+00  0.440779418706E+00  0.466682596959E+00
  0.494001451447E+00  0.522803075649E+00  0.553156734776E+00  0.585133829686E+00  0.618807846004E+00
  0.654254286791E+00  0.691550587178E+00  0.730776009024E+00  0.772011513852E+00  0.815339611954E+00
  0.860844185665E+00  0.908610284587E+00  0.958723890532E+00  0.101127164987E+01  0.106634057090E+01
  0.112401768383E+01  0.118438966090E+01  0.124754239429E+01  0.131356052931E+01  0.138252695049E+01
  0.145452221845E+01  0.152962395523E+01  0.160790617623E+01  0.168943856692E+01  0.177428570289E+01
  0.186250621223E+01  0.195415187923E+01  0.204926668944E+01  0.214788581629E+01  0.225003455022E+01
  0.235572717210E+01  0.246496577337E+01  0.257773902667E+01  0.269402091104E+01  0.281376939790E+01
  0.293692510444E+01  0.306340992288E+01  0.319312563553E+01  0.332595252696E+01  0.346174800655E+01
  0.360034525639E+01  0.374155192120E+01  0.388514885914E+01  0.403088897424E+01  0.417849615302E+01
  0.432766433004E+01  0.447805670892E+01  0.462930516713E+01  0.478100987464E+01  0.493273915778E+01
  0.508402964102E+01  0.523438670019E+01  0.538328526102E+01  0.553017097697E+01  0.567446181972E+01
  0.581555011443E+01  0.595280504984E+01  0.608557569088E+01  0.621319451720E+01  0.633498150700E+01
  0.645024877972E+01  0.655830580382E+01  0.665846516949E+01  0.675004891489E+01  0.683239538712E+01
  0.690486660475E+01  0.696685607960E+01  0.701779703943E+01  0.705717098114E+01  0.708451646821E+01
  0.709943807136E+01  0.710161533692E+01  0.709081165104E+01  0.706688285481E+01  0.702978545212E+01
  0.697958423852E+01  0.691645917288E+01  0.684071130299E+01  0.675276755535E+01  0.665318419684E+01
  0.654264878197E+01  0.642198040658E+01  0.629212810425E+01  0.615416724051E+01  0.600929378607E+01
  0.585881638135E+01  0.570414614203E+01  0.554678419849E+01  0.538830700906E+01  0.523034954012E+01
  0.507458645968E+01  0.492271154902E+01  0.477641559196E+01  0.463736305345E+01  0.450716791682E+01
  0.438736906030E+01  0.427940561124E+01  0.418459269483E+01  0.410409798885E+01  0.403891946051E+01
  0.398986462234E+01  0.395753161824E+01  0.394229246220E+01  0.394427881371E+01  0.396337078107E+01
  0.399918936450E+01  0.405109323765E+01  0.411818055223E+01  0.419929626941E+01  0.429304514935E+01
  0.439781005247E+01  0.451177481627E+01  0.463295083853E+01  0.475920661759E+01  0.488829971784E+01
  0.501791077240E+01  0.514567914899E+01  0.526923981886E+01  0.538626084639E+01  0.549448081214E+01
  0.559174542274E+01  0.567604251903E+01  0.574553475507E+01  0.579858922280E+01  0.583380341185E+01
  0.585002697207E+01  0.584637884648E+01  0.582225945864E+01  0.577735774624E+01  0.571165296396E+01
  0.562541125620E+01  0.551917716908E+01  0.539376032282E+01  0.525021758209E+01  0.508983118650E+01
  0.491408330615E+01  0.472462762855E+01  0.452325857849E+01  0.431187883313E+01  0.409246580338E+01
  0.386703775808E+01  0.363762025800E+01  0.340621353822E+01  0.317476144659E+01  0.294512249736E+01
  0.271904355022E+01  0.249813656393E+01  0.228385882018E+01  0.207749694521E+01  0.188015499188E+01
  0.169274676860E+01  0.151599251295E+01  0.135041989572E+01  0.119636924485E+01  0.105400263087E+01
  0.923316484352E+00  0.804157087234E+00  0.696238295576E+00  0.599160751786E+00  0.512431836118E+00
  0.435485604938E+00  0.367701925821E+00  0.308423924155E+00  0.256972799164E+00  0.212659362625E+00
  0.174792712350E+00  0.142688128053E+00  0.115677060003E+00  0.931200812036E-01  0.744199618835E-01
  0.590307707524E-01  0.464614555964E-01  0.362752826097E-01  0.280872246169E-01  0.215606192034E-01
  0.164036052945E-01  0.123654601811E-01  0.923286448538E-02  0.682613227949E-02  0.499546615705E-02
  0.361730697184E-02  0.259084503478E-02  0.183474890369E-02  0.128415394576E-02  0.887938349143E-03
  0.606300629394E-03  0.408640678523E-03  0.271736340951E-03  0.178199534212E-03  0.115190050181E-03
  0.733613012538E-04  0.460102302256E-04  0.284031387698E-04  0.172500042885E-04  0.103016266103E-04
  0.604636261637E-05  0.348599163842E-05  0.197317969249E-05  0.109589837526E-05  0.596872801049E-06
  0.318591065076E-06  0.166550106419E-06  0.852159605845E-07  0.426434557102E-07  0.208552533709E-07
  0.996029670961E-08  0.464164055031E-08  0.210886805299E-08
 kinetic energy-density
  0.227868424133E+01  0.230312222941E+01  0.232848433278E+01  0.235480655769E+01  0.238212480496E+01
  0.241047862386E+01  0.243990930468E+01  0.247046053720E+01  0.250217885058E+01  0.253511319496E+01
  0.256931650615E+01  0.260484417752E+01  0.264175324730E+01  0.268010176449E+01  0.271995997790E+01
  0.276139536110E+01  0.280447493678E+01  0.284928139590E+01  0.289588907408E+01  0.294438494640E+01
  0.299485755043E+01  0.304739999120E+01  0.310211055120E+01  0.315909277324E+01  0.321845596248E+01
  0.328031495250E+01  0.334479059531E+01  0.341201033564E+01  0.348210834226E+01  0.355522594588E+01
  0.363151206026E+01  0.371112359651E+01  0.379422595070E+01  0.388099347856E+01  0.397160993807E+01
  0.406626928519E+01  0.416517596416E+01  0.426854580716E+01  0.437660641315E+01  0.448959815936E+01
  0.460777468626E+01  0.473140412407E+01  0.486076934845E+01  0.499616925387E+01  0.513791982312E+01
  0.528635507595E+01  0.544182735224E+01  0.560471011930E+01  0.577539665785E+01  0.595430487279E+01
  0.614187784227E+01  0.633858104980E+01  0.654490523855E+01  0.676137737496E+01  0.698854854005E+01
  0.722700524017E+01  0.747736543787E+01  0.774028690886E+01  0.801646449172E+01  0.830663244149E+01
  0.861157283358E+01  0.893210954873E+01  0.926911730489E+01  0.962352354238E+01  0.999630874361E+01
  0.103885149855E+02  0.108012440003E+02  0.112356647740E+02  0.116930159051E+02  0.121746092027E+02
  0.126818381832E+02  0.132161773550E+02  0.137791915674E+02  0.143725386680E+02  0.149979775385E+02
  0.156573729407E+02  0.163527019871E+02  0.170860616544E+02  0.178596748506E+02  0.186758999463E+02
  0.195372373728E+02  0.204463392720E+02  0.214060172786E+02  0.224192571210E+02  0.234892171019E+02
  0.246192551380E+02  0.258129315791E+02  0.270740123215E+02  0.284065072327E+02  0.298146565730E+02
  0.313029578982E+02  0.328761872179E+02  0.345394026153E+02  0.362979705016E+02  0.381575808869E+02
  0.401242643693E+02  0.422044153030E+02  0.444048155230E+02  0.467326505359E+02  0.491955356781E+02
  0.518015471738E+02  0.545592396555E+02  0.574776813220E+02  0.605664776786E+02  0.638358084024E+02
  0.672964572134E+02  0.709598436528E+02  0.748380659344E+02  0.789439341581E+02  0.832910105089E+02
  0.878936552566E+02  0.927670656178E+02  0.979273290258E+02  0.103391464606E+03  0.109177480131E+03
  0.115304422458E+03  0.121792435135E+03  0.128662814408E+03  0.135938076371E+03  0.143642013317E+03
  0.151799764990E+03  0.160437893211E+03  0.169584439174E+03  0.179269012434E+03  0.189522875366E+03
  0.200378992923E+03  0.211872159783E+03  0.224039054979E+03  0.236918348537E+03  0.250550780466E+03
  0.264979278357E+03  0.280249033641E+03  0.296407617844E+03  0.313505077782E+03  0.331594044165E+03
  0.350729843462E+03  0.370970599352E+03  0.392377348928E+03  0.415014158952E+03  0.438948225139E+03
  0.464250003300E+03  0.490993302881E+03  0.519255412955E+03  0.549117205425E+03  0.580663240770E+03
  0.613981875032E+03  0.649165357869E+03  0.686309923457E+03  0.725515879996E+03  0.766887686634E+03
  0.810534024615E+03  0.856567849267E+03  0.905106440664E+03  0.956271429481E+03  0.101018881008E+04
  0.106698893297E+04  0.112680647727E+04  0.118978039796E+04  0.125605383947E+04  0.132577403382E+04
  0.139909215649E+04  0.147616312670E+04  0.155714540760E+04  0.164220074118E+04  0.173149380853E+04
  0.182519188256E+04  0.192346441718E+04  0.202648251622E+04  0.213441844231E+04  0.224744493206E+04
  0.236573456392E+04  0.248945891766E+04  0.261878776540E+04  0.275388806516E+04  0.289492297008E+04
  0.304205064375E+04  0.319542301417E+04  0.335518443229E+04  0.352147020434E+04  0.369440498810E+04
  0.387410113753E+04  0.406065686252E+04  0.425415431693E+04  0.445465755307E+04  0.466221037165E+04
  0.487683405389E+04  0.509852500521E+04  0.532725227683E+04  0.556295503314E+04  0.580553991890E+04
  0.605487837558E+04  0.631080391504E+04  0.657310936222E+04  0.684154410432E+04  0.711581135883E+04
  0.739556550565E+04  0.768040947409E+04  0.796989230760E+04  0.826350683266E+04  0.856068757587E+04
  0.886080890542E+04  0.916318349525E+04  0.946706112407E+04  0.977162790202E+04  0.100760059419E+05
  0.103792535817E+05  0.106803661646E+05  0.109782774757E+05  0.112718618771E+05  0.115599372174E+05
  0.118412684630E+05  0.121145723942E+05  0.123785228838E+05  0.126317574421E+05  0.128728844743E+05
  0.131004916166E+05  0.133131550539E+05  0.135094497302E+05  0.136879605562E+05  0.138472944668E+05
  0.139860932702E+05  0.141030473169E+05  0.141969096551E+05  0.142665108134E+05  0.143107738611E+05
  0.143287295758E+05  0.143195317530E+05  0.142824720677E+05  0.142169946059E+05  0.141227096063E+05
  0.139994061725E+05  0.138470638269E+05  0.136658623345E+05  0.134561899014E+05  0.132186490413E+05
  0.129540602581E+05  0.126634629544E+05  0.123481135726E+05  0.120094806368E+05  0.116492366675E+05
  0.112692467415E+05  0.108715538025E+05  0.104583606542E+05  0.100320088495E+05  0.959495461851E+04
  0.914974223534E+04  0.869897519361E+04  0.824528577164E+04  0.779130370057E+04  0.733962426660E+04
  0.689277759211E+04  0.645319863598E+04  0.602319946205E+04  0.560494381133E+04  0.520042405796E+04
  0.481144018659E+04  0.443958022963E+04  0.408620181351E+04  0.375241515259E+04  0.343906877220E+04
  0.314673996406E+04  0.287573204894E+04  0.262607983794E+04  0.239756346911E+04  0.218972941853E+04
  0.200191641197E+04  0.183328362041E+04  0.168283907061E+04  0.154946719336E+04  0.143195531428E+04
  0.132901924680E+04  0.123932810541E+04  0.116152827004E+04  0.109426622287E+04  0.103620991225E+04
  0.986068296410E+03  0.942608684571E+03  0.904671673831E+03  0.871183445540E+03  0.841165318487E+03
  0.813740569453E+03  0.788138503696E+03  0.763696064931E+03  0.739856955209E+03  0.716168765209E+03
  0.692278163845E+03  0.667924625552E+03  0.642932941760E+03  0.617204745093E+03  0.590709509797E+03
  0.563475168921E+03  0.535578636910E+03  0.507136494602E+03  0.478295989030E+03  0.449226528213E+03
  0.420111792537E+03  0.391142568300E+03  0.362510362368E+03  0.334401836303E+03  0.306994112491E+03
  0.280450818345E+03  0.254919045631E+03  0.230526966075E+03  0.207382172485E+03  0.185570641588E+03
  0.165156261956E+03  0.146180877548E+03  0.128664814150E+03  0.112607840395E+03  0.979905668075E+02
  0.847762307060E+02  0.729128222490E+02  0.623354739729E+02  0.529690166547E+02  0.447306056483E+02
  0.375323551955E+02  0.312839768171E+02  0.258954534417E+02  0.212796895060E+02  0.173547608023E+02
  0.140449830192E+02  0.112801363193E+02  0.899341426194E+01  0.712008573976E+01  0.559830057377E+01
  0.437120273937E+01  0.338855133272E+01  0.260711361330E+01  0.199020175856E+01  0.150690865920E+01
  0.113134233621E+01  0.841944867190E+00  0.620895982047E+00  0.453584803968E+00  0.328137518737E+00
  0.234994597959E+00  0.166534514771E+00  0.116742039629E+00  0.809191384531E-01  0.554360417043E-01
  0.375195629536E-01  0.250753627811E-01  0.165406310132E-01  0.107635856215E-01  0.690623070116E-02
  0.436696507124E-02  0.271985635500E-02  0.166767750651E-02  0.100612110638E-02  0.596943065280E-03
  0.348122398062E-03  0.199442485475E-03  0.112190691400E-03  0.619313521974E-04  0.335298861585E-04
  0.177936161230E-04  0.924990397082E-05  0.470724476102E-05  0.234343256256E-05  0.114045134404E-05
  0.542131712579E-06  0.251527094894E-06  0.113801731921E-06
 mkinetic energy-density pseudized
  0.284086026555E-05  0.302861953396E-05  0.322878826267E-05  0.344218662264E-05  0.366968899193E-05
  0.391222753830E-05  0.417079603876E-05  0.444645395137E-05  0.474033075635E-05  0.505363058394E-05
  0.538763714826E-05  0.574371900715E-05  0.612333516972E-05  0.652804107447E-05  0.695949496258E-05
  0.741946467233E-05  0.790983488266E-05  0.843261483547E-05  0.898994656823E-05  0.958411369082E-05
  0.102175507423E-04  0.108928531663E-04  0.116127879455E-04  0.123803049391E-04  0.131985489693E-04
  0.140708727075E-04  0.150008504108E-04  0.159922925678E-04  0.170492615110E-04  0.181760880623E-04
  0.193773892781E-04  0.206580873669E-04  0.220234298575E-04  0.234790111007E-04  0.250307951909E-04
  0.266851404039E-04  0.284488252489E-04  0.303290762429E-04  0.323335975206E-04  0.344706024011E-04
  0.367488470411E-04  0.391776663125E-04  0.417670120510E-04  0.445274938325E-04  0.474704224447E-04
  0.506078562319E-04  0.539526505027E-04  0.575185102034E-04  0.613200460720E-04  0.653728345045E-04
  0.696934813773E-04  0.742996900878E-04  0.792103340921E-04  0.844455342371E-04  0.900267412026E-04
  0.959768233938E-04  0.102320160641E-03  0.109082744095E-03  0.116292282719E-03  0.123978316827E-03
  0.132172339117E-03  0.140907923716E-03  0.150220863734E-03  0.160149317934E-03  0.170733967075E-03
  0.182018180597E-03  0.194048194326E-03  0.206873299911E-03  0.220546046799E-03  0.235122457543E-03
  0.250662257346E-03  0.267229118782E-03  0.284890922679E-03  0.303720036253E-03  0.323793609623E-03
  0.345193891918E-03  0.368008568283E-03  0.392331119152E-03  0.418261203271E-03  0.445905066030E-03
  0.475375974783E-03  0.506794682946E-03  0.540289924757E-03  0.575998942740E-03  0.614068050029E-03
  0.654653229859E-03  0.697920774669E-03  0.744047967451E-03  0.793223808126E-03  0.845649787929E-03
  0.901540714965E-03  0.961125594335E-03  0.102464856642E-02  0.109236990718E-02  0.116456709455E-02
  0.124153594537E-02  0.132359182731E-02  0.141107095107E-02  0.150433174787E-02  0.160375633795E-02
  0.170975209622E-02  0.182275332128E-02  0.194322301481E-02  0.207165477848E-02  0.220857483630E-02
  0.235454419053E-02  0.251016092015E-02  0.267606263114E-02  0.285292906871E-02  0.304148490218E-02
  0.324250269384E-02  0.345680606404E-02  0.368527306538E-02  0.392883977993E-02  0.418850415404E-02
  0.446533008666E-02  0.476045178775E-02  0.507507842463E-02  0.541049907541E-02  0.576808800964E-02
  0.614931031790E-02  0.655572791333E-02  0.698900592964E-02  0.745091954188E-02  0.794336123772E-02
  0.846834856922E-02  0.902803241660E-02  0.962470579795E-02  0.102608132609E-01  0.109389608944E-01
  0.116619270026E-01  0.124326734825E-01  0.132543579540E-01  0.141303466908E-01  0.150642284055E-01
  0.160598289442E-01  0.171212269524E-01  0.182527705750E-01  0.194590952584E-01  0.207451427289E-01
  0.221161812232E-01  0.235778270544E-01  0.251360676019E-01  0.267972858184E-01  0.285682863541E-01
  0.304563234049E-01  0.324691303980E-01  0.346149516362E-01  0.369025760289E-01  0.393413730491E-01
  0.419413310602E-01  0.447130981713E-01  0.476680257854E-01  0.508182150179E-01  0.541765661753E-01
  0.577568314930E-01  0.615736713486E-01  0.656427141768E-01  0.699806203304E-01  0.746051501450E-01
  0.795352364846E-01  0.847910620593E-01  0.903941418300E-01  0.963674108315E-01  0.102735317769E+00
  0.109523924766E+00  0.116761013662E+00  0.124476199293E+00  0.132701050205E+00  0.141469217288E+00
  0.150816570844E+00  0.160781346634E+00  0.171404301501E+00  0.182728879167E+00  0.194801386886E+00
  0.207671183640E+00  0.221390880632E+00  0.236016554859E+00  0.251607976626E+00  0.268228851868E+00
  0.285947080263E+00  0.304835030120E+00  0.324969831124E+00  0.346433686083E+00  0.369314202863E+00
  0.393704747821E+00  0.419704822065E+00  0.447420461997E+00  0.476964665660E+00  0.508457846498E+00
  0.542028316242E+00  0.577812798729E+00  0.615956976563E+00  0.656616072636E+00  0.699955468643E+00
  0.746151362837E+00  0.795391469397E+00  0.847875761905E+00  0.903817263562E+00  0.963442886901E+00
  0.102699432591E+01  0.109472900357E+01  0.116692107810E+01  0.124386251106E+01  0.132586420098E+01
  0.141325718603E+01  0.150639391956E+01  0.160564962234E+01  0.171142371571E+01  0.182414133962E+01
  0.194425496004E+01  0.207224607007E+01  0.220862698926E+01  0.235394276569E+01  0.250877318554E+01
  0.267373489463E+01  0.284948363663E+01  0.303671661252E+01  0.323617496565E+01  0.344864639668E+01
  0.367496791235E+01  0.391602871175E+01  0.417277321334E+01  0.444620422517E+01  0.473738626037E+01
  0.504744899899E+01  0.537759089605E+01  0.572908293466E+01  0.610327252157E+01  0.650158752035E+01
  0.692554041591E+01  0.737673260111E+01  0.785685877355E+01  0.836771142742E+01  0.891118542115E+01
  0.948928259740E+01  0.101041164267E+02  0.107579166404E+02  0.114530338109E+02  0.121919438314E+02
  0.129772522364E+02  0.138116982962E+02  0.146981588056E+02  0.156396514762E+02  0.166393378261E+02
  0.177005254449E+02  0.188266694944E+02  0.200213732846E+02  0.212883877438E+02  0.226316095734E+02
  0.240550778547E+02  0.255629688417E+02  0.271595886416E+02  0.288493634481E+02  0.306368269544E+02
  0.325266045275E+02  0.345233936831E+02  0.366319403477E+02  0.388570103472E+02  0.412033555043E+02
  0.436756736737E+02  0.462785619874E+02  0.490164625264E+02  0.518935995844E+02  0.549139076361E+02
  0.580809490835E+02  0.613978208211E+02  0.648670486405E+02  0.684904684996E+02  0.722690937052E+02
  0.762029671180E+02  0.802909975887E+02  0.845307799840E+02  0.889183983789E+02  0.934482122782E+02
  0.981126261178E+02  0.102901842790E+03  0.107803602555E+03  0.112802909492E+03  0.117881748555E+03
  0.123018797500E+03  0.128189139250E+03  0.133363981920E+03  0.138510395564E+03  0.143591076839E+03
  0.148564155192E+03  0.153383056848E+03  0.157996445736E+03  0.162348263567E+03  0.166377894391E+03
  0.170020481995E+03  0.173207431246E+03  0.175867126731E+03  0.177925903246E+03  0.179309302635E+03
  0.179943649327E+03  0.179757972103E+03  0.178686291255E+03  0.176670277313E+03  0.173662268861E+03
  0.169628611376E+03  0.164553245360E+03  0.158441429037E+03  0.151323427842E+03  0.143257939345E+03
  0.134334948656E+03  0.124677627375E+03  0.114442802300E+03  0.103819434183E+03  0.930244708182E+02
  0.822953855736E+02  0.718786995746E+02  0.620138358762E+02  0.529117951329E+02  0.447284074290E+02
  0.375323551955E+02  0.312839768171E+02  0.258954534417E+02  0.212796895060E+02  0.173547608023E+02
  0.140449830192E+02  0.112801363193E+02  0.899341426194E+01  0.712008573976E+01  0.559830057377E+01
  0.437120273937E+01  0.338855133272E+01  0.260711361330E+01  0.199020175856E+01  0.150690865920E+01
  0.113134233621E+01  0.841944867190E+00  0.620895982047E+00  0.453584803968E+00  0.328137518737E+00
  0.234994597959E+00  0.166534514771E+00  0.116742039629E+00  0.809191384531E-01  0.554360417043E-01
  0.375195629536E-01  0.250753627811E-01  0.165406310132E-01  0.107635856215E-01  0.690623070116E-02
  0.436696507124E-02  0.271985635500E-02  0.166767750651E-02  0.100612110638E-02  0.596943065280E-03
  0.348122398062E-03  0.199442485475E-03  0.112190691400E-03  0.619313521974E-04  0.335298861585E-04
  0.177936161230E-04  0.924990397082E-05  0.470724476102E-05  0.234343256256E-05  0.114045134404E-05
  0.542131712579E-06  0.251527094894E-06  0.113801731921E-06
 local pseudopotential core
 -0.527971078094E+02 -0.527977857752E+02 -0.527984423894E+02 -0.527990783242E+02 -0.527996942310E+02
 -0.528002907406E+02 -0.528008684637E+02 -0.528014279920E+02 -0.528019698985E+02 -0.528024947381E+02
 -0.528030030483E+02 -0.528034953498E+02 -0.528039721465E+02 -0.528044339268E+02 -0.528048811635E+02
 -0.528053143146E+02 -0.528057338238E+02 -0.528061401206E+02 -0.528065336210E+02 -0.528069147281E+02
 -0.528072838321E+02 -0.528076413109E+02 -0.528079875305E+02 -0.528083228455E+02 -0.528086475993E+02
 -0.528089621246E+02 -0.528092667432E+02 -0.528095617672E+02 -0.528098474987E+02 -0.528101242302E+02
 -0.528103922451E+02 -0.528106518177E+02 -0.528109032139E+02 -0.528111466910E+02 -0.528113824983E+02
 -0.528116108772E+02 -0.528118320617E+02 -0.528120462781E+02 -0.528122537457E+02 -0.528124546768E+02
 -0.528126492774E+02 -0.528128377463E+02 -0.528130202767E+02 -0.528131970553E+02 -0.528133682630E+02
 -0.528135340750E+02 -0.528136946612E+02 -0.528138501857E+02 -0.528140008077E+02 -0.528141466813E+02
 -0.528142879556E+02 -0.528144247753E+02 -0.528145572803E+02 -0.528146856060E+02 -0.528148098837E+02
 -0.528149302403E+02 -0.528150467991E+02 -0.528151596789E+02 -0.528152689953E+02 -0.528153748597E+02
 -0.528154773804E+02 -0.528155766620E+02 -0.528156728058E+02 -0.528157659100E+02 -0.528158560694E+02
 -0.528159433761E+02 -0.528160279188E+02 -0.528161097838E+02 -0.528161890544E+02 -0.528162658112E+02
 -0.528163401322E+02 -0.528164120929E+02 -0.528164817664E+02 -0.528165492232E+02 -0.528166145318E+02
 -0.528166777583E+02 -0.528167389664E+02 -0.528167982180E+02 -0.528168555728E+02 -0.528169110885E+02
 -0.528169648209E+02 -0.528170168237E+02 -0.528170671491E+02 -0.528171158472E+02 -0.528171629664E+02
 -0.528172085535E+02 -0.528172526536E+02 -0.528172953101E+02 -0.528173365649E+02 -0.528173764581E+02
 -0.528174150287E+02 -0.528174523139E+02 -0.528174883494E+02 -0.528175231697E+02 -0.528175568077E+02
 -0.528175892951E+02 -0.528176206619E+02 -0.528176509370E+02 -0.528176801480E+02 -0.528177083211E+02
 -0.528177354811E+02 -0.528177616517E+02 -0.528177868551E+02 -0.528178111124E+02 -0.528178344433E+02
 -0.528178568662E+02 -0.528178783982E+02 -0.528178990553E+02 -0.528179188519E+02 -0.528179378013E+02
 -0.528179559154E+02 -0.528179732048E+02 -0.528179896785E+02 -0.528180053444E+02 -0.528180202087E+02
 -0.528180342765E+02 -0.528180475510E+02 -0.528180600341E+02 -0.528180717260E+02 -0.528180826254E+02
 -0.528180927292E+02 -0.528181020324E+02 -0.528181105286E+02 -0.528181182090E+02 -0.528181250632E+02
 -0.528181310785E+02 -0.528181362402E+02 -0.528181405313E+02 -0.528181439325E+02 -0.528181464218E+02
 -0.528181479747E+02 -0.528181485641E+02 -0.528181481599E+02 -0.528181467289E+02 -0.528181442347E+02
 -0.528181406376E+02 -0.528181358943E+02 -0.528181299575E+02 -0.528181227761E+02 -0.528181142947E+02
 -0.528181044534E+02 -0.528180931874E+02 -0.528180804270E+02 -0.528180660971E+02 -0.528180501167E+02
 -0.528180323989E+02 -0.528180128505E+02 -0.528179913710E+02 -0.528179678531E+02 -0.528179421815E+02
 -0.528179142327E+02 -0.528178838745E+02 -0.528178509654E+02 -0.528178153539E+02 -0.528177768781E+02
 -0.528177353646E+02 -0.528176906284E+02 -0.528176424714E+02 -0.528175906823E+02 -0.528175350351E+02
 -0.528174752885E+02 -0.528174111849E+02 -0.528173424491E+02 -0.528172687875E+02 -0.528171898865E+02
 -0.528171054116E+02 -0.528170150056E+02 -0.528169182876E+02 -0.528168148509E+02 -0.528167042617E+02
 -0.528165860574E+02 -0.528164597442E+02 -0.528163247955E+02 -0.528161806497E+02 -0.528160267075E+02
 -0.528158623301E+02 -0.528156868359E+02 -0.528154994981E+02 -0.528152995418E+02 -0.528150861403E+02
 -0.528148584122E+02 -0.528146154176E+02 -0.528143561544E+02 -0.528140795537E+02 -0.528137844762E+02
 -0.528134697067E+02 -0.528131339497E+02 -0.528127758238E+02 -0.528123938562E+02 -0.528119864765E+02
 -0.528115520104E+02 -0.528110886726E+02 -0.528105945600E+02 -0.528100676432E+02 -0.528095057586E+02
 -0.528089065995E+02 -0.528082677067E+02 -0.528075864581E+02 -0.528068600583E+02 -0.528060855270E+02
 -0.528052596866E+02 -0.528043791497E+02 -0.528034403046E+02 -0.528024393008E+02 -0.528013720332E+02
 -0.528002341253E+02 -0.527990209113E+02 -0.527977274166E+02 -0.527963483379E+02 -0.527948780213E+02
 -0.527933104390E+02 -0.527916391646E+02 -0.527898573470E+02 -0.527879576820E+02 -0.527859323825E+02
 -0.527837731467E+02 -0.527814711239E+02 -0.527790168782E+02 -0.527764003501E+02 -0.527736108150E+02
 -0.527706368392E+02 -0.527674662332E+02 -0.527640860018E+02 -0.527604822908E+02 -0.527566403299E+02
 -0.527525443729E+02 -0.527481776323E+02 -0.527435222112E+02 -0.527385590300E+02 -0.527332677476E+02
 -0.527276266790E+02 -0.527216127059E+02 -0.527152011822E+02 -0.527083658337E+02 -0.527010786497E+02
 -0.526933097694E+02 -0.526850273597E+02 -0.526761974846E+02 -0.526667839676E+02 -0.526567482438E+02
 -0.526460492027E+02 -0.526346430213E+02 -0.526224829857E+02 -0.526095193015E+02 -0.525956988924E+02
 -0.525809651853E+02 -0.525652578822E+02 -0.525485127171E+02 -0.525306611988E+02 -0.525116303362E+02
 -0.524913423480E+02 -0.524697143537E+02 -0.524466580468E+02 -0.524220793481E+02 -0.523958780389E+02
 -0.523679473737E+02 -0.523381736708E+02 -0.523064358815E+02 -0.522726051359E+02 -0.522365442672E+02
 -0.521981073131E+02 -0.521571389948E+02 -0.521134741762E+02 -0.520669373024E+02 -0.520173418218E+02
 -0.519644895943E+02 -0.519081702898E+02 -0.518481607824E+02 -0.517842245496E+02 -0.517161110835E+02
 -0.516435553290E+02 -0.515662771628E+02 -0.514839809336E+02 -0.513963550878E+02 -0.513030719108E+02
 -0.512037874218E+02 -0.510981414671E+02 -0.509857580705E+02 -0.508662461069E+02 -0.507392003858E+02
 -0.506042032452E+02 -0.504608267806E+02 -0.503086358568E+02 -0.501471920840E+02 -0.499760589707E+02
 -0.497948085119E+02 -0.496030295150E+02 -0.494003380210E+02 -0.491863902372E+02 -0.489608984551E+02
 -0.487236504837E+02 -0.484745331577E+02 -0.482135604626E+02 -0.479409066967E+02 -0.476569447572E+02
 -0.473622889153E+02 -0.470578400071E+02 -0.467448282336E+02 -0.464248438124E+02 -0.460998370628E+02
 -0.457720551331E+02 -0.454438603332E+02 -0.451173444723E+02 -0.447936205518E+02 -0.444716587957E+02
 -0.441465865355E+02 -0.438075683390E+02 -0.434357921610E+02 -0.430036552647E+02 -0.424766451795E+02
 -0.418190751860E+02 -0.410034125905E+02 -0.400209762303E+02 -0.388902703553E+02 -0.376565531759E+02
 -0.363699322537E+02 -0.351170214015E+02 -0.339318673965E+02 -0.328173261975E+02 -0.317673214276E+02
 -0.307615576021E+02 -0.297760574653E+02 -0.288021938791E+02 -0.278518950309E+02 -0.269463691348E+02
 -0.260776805625E+02 -0.252463774166E+02 -0.244436531252E+02 -0.236680823692E+02 -0.229183869449E+02
 -0.221934149887E+02 -0.214921225274E+02 -0.208135565691E+02 -0.201568360568E+02 -0.195211517720E+02
 -0.189057471475E+02 -0.183099089733E+02 -0.177329706037E+02 -0.171742963919E+02 -0.166332833554E+02
 -0.161093543172E+02 -0.156019574941E+02 -0.151105602839E+02 -0.146346534463E+02 -0.141737436020E+02
 -0.137273552764E+02 -0.132950288880E+02 -0.128763205394E+02 -0.124708002537E+02 -0.120780521114E+02
 -0.116976734951E+02 -0.113292745857E+02 -0.109724779295E+02 -0.106269180260E+02 -0.102922409079E+02
 -0.996810375339E+01 -0.965417470104E+01 -0.935013215842E+01 -0.905566483270E+01 -0.877047118564E+01
 -0.849425918422E+01 -0.822674599797E+01 -0.796765769850E+01
 pspotential valence only
  0.919521492051E+01  0.919453694965E+01  0.919388033008E+01  0.919324438945E+01  0.919262847654E+01
  0.919203196046E+01  0.919145423040E+01  0.919089469463E+01  0.919035278022E+01  0.918982793215E+01
  0.918931961293E+01  0.918882730189E+01  0.918835049494E+01  0.918788870375E+01  0.918744145541E+01
  0.918700829188E+01  0.918658876945E+01  0.918618245859E+01  0.918578894312E+01  0.918540782000E+01
  0.918503869897E+01  0.918468120196E+01  0.918433496296E+01  0.918399962726E+01  0.918367485137E+01
  0.918336030261E+01  0.918305565889E+01  0.918276060815E+01  0.918247484822E+01  0.918219808630E+01
  0.918193003906E+01  0.918167043193E+01  0.918141899892E+01  0.918117548259E+01  0.918093963346E+01
  0.918071120991E+01  0.918048997792E+01  0.918027571082E+01  0.918006818915E+01  0.917986720041E+01
  0.917967253847E+01  0.917948400401E+01  0.917930140387E+01  0.917912455088E+01  0.917895326381E+01
  0.917878736718E+01  0.917862669084E+01  0.917847107026E+01  0.917832034577E+01  0.917817436292E+01
  0.917803297208E+01  0.917789602822E+01  0.917776339087E+01  0.917763492403E+01  0.917751049590E+01
  0.917738997884E+01  0.917727324910E+01  0.917716018694E+01  0.917705067625E+01  0.917694460463E+01
  0.917684186306E+01  0.917674234598E+01  0.917664595106E+01  0.917655257925E+01  0.917646213448E+01
  0.917637452366E+01  0.917628965661E+01  0.917620744586E+01  0.917612780669E+01  0.917605065697E+01
  0.917597591707E+01  0.917590350974E+01  0.917583336016E+01  0.917576539569E+01  0.917569954595E+01
  0.917563574264E+01  0.917557391948E+01  0.917551401218E+01  0.917545595835E+01  0.917539969744E+01
  0.917534517060E+01  0.917529232078E+01  0.917524109245E+01  0.917519143176E+01  0.917514328627E+01
  0.917509660507E+01  0.917505133858E+01  0.917500743860E+01  0.917496485819E+01  0.917492355164E+01
  0.917488347435E+01  0.917484458294E+01  0.917480683497E+01  0.917477018905E+01  0.917473460477E+01
  0.917470004255E+01  0.917466646372E+01  0.917463383033E+01  0.917460210522E+01  0.917457125187E+01
  0.917454123444E+01  0.917451201760E+01  0.917448356658E+01  0.917445584707E+01  0.917442882514E+01
  0.917440246725E+01  0.917437674011E+01  0.917435161070E+01  0.917432704613E+01  0.917430301364E+01
  0.917427948052E+01  0.917425641403E+01  0.917423378132E+01  0.917421154938E+01  0.917418968498E+01
  0.917416815456E+01  0.917414692416E+01  0.917412595934E+01  0.917410522511E+01  0.917408468580E+01
  0.917406430501E+01  0.917404404546E+01  0.917402386893E+01  0.917400373612E+01  0.917398360654E+01
  0.917396343841E+01  0.917394318849E+01  0.917392281196E+01  0.917390226231E+01  0.917388149113E+01
  0.917386044797E+01  0.917383908021E+01  0.917381733279E+01  0.917379514813E+01  0.917377246581E+01
  0.917374922245E+01  0.917372535142E+01  0.917370078262E+01  0.917367544224E+01  0.917364925244E+01
  0.917362213107E+01  0.917359399141E+01  0.917356474177E+01  0.917353428517E+01  0.917350251898E+01
  0.917346933450E+01  0.917343461653E+01  0.917339824295E+01  0.917336008423E+01  0.917332000289E+01
  0.917327785300E+01  0.917323347956E+01  0.917318671791E+01  0.917313739308E+01  0.917308531905E+01
  0.917303029807E+01  0.917297211977E+01  0.917291056043E+01  0.917284538198E+01  0.917277633110E+01
  0.917270313816E+01  0.917262551615E+01  0.917254315951E+01  0.917245574290E+01  0.917236291987E+01
  0.917226432146E+01  0.917215955468E+01  0.917204820096E+01  0.917192981439E+01  0.917180391994E+01
  0.917167001153E+01  0.917152754993E+01  0.917137596061E+01  0.917121463136E+01  0.917104290981E+01
  0.917086010078E+01  0.917066546341E+01  0.917045820816E+01  0.917023749360E+01  0.917000242294E+01
  0.916975204039E+01  0.916948532726E+01  0.916920119779E+01  0.916889849472E+01  0.916857598457E+01
  0.916823235259E+01  0.916786619740E+01  0.916747602528E+01  0.916706024403E+01  0.916661715653E+01
  0.916614495374E+01  0.916564170741E+01  0.916510536209E+01  0.916453372685E+01  0.916392446629E+01
  0.916327509103E+01  0.916258294751E+01  0.916184520728E+01  0.916105885534E+01  0.916022067796E+01
  0.915932724953E+01  0.915837491859E+01  0.915735979306E+01  0.915627772432E+01  0.915512429034E+01
  0.915389477773E+01  0.915258416261E+01  0.915118709011E+01  0.914969785274E+01  0.914811036716E+01
  0.914641814956E+01  0.914461428936E+01  0.914269142125E+01  0.914064169538E+01  0.913845674564E+01
  0.913612765583E+01  0.913364492373E+01  0.913099842279E+01  0.912817736130E+01  0.912517023905E+01
  0.912196480105E+01  0.911854798843E+01  0.911490588602E+01  0.911102366676E+01  0.910688553241E+01
  0.910247465049E+01  0.909777308732E+01  0.909276173672E+01  0.908742024413E+01  0.908172692612E+01
  0.907565868465E+01  0.906919091609E+01  0.906229741437E+01  0.905495026834E+01  0.904711975246E+01
  0.903877421098E+01  0.902987993478E+01  0.902040103075E+01  0.901029928313E+01  0.899953400644E+01
  0.898806188948E+01  0.897583682984E+01  0.896280975860E+01  0.894892845445E+01  0.893413734683E+01
  0.891837730736E+01  0.890158542903E+01  0.888369479249E+01  0.886463421866E+01  0.884432800704E+01
  0.882269565892E+01  0.879965158464E+01  0.877510479405E+01  0.874895856933E+01  0.872111011904E+01
  0.869145021238E+01  0.865986279257E+01  0.862622456784E+01  0.859040457876E+01  0.855226374011E+01
  0.851165435560E+01  0.846841960299E+01  0.842239298738E+01  0.837339775938E+01  0.832124629495E+01
  0.826573943228E+01  0.820666576096E+01  0.814380085697E+01  0.807690645603E+01  0.800572955618E+01
  0.793000143804E+01  0.784943658927E+01  0.776373151585E+01  0.767256341954E+01  0.757558871574E+01
  0.747244136031E+01  0.736273094676E+01  0.724604052633E+01  0.712192409334E+01  0.698990366489E+01
  0.684946586905E+01  0.670005793672E+01  0.654108297041E+01  0.637189433665E+01  0.619178899743E+01
  0.599999955977E+01  0.579568478012E+01  0.557791821317E+01  0.534567464283E+01  0.509781388156E+01
  0.483306147883E+01  0.454998585679E+01  0.424697141945E+01  0.392218731666E+01  0.357355188682E+01
  0.319869353753E+01  0.279491027902E+01  0.235913286783E+01  0.188790149171E+01  0.137737459762E+01
  0.823402860690E+00  0.221723550786E+00 -0.431638862440E+00 -0.113964696111E+01 -0.190306619571E+01
 -0.271874149812E+01 -0.357745078064E+01 -0.446186079501E+01 -0.534567878945E+01 -0.619549492708E+01
 -0.697647466632E+01 -0.766163909889E+01 -0.824250946415E+01 -0.873738281452E+01 -0.919083703572E+01
 -0.964787039797E+01 -0.101146162831E+02 -0.106030636856E+02 -0.111104848114E+02 -0.115930652200E+02
 -0.119643660282E+02 -0.121390973786E+02 -0.120983756178E+02 -0.119074525517E+02 -0.116669752883E+02
 -0.114295566301E+02 -0.112230857747E+02 -0.110431638210E+02 -0.108837047534E+02 -0.107377677821E+02
 -0.106003034826E+02 -0.104683294206E+02 -0.103403495759E+02 -0.102157387693E+02 -0.100943315582E+02
 -0.997618784722E+01 -0.986146407572E+01 -0.975035920968E+01 -0.964306112165E+01 -0.953967872382E+01
 -0.944015392354E+01 -0.934415673430E+01 -0.925097596549E+01 -0.915945853477E+01 -0.906799864883E+01
 -0.897462362691E+01 -0.887715252821E+01 -0.877342484537E+01 -0.866153200651E+01 -0.854003196214E+01
 -0.840810077934E+01 -0.826561038490E+01 -0.811313260997E+01 -0.795188069629E+01 -0.778360313319E+01
 -0.761044371070E+01 -0.743477909412E+01 -0.725904344234E+01 -0.708555045189E+01 -0.691632601863E+01
 -0.675296800345E+01 -0.659655038183E+01 -0.644758511408E+01
 core charge-density (pseudized)
  0.287562759339E-07  0.306568471791E-07  0.326830317354E-07  0.348431316877E-07  0.371459978254E-07
  0.396010659081E-07  0.422183953271E-07  0.450087103229E-07  0.479834439269E-07  0.511547848069E-07
  0.545357272088E-07  0.581401241995E-07  0.619827444281E-07  0.660793326391E-07  0.704466741848E-07
  0.751026638018E-07  0.800663789324E-07  0.853581578926E-07  0.909996832067E-07  0.970140704485E-07
  0.103425962955E-06  0.110261632802E-06  0.117549088447E-06  0.125318189494E-06  0.133600769042E-06
  0.142430764112E-06  0.151844354705E-06  0.161880112045E-06  0.172579156621E-06  0.183985326670E-06
  0.196145357806E-06  0.209109074508E-06  0.222929594275E-06  0.237663545268E-06  0.253371298337E-06
  0.270117214385E-06  0.287969908080E-06  0.307002528995E-06  0.327293061335E-06  0.348924643460E-06
  0.371985908547E-06  0.396571347746E-06  0.422781697349E-06  0.450724351551E-06  0.480513802478E-06
  0.512272109314E-06  0.546129398417E-06  0.582224396507E-06  0.620704999073E-06  0.661728876365E-06
  0.705464119428E-06  0.752089928837E-06  0.801797348948E-06  0.854790050685E-06  0.911285166052E-06
  0.971514177812E-06  0.103572386796E-05  0.110417732887E-05  0.117715504131E-05  0.125495602364E-05
  0.133789905707E-05  0.142632399173E-05  0.152059313925E-05  0.162109275723E-05  0.172823463193E-05
  0.184245776546E-05  0.196423017457E-05  0.209405080826E-05  0.223245159217E-05  0.237999960808E-05
  0.253729941743E-05  0.270499553842E-05  0.288377508686E-05  0.307437059148E-05  0.327756299540E-05
  0.349418485590E-05  0.372512375566E-05  0.397132593955E-05  0.423380019167E-05  0.451362196866E-05
  0.481193780623E-05  0.512997001685E-05  0.546902169795E-05  0.583048207113E-05  0.621583217423E-05
  0.662665092951E-05  0.706462161305E-05  0.753153875152E-05  0.802931547490E-05  0.855999135505E-05
  0.912574076237E-05  0.972888177476E-05  0.103718856753E-04  0.110573870776E-04  0.117881947206E-04
  0.125673029761E-04  0.133979041180E-04  0.142834014007E-04  0.152274230035E-04  0.162338368956E-04
  0.173067666835E-04  0.184506085058E-04  0.196700490450E-04  0.209700847289E-04  0.223560422013E-04
  0.238336001453E-04  0.254088125488E-04  0.270881335079E-04  0.288784436689E-04  0.307870784175E-04
  0.328218579311E-04  0.349911192174E-04  0.373037502689E-04  0.397692264757E-04  0.423976494431E-04
  0.451997883755E-04  0.481871241934E-04  0.513718965664E-04  0.547671540538E-04  0.583868075575E-04
  0.622456873074E-04  0.663596036111E-04  0.707454116180E-04  0.754210803618E-04  0.804057663639E-04
  0.857198921002E-04  0.913852296510E-04  0.974249898769E-04  0.103863917485E-03  0.110728392377E-03
  0.118046537688E-03  0.125848334962E-03  0.134165746938E-03  0.143032848446E-03  0.152485965935E-03
  0.162563826234E-03  0.173307715125E-03  0.184761646385E-03  0.196972541998E-03  0.209990424255E-03
  0.223868620546E-03  0.238663981664E-03  0.254437114519E-03  0.271252630213E-03  0.289179408491E-03
  0.308290879634E-03  0.328665324959E-03  0.350386197143E-03  0.373542461676E-03  0.398228960838E-03
  0.424546801678E-03  0.452603769581E-03  0.482514769097E-03  0.514402293835E-03  0.548396927317E-03
  0.584637876852E-03  0.623273542569E-03  0.664462123940E-03  0.708372266243E-03  0.755183749590E-03
  0.805088223304E-03  0.858289988630E-03  0.915006832923E-03  0.975470918713E-03  0.103992973121E-02
  0.110864708807E-02  0.118190421554E-02  0.126000089521E-02  0.134325668608E-02  0.143201222682E-02
  0.152663062339E-02  0.162749892763E-02  0.173502971273E-02  0.184966275182E-02  0.197186680642E-02
  0.210214153174E-02  0.224101950661E-02  0.238906839581E-02  0.254689325348E-02  0.271513897675E-02
  0.289449291901E-02  0.308568767321E-02  0.328950403607E-02  0.350677416465E-02  0.373838493745E-02
  0.398528153329E-02  0.424847124140E-02  0.452902751751E-02  0.482809430141E-02  0.514689061217E-02
  0.548671543855E-02  0.584895294282E-02  0.623507799740E-02  0.664666207478E-02  0.708537951241E-02
  0.755301417534E-02  0.805146654069E-02  0.858276122933E-02  0.914905501148E-02  0.975264531422E-02
  0.103959792606E-01  0.110816632709E-01  0.118124732592E-01  0.125913654581E-01  0.134214879080E-01
  0.143061926475E-01  0.152490486434E-01  0.162538555000E-01  0.173246579894E-01  0.184657614455E-01
  0.196817480659E-01  0.209774941655E-01  0.223581884305E-01  0.238293512169E-01  0.253968549437E-01
  0.270669456258E-01  0.288462655967E-01  0.307418774665E-01  0.327612893619E-01  0.349124814919E-01
  0.372039340817E-01  0.396446567129E-01  0.422442191042E-01  0.450127833618E-01  0.479611377211E-01
  0.511007317929E-01  0.544437133183E-01  0.580029664222E-01  0.617921513430E-01  0.658257455958E-01
  0.701190865087E-01  0.746884150453E-01  0.795509208000E-01  0.847247880178E-01  0.902292424555E-01
  0.960845988527E-01  0.102312308734E+00  0.108935008204E+00  0.115976565332E+00  0.123462126636E+00
  0.131418162118E+00  0.139872508159E+00  0.148854407513E+00  0.158394545493E+00  0.168525081293E+00
  0.179279673254E+00  0.190693496666E+00  0.202803252545E+00  0.215647165554E+00  0.229264969018E+00
  0.243697874698E+00  0.258988524680E+00  0.275180922426E+00  0.292320339629E+00  0.310453195160E+00
  0.329626901937E+00  0.349889677097E+00  0.371290310364E+00  0.393877884980E+00  0.417701445012E+00
  0.442809602325E+00  0.469250075884E+00  0.497069155534E+00  0.526311081822E+00  0.557017332924E+00
  0.589225809295E+00  0.622969906302E+00  0.658277464885E+00  0.695169590245E+00  0.733659328798E+00
  0.773750194114E+00  0.815434533522E+00  0.858691728458E+00  0.903486223688E+00  0.949765383335E+00
  0.997457175307E+00  0.104646769055E+01  0.109667850959E+01  0.114794393636E+01  0.120008812859E+01
  0.125290216526E+01  0.130614110509E+01  0.135952110553E+01  0.141271669064E+01  0.146535827687E+01
  0.151703008983E+01  0.156726863170E+01  0.161556188765E+01  0.166134949030E+01  0.170402409300E+01
  0.174293423318E+01  0.177738899623E+01  0.180666481313E+01  0.183001474020E+01  0.184668057058E+01
  0.185590810960E+01  0.185696590228E+01  0.184916762331E+01  0.183189821661E+01  0.180464369330E+01
  0.176702425053E+01  0.171883004714E+01  0.166005855355E+01  0.159095187400E+01  0.151203181376E+01
  0.142412973560E+01  0.132840743357E+01  0.122636437926E+01  0.111982582148E+01  0.101090542964E+01
  0.901935588123E+00  0.795358241957E+00  0.693569585181E+00  0.598713147176E+00  0.512418295164E+00
  0.435485604938E+00  0.367701925821E+00  0.308423924155E+00  0.256972799164E+00  0.212659362625E+00
  0.174792712350E+00  0.142688128053E+00  0.115677060003E+00  0.931200812036E-01  0.744199618835E-01
  0.590307707524E-01  0.464614555964E-01  0.362752826097E-01  0.280872246169E-01  0.215606192034E-01
  0.164036052945E-01  0.123654601811E-01  0.923286448538E-02  0.682613227949E-02  0.499546615705E-02
  0.361730697184E-02  0.259084503478E-02  0.183474890369E-02  0.128415394576E-02  0.887938349143E-03
  0.606300629394E-03  0.408640678523E-03  0.271736340951E-03  0.178199534212E-03  0.115190050181E-03
  0.733613012538E-04  0.460102302256E-04  0.284031387698E-04  0.172500042885E-04  0.103016266103E-04
  0.604636261637E-05  0.348599163842E-05  0.197317969249E-05  0.109589837526E-05  0.596872801049E-06
  0.318591065076E-06  0.166550106419E-06  0.852159605845E-07  0.426434557102E-07  0.208552533709E-07
  0.996029670961E-08  0.464164055031E-08  0.210886805299E-08
 pseudo wavefunction
  0.112853424869E-04  0.116523136739E-04  0.120312178488E-04  0.124224430425E-04  0.128263899038E-04
  0.132434721098E-04  0.136741167890E-04  0.141187649593E-04  0.145778719794E-04  0.150519080150E-04
  0.155413585205E-04  0.160467247361E-04  0.165685242010E-04  0.171072912837E-04  0.176635777287E-04
  0.182379532222E-04  0.188310059749E-04  0.194433433249E-04  0.200755923592E-04  0.207284005564E-04
  0.214024364491E-04  0.220983903094E-04  0.228169748550E-04  0.235589259795E-04  0.243250035061E-04
  0.251159919652E-04  0.259327013987E-04  0.267759681887E-04  0.276466559146E-04  0.285456562370E-04
  0.294738898114E-04  0.304323072306E-04  0.314218899985E-04  0.324436515349E-04  0.334986382138E-04
  0.345879304344E-04  0.357126437281E-04  0.368739299006E-04  0.380729782115E-04  0.393110165922E-04
  0.405893129037E-04  0.419091762344E-04  0.432719582413E-04  0.446790545342E-04  0.461319061044E-04
  0.476320008012E-04  0.491808748550E-04  0.507801144506E-04  0.524313573521E-04  0.541362945797E-04
  0.558966721415E-04  0.577142928218E-04  0.595910180273E-04  0.615287696931E-04  0.635295322514E-04
  0.655953546634E-04  0.677283525182E-04  0.699307101985E-04  0.722046831187E-04  0.745526000339E-04
  0.769768654253E-04  0.794799619625E-04  0.820644530460E-04  0.847329854327E-04  0.874882919463E-04
  0.903331942759E-04  0.932706058663E-04  0.963035349015E-04  0.994350873853E-04  0.102668470323E-03
  0.106006995004E-03  0.109454080396E-03  0.113013256644E-03  0.116688168688E-03  0.120482579993E-03
  0.124400376407E-03  0.128445570136E-03  0.132622303860E-03  0.136934854969E-03  0.141387639950E-03
  0.145985218905E-03  0.150732300224E-03  0.155633745409E-03  0.160694574050E-03  0.165919968969E-03
  0.171315281526E-03  0.176886037104E-03  0.182637940764E-03  0.188576883091E-03  0.194708946227E-03
  0.201040410103E-03  0.207577758869E-03  0.214327687537E-03  0.221297108839E-03  0.228493160308E-03
  0.235923211592E-03  0.243594871998E-03  0.251515998295E-03  0.259694702755E-03  0.268139361470E-03
  0.276858622930E-03  0.285861416885E-03  0.295156963493E-03  0.304754782770E-03  0.314664704341E-03
  0.324896877511E-03  0.335461781672E-03  0.346370237034E-03  0.357633415718E-03  0.369262853203E-03
  0.381270460152E-03  0.393668534615E-03  0.406469774640E-03  0.419687291283E-03  0.433334622054E-03
  0.447425744793E-03  0.461975092000E-03  0.476997565634E-03  0.492508552396E-03  0.508523939506E-03
  0.525060130995E-03  0.542134064537E-03  0.559763228816E-03  0.577965681474E-03  0.596760067638E-03
  0.616165639050E-03  0.636202273828E-03  0.656890496872E-03  0.678251500929E-03  0.700307168361E-03
  0.723080093611E-03  0.746593606416E-03  0.770871795771E-03  0.795939534685E-03  0.821822505743E-03
  0.848547227513E-03  0.876141081809E-03  0.904632341862E-03  0.934050201408E-03  0.964424804730E-03
  0.995787277700E-03  0.102816975983E-02  0.106160543739E-02  0.109612857760E-02  0.113177456398E-02
  0.116857993286E-02  0.120658241104E-02  0.124582095482E-02  0.128633579018E-02  0.132816845441E-02
  0.137136183907E-02  0.141596023435E-02  0.146200937500E-02  0.150955648773E-02  0.155865034016E-02
  0.160934129150E-02  0.166168134488E-02  0.171572420142E-02  0.177152531619E-02  0.182914195598E-02
  0.188863325911E-02  0.195006029716E-02  0.201348613897E-02  0.207897591661E-02  0.214659689382E-02
  0.221641853666E-02  0.228851258665E-02  0.236295313642E-02  0.243981670805E-02  0.251918233404E-02
  0.260113164122E-02  0.268574893750E-02  0.277312130184E-02  0.286333867727E-02  0.295649396730E-02
  0.305268313583E-02  0.315200531056E-02  0.325456289033E-02  0.336046165619E-02  0.346981088675E-02
  0.358272347768E-02  0.369931606577E-02  0.381970915759E-02  0.394402726313E-02  0.407239903448E-02
  0.420495740995E-02  0.434183976379E-02  0.448318806180E-02  0.462914902317E-02  0.477987428888E-02
  0.493552059686E-02  0.509624996447E-02  0.526222987858E-02  0.543363349360E-02  0.561063983809E-02
  0.579343403024E-02  0.598220750287E-02  0.617715823845E-02  0.637849101472E-02  0.658641766157E-02
  0.680115732994E-02  0.702293677335E-02  0.725199064302E-02  0.748856179735E-02  0.773290162675E-02
  0.798527039485E-02  0.824593759720E-02  0.851518233867E-02  0.879329373083E-02  0.908057131075E-02
  0.937732548279E-02  0.968387798506E-02  0.100005623822E-01  0.103277245870E-01  0.106657234118E-01
  0.110149311542E-01  0.113757342166E-01  0.117485337657E-01  0.121337464322E-01  0.125318050556E-01
  0.129431594771E-01  0.133682773851E-01  0.138076452167E-01  0.142617691207E-01  0.147311759865E-01
  0.152164145457E-01  0.157180565504E-01  0.162366980375E-01  0.167729606836E-01  0.173274932604E-01
  0.179009731979E-01  0.184941082659E-01  0.191076383832E-01  0.197423375657E-01  0.203990160262E-01
  0.210785224390E-01  0.217817463827E-01  0.225096209788E-01  0.232631257414E-01  0.240432896583E-01
  0.248511945219E-01  0.256879785336E-01  0.265548402046E-01  0.274530425792E-01  0.283839178090E-01
  0.293488721077E-01  0.303493911201E-01  0.313870457402E-01  0.324634984169E-01  0.335805099889E-01
  0.347399470922E-01  0.359437901889E-01  0.371941422670E-01  0.384932382670E-01  0.398434552922E-01
  0.412473236651E-01  0.427075388941E-01  0.442269746215E-01  0.458086966227E-01  0.474559779343E-01
  0.491723151882E-01  0.509614462347E-01  0.528273691356E-01  0.547743626134E-01  0.568070080405E-01
  0.589302130509E-01  0.611492368559E-01  0.634697173391E-01  0.658976999985E-01  0.684396687951E-01
  0.711025789508E-01  0.738938917221E-01  0.768216111528E-01  0.798943227775E-01  0.831212342121E-01
  0.865122175236E-01  0.900778532119E-01  0.938294755744E-01  0.977792191401E-01  0.101940065766E+00
  0.106325891875E+00  0.110951515181E+00  0.115832740084E+00  0.120986400758E+00  0.126430400706E+00
  0.132183747354E+00  0.138266579950E+00  0.144700188733E+00  0.151507022974E+00  0.158710685103E+00
  0.166335907670E+00  0.174408509428E+00  0.182955326271E+00  0.192004112194E+00  0.201583404842E+00
  0.211722349562E+00  0.222450475234E+00  0.233797414542E+00  0.245792560693E+00  0.258464652118E+00
  0.271841276233E+00  0.285948283132E+00  0.300809100079E+00  0.316443938041E+00  0.332868882319E+00
  0.350094860727E+00  0.368126484915E+00  0.386960763507E+00  0.406585689897E+00  0.426978713086E+00
  0.448105107036E+00  0.469916262952E+00  0.492347939839E+00  0.515318521897E+00  0.538727346830E+00
  0.562453187095E+00  0.586352986240E+00  0.610260974504E+00  0.633988310996E+00  0.657323423015E+00
  0.680033234696E+00  0.701865494943E+00  0.722552425448E+00  0.741815909534E+00  0.759368472682E+00
  0.774992685071E+00  0.788551000062E+00  0.799933769085E+00  0.809046170921E+00  0.815809457431E+00
  0.820161286592E+00  0.822055988893E+00  0.821465027596E+00  0.818377650343E+00  0.812801617348E+00
  0.804763906067E+00  0.794311314698E+00  0.781510899919E+00  0.766450214521E+00  0.749237300425E+00
  0.730000377883E+00  0.708887155004E+00  0.686063667718E+00  0.661712542438E+00  0.636030624022E+00
  0.609225938729E+00  0.581514072426E+00  0.553114106057E+00  0.524244377138E+00  0.495118306188E+00
  0.465940594067E+00  0.436904006862E+00  0.408186905195E+00  0.379951586615E+00  0.352343427038E+00
  0.325490737126E+00  0.299505196909E+00  0.274482697970E+00  0.250504408143E+00  0.227637879088E+00
  0.205938043221E+00  0.185447991597E+00  0.166199483645E+00
 ae wavefunction
  0.403998893147E-03  0.417073689656E-03  0.430571275037E-03  0.444505297517E-03  0.458889844430E-03
  0.473739456275E-03  0.489069141154E-03  0.504894389724E-03  0.521231190569E-03  0.538096046088E-03
  0.555505988856E-03  0.573478598504E-03  0.592032019155E-03  0.611184977351E-03  0.630956800594E-03
  0.651367436386E-03  0.672437471991E-03  0.694188154656E-03  0.716641412590E-03  0.739819876501E-03
  0.763746901863E-03  0.788446591827E-03  0.813943820858E-03  0.840264259106E-03  0.867434397504E-03
  0.895481573654E-03  0.924433998500E-03  0.954320783813E-03  0.985171970516E-03  0.101701855788E-02
  0.104989253357E-02  0.108382690466E-02  0.111885572956E-02  0.115501415084E-02  0.119233842917E-02
  0.123086597815E-02  0.127063540028E-02  0.131168652394E-02  0.135406044148E-02  0.139779954848E-02
  0.144294758411E-02  0.148954967269E-02  0.153765236652E-02  0.158730368993E-02  0.163855318455E-02
  0.169145195600E-02  0.174605272187E-02  0.180240986108E-02  0.186057946463E-02  0.192061938791E-02
  0.198258930431E-02  0.204655076045E-02  0.211256723303E-02  0.218070418713E-02  0.225102913612E-02
  0.232361170341E-02  0.239852368561E-02  0.247583911773E-02  0.255563433979E-02  0.263798806553E-02
  0.272298145274E-02  0.281069817556E-02  0.290122449858E-02  0.299464935295E-02  0.309106441440E-02
  0.319056418321E-02  0.329324606627E-02  0.339921046109E-02  0.350856084200E-02  0.362140384825E-02
  0.373784937448E-02  0.385801066303E-02  0.398200439867E-02  0.410995080531E-02  0.424197374499E-02
  0.437820081903E-02  0.451876347134E-02  0.466379709396E-02  0.481344113484E-02  0.496783920768E-02
  0.512713920406E-02  0.529149340767E-02  0.546105861068E-02  0.563599623215E-02  0.581647243871E-02
  0.600265826688E-02  0.619472974776E-02  0.639286803327E-02  0.659725952452E-02  0.680809600149E-02
  0.702557475493E-02  0.724989871920E-02  0.748127660686E-02  0.771992304454E-02  0.796605870963E-02
  0.821991046825E-02  0.848171151376E-02  0.875170150594E-02  0.903012671031E-02  0.931724013776E-02
  0.961330168378E-02  0.991857826720E-02  0.102333439682E-01  0.105578801651E-01  0.108924756693E-01
  0.112374268586E-01  0.115930378081E-01  0.119596204175E-01  0.123374945356E-01  0.127269880804E-01
  0.131284371547E-01  0.135421861559E-01  0.139685878806E-01  0.144080036211E-01  0.148608032553E-01
  0.153273653272E-01  0.158080771187E-01  0.163033347096E-01  0.168135430271E-01  0.173391158819E-01
  0.178804759898E-01  0.184380549783E-01  0.190122933761E-01  0.196036405844E-01  0.202125548271E-01
  0.208395030805E-01  0.214849609783E-01  0.221494126909E-01  0.228333507777E-01  0.235372760084E-01
  0.242616971525E-01  0.250071307334E-01  0.257741007454E-01  0.265631383303E-01  0.273747814094E-01
  0.282095742713E-01  0.290680671070E-01  0.299508154943E-01  0.308583798229E-01  0.317913246600E-01
  0.327502180498E-01  0.337356307442E-01  0.347481353595E-01  0.357883054534E-01  0.368567145197E-01
  0.379539348930E-01  0.390805365592E-01  0.402370858660E-01  0.414241441268E-01  0.426422661130E-01
  0.438919984263E-01  0.451738777468E-01  0.464884289476E-01  0.478361630695E-01  0.492175751494E-01
  0.506331418928E-01  0.520833191839E-01  0.535685394241E-01  0.550892086920E-01  0.566457037148E-01
  0.582383686419E-01  0.598675116166E-01  0.615334011278E-01  0.632362621437E-01  0.649762720089E-01
  0.667535561014E-01  0.685681832394E-01  0.704201608267E-01  0.723094297316E-01  0.742358588879E-01
  0.761992396109E-01  0.781992796215E-01  0.802355967693E-01  0.823077124503E-01  0.844150447115E-01
  0.865569010388E-01  0.887324708233E-01  0.909408175044E-01  0.931808703870E-01  0.954514161339E-01
  0.977510899357E-01  0.100078366360E+00  0.102431549889E+00  0.104808765152E+00  0.107207946864E+00
  0.109626829483E+00  0.112062936614E+00  0.114513570157E+00  0.116975799257E+00  0.119446449053E+00
  0.121922089283E+00  0.124399022774E+00  0.126873273855E+00  0.129340576766E+00  0.131796364089E+00
  0.134235755287E+00  0.136653545416E+00  0.139044194073E+00  0.141401814691E+00  0.143720164254E+00
  0.145992633539E+00  0.148212238007E+00  0.150371609448E+00  0.152462988527E+00  0.154478218356E+00
  0.156408739260E+00  0.158245584887E+00  0.159979379836E+00  0.161600338992E+00  0.163098268761E+00
  0.164462570405E+00  0.165682245696E+00  0.166745905110E+00  0.167641778807E+00  0.168357730621E+00
  0.168881275331E+00  0.169199599449E+00  0.169299585814E+00  0.169167842230E+00  0.168790734434E+00
  0.168154423661E+00  0.167244909053E+00  0.166048075194E+00  0.164549745002E+00  0.162735738214E+00
  0.160591935687E+00  0.158104349709E+00  0.155259200485E+00  0.152042998923E+00  0.148442635842E+00
  0.144445477613E+00  0.140039468268E+00  0.135213237988E+00  0.129956217859E+00  0.124258760692E+00
  0.118112267627E+00  0.111509320164E+00  0.104443817171E+00  0.969111163123E-01  0.889081792713E-01
  0.804337200009E-01  0.714883551557E-01  0.620747557297E-01  0.521977987881E-01  0.418647180473E-01
  0.310852518622E-01  0.198717869843E-01  0.823949618111E-02 -0.379353247770E-02 -0.162061771824E-01
 -0.289741775691E-01 -0.420700463936E-01 -0.554630002718E-01 -0.691189111602E-01 -0.830002785431E-01
 -0.970662198585E-01 -0.111272474114E+00 -0.125571412086E+00 -0.139912047432E+00 -0.154240047539E+00
 -0.168497750663E+00 -0.182624204991E+00 -0.196555252031E+00 -0.210223677279E+00 -0.223559442824E+00
 -0.236490001705E+00 -0.248940679255E+00 -0.260835100029E+00 -0.272095642196E+00 -0.282643910012E+00
 -0.292401222815E+00 -0.301289122626E+00 -0.309229902045E+00 -0.316147151642E+00 -0.321966323187E+00
 -0.326615303132E+00 -0.330024988863E+00 -0.332129861137E+00 -0.332868544805E+00 -0.332184351672E+00
 -0.330025799668E+00 -0.326347103139E+00 -0.321108630060E+00 -0.314277322527E+00 -0.305827077998E+00
 -0.295739088444E+00 -0.284002136690E+00 -0.270612848319E+00 -0.255575898384E+00 -0.238904173434E+00
 -0.220618887518E+00 -0.200749652838E+00 -0.179334504063E+00 -0.156419875688E+00 -0.132060531005E+00
 -0.106319440828E+00 -0.792676096005E-01 -0.509838461478E-01 -0.215544764989E-01  0.892700323726E-02
  0.403603344723E-01  0.726389623667E-01  0.105650555453E+00  0.139277569269E+00  0.173397840231E+00
  0.207885192400E+00  0.242610038374E+00  0.277439957876E+00  0.312240245123E+00  0.346874429433E+00
  0.381204793262E+00  0.415092937228E+00  0.448400474251E+00  0.480989976534E+00  0.512726350873E+00
  0.543478864861E+00  0.573124025147E+00  0.601549259557E+00  0.628656635133E+00  0.654364589827E+00
  0.678604643264E+00  0.701311303563E+00  0.722408270101E+00  0.741799070003E+00  0.759368472682E+00
  0.774992685071E+00  0.788551000062E+00  0.799933769085E+00  0.809046170921E+00  0.815809457431E+00
  0.820161286592E+00  0.822055988893E+00  0.821465027596E+00  0.818377650343E+00  0.812801617348E+00
  0.804763906067E+00  0.794311314698E+00  0.781510899919E+00  0.766450214521E+00  0.749237300425E+00
  0.730000377883E+00  0.708887155004E+00  0.686063667718E+00  0.661712542438E+00  0.636030624022E+00
  0.609225938729E+00  0.581514072426E+00  0.553114106057E+00  0.524244377138E+00  0.495118306188E+00
  0.465940594067E+00  0.436904006862E+00  0.408186905195E+00  0.379951586615E+00  0.352343427038E+00
  0.325490737126E+00  0.299505196909E+00  0.274482697970E+00  0.250504408143E+00  0.227637879088E+00
  0.205938043221E+00  0.185447991597E+00  0.166199483645E+00
 pseudo wavefunction
  0.517887921865E-04  0.534728345211E-04  0.552116377121E-04  0.570069824463E-04  0.588607073136E-04
  0.607747106904E-04  0.627509526837E-04  0.647914571380E-04  0.668983137085E-04  0.690736800007E-04
  0.713197837800E-04  0.736389252532E-04  0.760334794242E-04  0.785058985260E-04  0.810587145322E-04
  0.836945417498E-04  0.864160794968E-04  0.892261148662E-04  0.921275255802E-04  0.951232829375E-04
  0.982164548563E-04  0.101410209015E-03  0.104707816099E-03  0.108112653146E-03  0.111628207008E-03
  0.115258077921E-03  0.119005983190E-03  0.122875760999E-03  0.126871374341E-03  0.130996915075E-03
  0.135256608115E-03  0.139654815763E-03  0.144196042169E-03  0.148884937948E-03  0.153726304942E-03
  0.158725101137E-03  0.163886445739E-03  0.169215624421E-03  0.174718094730E-03  0.180399491681E-03
  0.186265633526E-03  0.192322527712E-03  0.198576377032E-03  0.205033585982E-03  0.211700767315E-03
  0.218584748813E-03  0.225692580284E-03  0.233031540778E-03  0.240609146041E-03  0.248433156213E-03
  0.256511583778E-03  0.264852701764E-03  0.273465052218E-03  0.282357454958E-03  0.291539016597E-03
  0.301019139877E-03  0.310807533293E-03  0.320914221039E-03  0.331349553272E-03  0.342124216714E-03
  0.353249245591E-03  0.364736032941E-03  0.376596342275E-03  0.388842319628E-03  0.401486505997E-03
  0.414541850184E-03  0.428021722058E-03  0.441939926248E-03  0.456310716278E-03  0.471148809166E-03
  0.486469400499E-03  0.502288179991E-03  0.518621347554E-03  0.535485629886E-03  0.552898297607E-03
  0.570877182943E-03  0.589440697988E-03  0.608607853564E-03  0.628398278689E-03  0.648832240682E-03
  0.669930665920E-03  0.691715161268E-03  0.714208036211E-03  0.737432325704E-03  0.761411813763E-03
  0.786171057822E-03  0.811735413893E-03  0.838131062526E-03  0.865385035633E-03  0.893525244171E-03
  0.922580506729E-03  0.952580579048E-03  0.983556184501E-03  0.101553904556E-02  0.104856191628E-02
  0.108265861587E-02  0.111786406333E-02  0.115421431320E-02  0.119174659251E-02  0.123049933893E-02
  0.127051224010E-02  0.131182627433E-02  0.135448375258E-02  0.139852836176E-02  0.144400520955E-02
  0.149096087056E-02  0.153944343408E-02  0.158950255335E-02  0.164118949641E-02  0.169455719868E-02
  0.174966031713E-02  0.180655528637E-02  0.186530037642E-02  0.192595575246E-02  0.198858353647E-02
  0.205324787093E-02  0.212001498454E-02  0.218895326008E-02  0.226013330458E-02  0.233362802165E-02
  0.240951268623E-02  0.248786502178E-02  0.256876527996E-02  0.265229632297E-02  0.273854370846E-02
  0.282759577734E-02  0.291954374438E-02  0.301448179179E-02  0.311250716581E-02  0.321372027657E-02
  0.331822480106E-02  0.342612778960E-02  0.353753977572E-02  0.365257488959E-02  0.377135097533E-02
  0.389398971192E-02  0.402061673829E-02  0.415136178236E-02  0.428635879438E-02  0.442574608464E-02
  0.456966646561E-02  0.471826739892E-02  0.487170114697E-02  0.503012492967E-02  0.519370108625E-02
  0.536259724246E-02  0.553698648320E-02  0.571704753092E-02  0.590296492985E-02  0.609492923637E-02
  0.629313721557E-02  0.649779204447E-02  0.670910352180E-02  0.692728828492E-02  0.715257003375E-02
  0.738517976236E-02  0.762535599806E-02  0.787334504865E-02  0.812940125783E-02  0.839378726916E-02
  0.866677429893E-02  0.894864241815E-02  0.923968084407E-02  0.954018824151E-02  0.985047303440E-02
  0.101708537279E-01  0.105016592413E-01  0.108432292529E-01  0.111959145554E-01  0.115600774253E-01
  0.119360920031E-01  0.123243446882E-01  0.127252345464E-01  0.131391737323E-01  0.135665879263E-01
  0.140079167863E-01  0.144636144167E-01  0.149341498525E-01  0.154200075616E-01  0.159216879650E-01
  0.164397079755E-01  0.169746015561E-01  0.175269202985E-01  0.180972340234E-01  0.186861314024E-01
  0.192942206036E-01  0.199221299610E-01  0.205705086696E-01  0.212400275068E-01  0.219313795815E-01
  0.226452811129E-01  0.233824722392E-01  0.241437178587E-01  0.249298085043E-01  0.257415612540E-01
  0.265798206781E-01  0.274454598256E-01  0.283393812528E-01  0.292625180943E-01  0.302158351809E-01
  0.312003302063E-01  0.322170349445E-01  0.332670165222E-01  0.343513787492E-01  0.354712635098E-01
  0.366278522187E-01  0.378223673471E-01  0.390560740215E-01  0.403302817008E-01  0.416463459374E-01
  0.430056702265E-01  0.444097079505E-01  0.458599644254E-01  0.473579990548E-01  0.489054276005E-01
  0.505039245775E-01  0.521552257821E-01  0.538611309628E-01  0.556235066452E-01  0.574442891216E-01
  0.593254876175E-01  0.612691876498E-01  0.632775545896E-01  0.653528374463E-01  0.674973728899E-01
  0.697135895305E-01  0.720040124750E-01  0.743712681815E-01  0.768180896383E-01  0.793473218894E-01
  0.819619279368E-01  0.846649950490E-01  0.874597415076E-01  0.903495238279E-01  0.933378444908E-01
  0.964283602268E-01  0.996248908966E-01  0.102931429015E+00  0.106352149969E+00  0.109891422982E+00
  0.113553822893E+00  0.117344142791E+00  0.121267407596E+00  0.125328888639E+00  0.129534119323E+00
  0.133888911940E+00  0.138399375731E+00  0.143071936263E+00  0.147913356229E+00  0.152930757751E+00
  0.158131646283E+00  0.163523936205E+00  0.169115978215E+00  0.174916588598E+00  0.180935080470E+00
  0.187181297082E+00  0.193665647254E+00  0.200399143001E+00  0.207393439404E+00  0.214660876748E+00
  0.222214524906E+00  0.230068229956E+00  0.238236662918E+00  0.246735370486E+00  0.255580827527E+00
  0.264790491072E+00  0.274382855383E+00  0.284377507585E+00  0.294795183206E+00  0.305657820765E+00
  0.316988614388E+00  0.328812063154E+00  0.341154015590E+00  0.354041707431E+00  0.367503790334E+00
  0.381570348808E+00  0.396272902102E+00  0.411644387179E+00  0.427719118242E+00  0.444532717473E+00
  0.462122010795E+00  0.480524881430E+00  0.499780072951E+00  0.519926932273E+00  0.541005081641E+00
  0.563054007217E+00  0.586112550227E+00  0.610218284907E+00  0.635406765686E+00  0.661710624166E+00
  0.689158494602E+00  0.717773744738E+00  0.747572987234E+00  0.778564345476E+00  0.810745446633E+00
  0.844101114407E+00  0.878600734474E+00  0.914195267242E+00  0.950813885722E+00  0.988360221503E+00
  0.102670820938E+01  0.106569753197E+01  0.110512868002E+01  0.114475766337E+01  0.118429043146E+01
  0.122337709352E+01  0.126160606580E+01  0.129849831919E+01  0.133350195480E+01  0.136598739852E+01
  0.139524357775E+01  0.142047552437E+01  0.144080393539E+01  0.145526731426E+01  0.146282740699E+01
  0.146237873147E+01  0.145276306731E+01  0.143278981457E+01  0.140126312843E+01  0.135701667385E+01
  0.129895669749E+01  0.122611385790E+01  0.113770386116E+01  0.103319639066E+01  0.912391519352E+00
  0.775545051867E+00  0.623426264579E+00  0.457230492398E+00  0.000000000000E+00  0.000000000000E+00
  0.000000000000E+00  0.000000000000E+00  0.000000000000E+00  0.000000000000E+00  0.000000000000E+00
  0.000000000000E+00  0.000000000000E+00  0.000000000000E+00  0.000000000000E+00  0.000000000000E+00
  0.000000000000E+00  0.000000000000E+00  0.000000000000E+00  0.000000000000E+00  0.000000000000E+00
  0.000000000000E+00  0.000000000000E+00  0.000000000000E+00  0.000000000000E+00  0.000000000000E+00
  0.000000000000E+00  0.000000000000E+00  0.000000000000E+00  0.000000000000E+00  0.000000000000E+00
  0.000000000000E+00  0.000000000000E+00  0.000000000000E+00  0.000000000000E+00  0.000000000000E+00
  0.000000000000E+00  0.000000000000E+00  0.000000000000E+00
 ae wavefunction
  0.112097166151E-02  0.115725016681E-02  0.119470177998E-02  0.123336437060E-02  0.127327702665E-02
  0.131448009348E-02  0.135701521391E-02  0.140092536969E-02  0.144625492416E-02  0.149304966636E-02
  0.154135685636E-02  0.159122527218E-02  0.164270525810E-02  0.169584877445E-02  0.175070944903E-02
  0.180734262992E-02  0.186580544039E-02  0.192615683491E-02  0.198845765743E-02  0.205277070110E-02
  0.211916077008E-02  0.218769474310E-02  0.225844163903E-02  0.233147268451E-02  0.240686138363E-02
  0.248468358968E-02  0.256501757923E-02  0.264794412832E-02  0.273354659114E-02  0.282191098095E-02
  0.291312605353E-02  0.300728339320E-02  0.310447750131E-02  0.320480588755E-02  0.330836916386E-02
  0.341527114129E-02  0.352561892966E-02  0.363952304020E-02  0.375709749131E-02  0.387845991736E-02
  0.400373168078E-02  0.413303798742E-02  0.426650800524E-02  0.440427498657E-02  0.454647639385E-02
  0.469325402908E-02  0.484475416687E-02  0.500112769155E-02  0.516253023794E-02  0.532912233637E-02
  0.550106956160E-02  0.567854268598E-02  0.586171783720E-02  0.605077666006E-02  0.624590648259E-02
  0.644730048763E-02  0.665515788783E-02  0.686968410668E-02  0.709109096330E-02  0.731959686308E-02
  0.755542699283E-02  0.779881352138E-02  0.804999580514E-02  0.830922059938E-02  0.857674227454E-02
  0.885282303829E-02  0.913773316310E-02  0.943175121935E-02  0.973516431450E-02  0.100482683376E-01
  0.103713682102E-01  0.107047781425E-01  0.110488218961E-01  0.114038330527E-01  0.117701552881E-01
  0.121481426535E-01  0.125381598617E-01  0.129405825800E-01  0.133557977295E-01  0.137842037893E-01
  0.142262111083E-01  0.146822422214E-01  0.151527321729E-01  0.156381288449E-01  0.161388932917E-01
  0.166555000797E-01  0.171884376332E-01  0.177382085841E-01  0.183053301290E-01  0.188903343879E-01
  0.194937687709E-01  0.201161963464E-01  0.207581962143E-01  0.214203638832E-01  0.221033116495E-01
  0.228076689799E-01  0.235340828959E-01  0.242832183596E-01  0.250557586602E-01  0.258524058013E-01
  0.266738808872E-01  0.275209245071E-01  0.283942971187E-01  0.292947794264E-01  0.302231727567E-01
  0.311802994271E-01  0.321670031085E-01  0.331841491795E-01  0.342326250700E-01  0.353133405955E-01
  0.364272282757E-01  0.375752436407E-01  0.387583655184E-01  0.399775963035E-01  0.412339622057E-01
  0.425285134724E-01  0.438623245866E-01  0.452364944338E-01  0.466521464375E-01  0.481104286577E-01
  0.496125138514E-01  0.511595994890E-01  0.527529077234E-01  0.543936853092E-01  0.560832034632E-01
  0.578227576675E-01  0.596136674037E-01  0.614572758165E-01  0.633549493010E-01  0.653080770050E-01
  0.673180702415E-01  0.693863618042E-01  0.715144051787E-01  0.737036736411E-01  0.759556592346E-01
  0.782718716190E-01  0.806538367792E-01  0.831030955867E-01  0.856212022007E-01  0.882097223010E-01
  0.908702311381E-01  0.936043113912E-01  0.964135508199E-01  0.992995396960E-01  0.102263868003E+00
  0.105308122389E+00  0.108433882851E+00  0.111642719149E+00  0.114936186917E+00  0.118315823465E+00
  0.121783143247E+00  0.125339632981E+00  0.128986746404E+00  0.132725898624E+00  0.136558460080E+00
  0.140485750054E+00  0.144509029738E+00  0.148629494820E+00  0.152848267572E+00  0.157166388414E+00
  0.161584806923E+00  0.166104372279E+00  0.170725823103E+00  0.175449776676E+00  0.180276717509E+00
  0.185206985231E+00  0.190240761787E+00  0.195378057901E+00  0.200618698797E+00  0.205962309141E+00
  0.211408297185E+00  0.216955838098E+00  0.222603856451E+00  0.228351007851E+00  0.234195659692E+00
  0.240135871026E+00  0.246169371525E+00  0.252293539543E+00  0.258505379258E+00  0.264801496907E+00
  0.271178076107E+00  0.277630852283E+00  0.284155086210E+00  0.290745536704E+00  0.297396432469E+00
  0.304101443174E+00  0.310853649770E+00  0.317645514142E+00  0.324468848125E+00  0.331314782006E+00
  0.338173732572E+00  0.345035370833E+00  0.351888589534E+00  0.358721470597E+00  0.365521252645E+00
  0.372274298801E+00  0.378966064929E+00  0.385581068559E+00  0.392102858725E+00  0.398513986970E+00
  0.404795979822E+00  0.410929313041E+00  0.416893387981E+00  0.422666510435E+00  0.428225872365E+00
  0.433547536930E+00  0.438606427288E+00  0.443376319641E+00  0.447829841057E+00  0.451938472614E+00
  0.455672558445E+00  0.459001321298E+00  0.461892885255E+00  0.464314306282E+00  0.466231611286E+00
  0.467609846439E+00  0.468413135461E+00  0.468604748670E+00  0.468147183524E+00  0.467002257481E+00
  0.465131213915E+00  0.462494841902E+00  0.459053610617E+00  0.454767819092E+00  0.449597762045E+00
  0.443503912433E+00  0.436447121363E+00  0.428388835861E+00  0.419291334972E+00  0.409117984542E+00
  0.397833510861E+00  0.385404293318E+00  0.371798675925E+00  0.356987297504E+00  0.340943440047E+00
  0.323643394619E+00  0.305066843856E+00  0.285197259958E+00  0.264022316707E+00  0.241534313863E+00
  0.217730611923E+00  0.192614074934E+00  0.166193518747E+00  0.138484161659E+00  0.109508074008E+00
  0.792946227234E-01  0.478809062559E-01  0.153121745055E-01 -0.183577724492E-01 -0.530662139620E-01
 -0.887411746653E-01 -0.125301134721E+00 -0.162654791856E+00 -0.200700880051E+00 -0.239328044974E+00
 -0.278414769529E+00 -0.317829335799E+00 -0.357429805586E+00 -0.397064004779E+00 -0.436569509770E+00
 -0.475773656181E+00 -0.514493615692E+00 -0.552536605642E+00 -0.589700297099E+00 -0.625773463601E+00
 -0.660536870888E+00 -0.693764367455E+00 -0.725224117886E+00 -0.754679930785E+00 -0.781892658106E+00
 -0.806621664791E+00 -0.828626377797E+00 -0.847667922598E+00 -0.863510848214E+00 -0.875924934148E+00
 -0.884687067339E+00 -0.889583172299E+00 -0.890410180254E+00 -0.886978019817E+00 -0.879111616746E+00
 -0.866652891308E+00 -0.849462743839E+00 -0.827423021649E+00 -0.800438462086E+00 -0.768438609310E+00
 -0.731379701345E+00 -0.689246529116E+00 -0.642054266124E+00 -0.589850268922E+00 -0.532715850367E+00
 -0.470768021689E+00 -0.404161202172E+00 -0.333088889084E+00 -0.257785278258E+00 -0.178526820720E+00
 -0.956336958874E-01 -0.947117668707E-02  0.795491431802E-01  0.170968293703E+00  0.264279081681E+00
  0.358925490571E+00  0.454302364255E+00  0.549755409510E+00  0.644581549036E+00  0.738029656115E+00
  0.829301706807E+00  0.917554400810E+00  0.100190133155E+01  0.108141583294E+01  0.115513469318E+01
  0.122206300239E+01  0.128118048299E+01  0.133144973650E+01  0.137182692319E+01  0.140127545772E+01
  0.141878329628E+01  0.142338412874E+01  0.141418193815E+01  0.139037661326E+01  0.135128602511E+01
  0.129635957486E+01  0.122518353883E+01  0.113748933910E+01  0.103318152661E+01  0.912391519352E+00
  0.775545051867E+00  0.623426264579E+00  0.457230492398E+00  0.000000000000E+00  0.000000000000E+00
  0.000000000000E+00  0.000000000000E+00  0.000000000000E+00  0.000000000000E+00  0.000000000000E+00
  0.000000000000E+00  0.000000000000E+00  0.000000000000E+00  0.000000000000E+00  0.000000000000E+00
  0.000000000000E+00  0.000000000000E+00  0.000000000000E+00  0.000000000000E+00  0.000000000000E+00
  0.000000000000E+00  0.000000000000E+00  0.000000000000E+00  0.000000000000E+00  0.000000000000E+00
  0.000000000000E+00  0.000000000000E+00  0.000000000000E+00  0.000000000000E+00  0.000000000000E+00
  0.000000000000E+00  0.000000000000E+00  0.000000000000E+00  0.000000000000E+00  0.000000000000E+00
  0.000000000000E+00  0.000000000000E+00  0.000000000000E+00
 pseudo wavefunction
  0.153765181737E-08  0.163927891453E-08  0.174762279034E-08  0.186312737280E-08  0.198626593021E-08
  0.211754301028E-08  0.225749650749E-08  0.240669986707E-08  0.256576443461E-08  0.273534196102E-08
  0.291612727295E-08  0.310886111986E-08  0.331433320908E-08  0.353338544160E-08  0.376691536168E-08
  0.401587983444E-08  0.428129896648E-08  0.456426028573E-08  0.486592319742E-08  0.518752373468E-08
  0.553037962302E-08  0.589589567960E-08  0.628556956931E-08  0.670099794131E-08  0.714388297115E-08
  0.761603933524E-08  0.811940164630E-08  0.865603238026E-08  0.922813032703E-08  0.983803959985E-08
  0.104882592400E-07  0.111814534564E-07  0.119204625420E-07  0.127083145115E-07  0.135482375083E-07
  0.144436730315E-07  0.153982900375E-07  0.164159999724E-07  0.175009727995E-07  0.186576540848E-07
  0.198907832125E-07  0.212054128042E-07  0.226069294212E-07  0.241010756358E-07  0.256939735606E-07
  0.273921499335E-07  0.292025628600E-07  0.311326303236E-07  0.331902605804E-07  0.353838845620E-07
  0.377224904205E-07  0.402156603568E-07  0.428736098825E-07  0.457072296771E-07  0.487281302111E-07
  0.519486893193E-07  0.553821029174E-07  0.590424390709E-07  0.629446956379E-07  0.671048617211E-07
  0.715399831817E-07  0.762682324832E-07  0.813089831510E-07  0.866828891539E-07  0.924119695316E-07
  0.985196986153E-07  0.105031102212E-06  0.111972860145E-06  0.119373415572E-06  0.127263091528E-06
  0.135674215172E-06  0.144641250242E-06  0.154200938271E-06  0.164392449128E-06  0.175257541515E-06
  0.186840734068E-06  0.199189487772E-06  0.212354400421E-06  0.226389413944E-06  0.241352035425E-06
  0.257303572733E-06  0.274309385724E-06  0.292439154053E-06  0.311767162672E-06  0.332372606213E-06
  0.354339913479E-06  0.377759093382E-06  0.402726103751E-06  0.429343244508E-06  0.457719576836E-06
  0.487971370046E-06  0.520222577986E-06  0.554605346929E-06  0.591260557031E-06  0.630338399584E-06
  0.671998992407E-06  0.716413035924E-06  0.763762512593E-06  0.814241432571E-06  0.868056628658E-06
  0.925428603781E-06  0.986592434496E-06  0.105179873420E-05  0.112131468000E-05  0.119542510749E-05
  0.127443367780E-05  0.135866412188E-05  0.144846156697E-05  0.154419395074E-05  0.164625352890E-05
  0.175505848248E-05  0.187105463131E-05  0.199471726076E-05  0.212655306923E-05  0.226710224436E-05
  0.241694067643E-05  0.257668231809E-05  0.274698170009E-05  0.292853661317E-05  0.312209096737E-05
  0.332843784017E-05  0.354842272626E-05  0.378294700193E-05  0.403297161863E-05  0.429952104052E-05
  0.458368744231E-05  0.488663518466E-05  0.520960558527E-05  0.555392200539E-05  0.592099527255E-05
  0.631232946167E-05  0.672952805841E-05  0.717430052977E-05  0.764846932911E-05  0.815397736419E-05
  0.869289595883E-05  0.926743334089E-05  0.987994369127E-05  0.105329367911E-04  0.112290883069E-04
  0.119712507548E-04  0.127624651909E-04  0.136059736733E-04  0.145052325482E-04  0.154639266148E-04
  0.164859842262E-04  0.175755933887E-04  0.187372189254E-04  0.199756207748E-04  0.212958734991E-04
  0.227033870819E-04  0.242039291015E-04  0.258036483702E-04  0.275091001363E-04  0.293272729531E-04
  0.312656173239E-04  0.333320762418E-04  0.355351177488E-04  0.378837696479E-04  0.403876565115E-04
  0.430570391364E-04  0.459028566093E-04  0.489367711544E-04  0.521712159468E-04  0.556194460894E-04
  0.592955929625E-04  0.632147221678E-04  0.673928953072E-04  0.718472358484E-04  0.765959993500E-04
  0.816586483325E-04  0.870559321056E-04  0.928099718780E-04  0.989443515021E-04  0.105484214225E-03
  0.112456365847E-03  0.119889384706E-03  0.127813738953E-03  0.136261911590E-03  0.145268533788E-03
  0.154870527046E-03  0.165107254762E-03  0.176020683850E-03  0.187655557077E-03  0.200059576814E-03
  0.213283600980E-03  0.227381851979E-03  0.242412139501E-03  0.258436098101E-03  0.275519440553E-03
  0.293732228021E-03  0.313149158177E-03  0.333849872454E-03  0.355919283720E-03  0.379447925737E-03
  0.404532325859E-03  0.431275402525E-03  0.459786889208E-03  0.490183786600E-03  0.522590844916E-03
  0.557141078352E-03  0.593976313848E-03  0.633247776479E-03  0.675116713927E-03  0.719755062682E-03
  0.767346158791E-03  0.818085496158E-03  0.872181535635E-03  0.929856568335E-03  0.991347636859E-03
  0.105690751838E-02  0.112680577380E-02  0.120132986752E-02  0.128078636259E-02  0.136550219654E-02
  0.145582604326E-02  0.155212976707E-02  0.165480997517E-02  0.176428967542E-02  0.188102004667E-02
  0.200548232958E-02  0.213818984628E-02  0.227969015794E-02  0.243056736995E-02  0.259144459517E-02
  0.276298658635E-02  0.294590254993E-02  0.314094915397E-02  0.334893374434E-02  0.357071778401E-02
  0.380722053172E-02  0.405942297729E-02  0.432837205248E-02  0.461518513751E-02  0.492105488505E-02
  0.524725438531E-02  0.559514269764E-02  0.596617077602E-02  0.636188781821E-02  0.678394807073E-02
  0.723411812422E-02  0.771428473702E-02  0.822646322743E-02  0.877280647897E-02  0.935561460631E-02
  0.997734533358E-02  0.106406251415E-01  0.113482612437E-01  0.121032544594E-01  0.129088130520E-01
  0.137683676141E-01  0.146855870811E-01  0.156643959653E-01  0.167089929108E-01  0.178238706746E-01
  0.190138376532E-01  0.202840410774E-01  0.216399920148E-01  0.230875923251E-01  0.246331637286E-01
  0.262834791582E-01  0.280457965796E-01  0.299278954782E-01  0.319381162221E-01  0.340854025291E-01
  0.363793472761E-01  0.388302419054E-01  0.414491296943E-01  0.442478631678E-01  0.472391659436E-01
  0.504366993073E-01  0.538551338190E-01  0.575102262549E-01  0.614189021764E-01  0.655993444104E-01
  0.700710876950E-01  0.748551197111E-01  0.799739886634E-01  0.854519175046E-01  0.913149247967E-01
  0.975909520760E-01  0.104309997427E+00  0.111504254763E+00  0.119208258055E+00  0.127459029425E+00
  0.136296229648E+00  0.145762309111E+00  0.155902656708E+00  0.166765743498E+00  0.178403257084E+00
  0.190870221779E+00  0.204225098446E+00  0.218529856649E+00  0.233850010246E+00  0.250254605850E+00
  0.267816151694E+00  0.286610472314E+00  0.306716472126E+00  0.328215788498E+00  0.351192312257E+00
  0.375731550882E+00  0.401919806972E+00  0.429843142064E+00  0.459586093765E+00  0.491230112636E+00
  0.524851684677E+00  0.560520105997E+00  0.598294878779E+00  0.638222702571E+00  0.680334042837E+00
  0.724639270405E+00  0.771124381639E+00  0.819746330712E+00  0.870428032884E+00  0.923053131881E+00
  0.977460665452E+00  0.103343981082E+01  0.109072494496E+01  0.114899131174E+01  0.120785164510E+01
  0.126685415038E+01  0.132548228670E+01  0.138315681361E+01  0.143924055180E+01  0.149304700172E+01
  0.154394254202E+01  0.159144637422E+01  0.163508501818E+01  0.000000000000E+00  0.000000000000E+00
  0.000000000000E+00  0.000000000000E+00  0.000000000000E+00  0.000000000000E+00  0.000000000000E+00
  0.000000000000E+00  0.000000000000E+00  0.000000000000E+00  0.000000000000E+00  0.000000000000E+00
  0.000000000000E+00  0.000000000000E+00  0.000000000000E+00  0.000000000000E+00  0.000000000000E+00
  0.000000000000E+00  0.000000000000E+00  0.000000000000E+00  0.000000000000E+00  0.000000000000E+00
  0.000000000000E+00  0.000000000000E+00  0.000000000000E+00  0.000000000000E+00  0.000000000000E+00
  0.000000000000E+00  0.000000000000E+00  0.000000000000E+00  0.000000000000E+00  0.000000000000E+00
  0.000000000000E+00  0.000000000000E+00  0.000000000000E+00
 ae wavefunction
 -0.274631637559E-06 -0.291554275260E-06 -0.309414372775E-06 -0.328269965678E-06 -0.348182433966E-06
 -0.369216713083E-06 -0.391441521742E-06 -0.414929599866E-06 -0.439757964589E-06 -0.466008178782E-06
 -0.493766639643E-06 -0.523124884408E-06 -0.554179910403E-06 -0.587034522458E-06 -0.621797696808E-06
 -0.658584974347E-06 -0.697518865064E-06 -0.738729297490E-06 -0.782354076637E-06 -0.828539388102E-06
 -0.877440321492E-06 -0.929221433802E-06 -0.984057348001E-06 -0.104213338634E-05 -0.110364624846E-05
 -0.116880473019E-05 -0.123783048895E-05 -0.131095885837E-05 -0.138843971514E-05 -0.147053840146E-05
 -0.155753670681E-05 -0.164973391294E-05 -0.174744790614E-05 -0.185101636132E-05 -0.196079800226E-05
 -0.207717394361E-05 -0.220054911924E-05 -0.233135380333E-05 -0.247004522948E-05 -0.261710931505E-05
 -0.277306249685E-05 -0.293845368565E-05 -0.311386634936E-05 -0.329992072696E-05 -0.349727619159E-05
 -0.370663376178E-05 -0.392873878222E-05 -0.416438376806E-05 -0.441441144785E-05 -0.467971799009E-05
 -0.496125645096E-05 -0.526004044785E-05 -0.557714804593E-05 -0.591372592807E-05 -0.627099383960E-05
 -0.665024927449E-05 -0.705287253056E-05 -0.748033203320E-05 -0.793419005811E-05 -0.841610878273E-05
 -0.892785676440E-05 -0.947131580761E-05 -0.100484883120E-04 -0.106615050688E-04 -0.113126335771E-04
 -0.120042869042E-04 -0.127390331042E-04 -0.135196052776E-04 -0.143489122435E-04 -0.152300499423E-04
 -0.161663135537E-04 -0.171612104189E-04 -0.182184737766E-04 -0.193420774150E-04 -0.205362512560E-04
 -0.218054979530E-04 -0.231546105674E-04 -0.245886913831E-04 -0.261131719403E-04 -0.277338343619E-04
 -0.294568340668E-04 -0.312887239358E-04 -0.332364800429E-04 -0.353075290744E-04 -0.375097774363E-04
 -0.398516423475E-04 -0.423420848504E-04 -0.449906449659E-04 -0.478074791318E-04 -0.508034000470E-04
 -0.539899190082E-04 -0.573792910624E-04 -0.609845629899E-04 -0.648196243621E-04 -0.688992619060E-04
 -0.732392173002E-04 -0.778562486884E-04 -0.827681961169E-04 -0.879940511412E-04 -0.935540308543E-04
 -0.994696566423E-04 -0.105763837936E-03 -0.112460961287E-03 -0.119586985063E-03 -0.127169540173E-03
 -0.135238037153E-03 -0.143823779986E-03 -0.152960087133E-03 -0.162682420175E-03 -0.173028520522E-03
 -0.184038554736E-03 -0.195755268921E-03 -0.208224152807E-03 -0.221493614056E-03 -0.235615163443E-03
 -0.250643611548E-03 -0.266637277668E-03 -0.283658211661E-03 -0.301772429519E-03 -0.321050163459E-03
 -0.341566127410E-03 -0.363399798793E-03 -0.386635717589E-03 -0.411363803575E-03 -0.437679693067E-03
 -0.465685095895E-03 -0.495488174162E-03 -0.527203943827E-03 -0.560954700435E-03 -0.596870470389E-03
 -0.635089489231E-03 -0.675758708400E-03 -0.719034332063E-03 -0.765082385671E-03 -0.814079318022E-03
 -0.866212638599E-03 -0.921681592134E-03 -0.980697872339E-03 -0.104348637696E-02 -0.111028600622E-02
 -0.118135050702E-02 -0.125694936518E-02 -0.133736874816E-02 -0.142291250091E-02 -0.151390319725E-02
 -0.161068324988E-02 -0.171361608139E-02 -0.182308735963E-02 -0.193950630008E-02 -0.206330703858E-02
 -0.219495007739E-02 -0.233492380798E-02 -0.248374611381E-02 -0.264196605648E-02 -0.281016564871E-02
 -0.298896171760E-02 -0.317900786179E-02 -0.338099650592E-02 -0.359566105602E-02 -0.382377815934E-02
 -0.406617007202E-02 -0.432370713820E-02 -0.459731038366E-02 -0.488795422742E-02 -0.519666931418E-02
 -0.552454547062E-02 -0.587273478804E-02 -0.624245483370E-02 -0.663499199308E-02 -0.705170494431E-02
 -0.749402826622E-02 -0.796347618057E-02 -0.846164642840E-02 -0.899022427999E-02 -0.955098667687E-02
 -0.101458065038E-01 -0.107766569869E-01 -0.114456162147E-01 -0.121548717751E-01 -0.129067255023E-01
 -0.137035983248E-01 -0.145480352053E-01 -0.154427101586E-01 -0.163904313364E-01 -0.173941461607E-01
 -0.184569464880E-01 -0.195820737845E-01 -0.207729242870E-01 -0.220330541234E-01 -0.233661843629E-01
 -0.247762059620E-01 -0.262671845696E-01 -0.278433651492E-01 -0.295091763730E-01 -0.312692347370E-01
 -0.331283483438E-01 -0.350915202906E-01 -0.371639515979E-01 -0.393510436081E-01 -0.416583997750E-01
 -0.440918267625E-01 -0.466573347603E-01 -0.493611369219E-01 -0.522096478190E-01 -0.552094808028E-01
 -0.583674441537E-01 -0.616905358934E-01 -0.651859371266E-01 -0.688610037731E-01 -0.727232565413E-01
 -0.767803689898E-01 -0.810401535148E-01 -0.855105450980E-01 -0.901995826385E-01 -0.951153876936E-01
 -0.100266140445E+00 -0.105660052703E+00 -0.111305337765E+00 -0.117210176939E+00 -0.123382682541E+00
 -0.129830857194E+00 -0.136562549244E+00 -0.143585404118E+00 -0.150906811477E+00 -0.158533848020E+00
 -0.166473215793E+00 -0.174731175924E+00 -0.183313477676E+00 -0.192225282787E+00 -0.201471085064E+00
 -0.211054625246E+00 -0.220978801206E+00 -0.231245573580E+00 -0.241855866993E+00 -0.252809467062E+00
 -0.264104913474E+00 -0.275739389433E+00 -0.287708607904E+00 -0.300006695103E+00 -0.312626071826E+00
 -0.325557333287E+00 -0.338789128274E+00 -0.352308038623E+00 -0.366098460206E+00 -0.380142486923E+00
 -0.394419799508E+00 -0.408907561369E+00 -0.423580324099E+00 -0.438409945639E+00 -0.453365524219E+00
 -0.468413350856E+00 -0.483516881932E+00 -0.498636730902E+00 -0.513730674063E+00 -0.528753659981E+00
 -0.543657806792E+00 -0.558392368746E+00 -0.572903656175E+00 -0.587134903968E+00 -0.601026102189E+00
 -0.614513824370E+00 -0.627531106966E+00 -0.640007438694E+00 -0.651868904183E+00 -0.663038492661E+00
 -0.673436540895E+00 -0.682981250738E+00 -0.691589220155E+00 -0.699175949269E+00 -0.705656312502E+00
 -0.710945007987E+00 -0.714957001556E+00 -0.717607978573E+00 -0.718814809068E+00 -0.718496024696E+00
 -0.716572302026E+00 -0.712966943323E+00 -0.707606348760E+00 -0.700420471631E+00 -0.691343252276E+00
 -0.680313026936E+00 -0.667272908981E+00 -0.652171141547E+00 -0.634961421260E+00 -0.615603194501E+00
 -0.594061926333E+00 -0.570309346041E+00 -0.544323670669E+00 -0.516089809332E+00 -0.485599552980E+00
 -0.452851750299E+00 -0.417852474052E+00 -0.380615178663E+00 -0.341160850267E+00 -0.299518148764E+00
 -0.255723540245E+00 -0.209821416922E+00 -0.161864200486E+00 -0.111912424466E+00 -0.600347913728E-01
 -0.630820202143E-02  0.491822423906E-01  0.106343259934E+00  0.165073417314E+00  0.225263149591E+00
  0.286794744253E+00  0.349542260018E+00  0.413371352908E+00  0.478138992969E+00  0.543693076396E+00
  0.609871971545E+00  0.676504083074E+00  0.743407580244E+00  0.810390517377E+00  0.877251680963E+00
  0.943782605593E+00  0.100977119801E+01  0.107500700045E+01  0.113928683151E+01  0.120241715532E+01
  0.126420736716E+01  0.132445006007E+01  0.138289328529E+01  0.143921991845E+01  0.149304700172E+01
  0.154394254202E+01  0.159144637422E+01  0.163508501818E+01  0.000000000000E+00  0.000000000000E+00
  0.000000000000E+00  0.000000000000E+00  0.000000000000E+00  0.000000000000E+00  0.000000000000E+00
  0.000000000000E+00  0.000000000000E+00  0.000000000000E+00  0.000000000000E+00  0.000000000000E+00
  0.000000000000E+00  0.000000000000E+00  0.000000000000E+00  0.000000000000E+00  0.000000000000E+00
  0.000000000000E+00  0.000000000000E+00  0.000000000000E+00  0.000000000000E+00  0.000000000000E+00
  0.000000000000E+00  0.000000000000E+00  0.000000000000E+00  0.000000000000E+00  0.000000000000E+00
  0.000000000000E+00  0.000000000000E+00  0.000000000000E+00  0.000000000000E+00  0.000000000000E+00
  0.000000000000E+00  0.000000000000E+00  0.000000000000E+00
 pseudo wavefunction
  0.385688084387E-08  0.411179135044E-08  0.438354950384E-08  0.467326880546E-08  0.498213635066E-08
  0.531141769280E-08  0.566246202867E-08  0.603670772674E-08  0.643568822068E-08  0.686103829247E-08
  0.731450077077E-08  0.779793367195E-08  0.831331781314E-08  0.886276492843E-08  0.944852632146E-08
  0.100730020900E-07  0.107387509599E-07  0.114485007694E-07  0.122051596463E-07  0.130118279231E-07
  0.138718108413E-07  0.147886320931E-07  0.157660482605E-07  0.168080642067E-07  0.179189494859E-07
  0.191032558377E-07  0.203658358368E-07  0.217118627761E-07  0.231468518641E-07  0.246766828225E-07
  0.263076239780E-07  0.280463579459E-07  0.299000090116E-07  0.318761723217E-07  0.339829450042E-07
  0.362289593456E-07  0.386234181610E-07  0.411761325016E-07  0.438975618544E-07  0.467988569989E-07
  0.498919056966E-07  0.531893813994E-07  0.567047951780E-07  0.604525510823E-07  0.644480051601E-07
  0.687075283773E-07  0.732485736962E-07  0.780897475870E-07  0.832508862662E-07  0.887531369732E-07
  0.946190446190E-07  0.100872644162E-06  0.107539559088E-06  0.114647106401E-06  0.122224408550E-06
  0.130302512757E-06  0.138914518230E-06  0.148095711780E-06  0.157883712411E-06  0.168318625455E-06
  0.179443206900E-06  0.191303038582E-06  0.203946714947E-06  0.217426042165E-06  0.231796250398E-06
  0.247116220104E-06  0.263448723288E-06  0.280860680706E-06  0.299423436067E-06  0.319213048356E-06
  0.340310603477E-06  0.362802546492E-06  0.386781035824E-06  0.412344320866E-06  0.439597144543E-06
  0.468651172492E-06  0.499625450592E-06  0.532646892749E-06  0.567850800907E-06  0.605381419435E-06
  0.645392526153E-06  0.688048062420E-06  0.733522804862E-06  0.782003081505E-06  0.833687535231E-06
  0.888787937695E-06  0.947530057034E-06  0.101015458293E-05  0.107691811281E-05  0.114809420321E-05
  0.122397449067E-05  0.130486988665E-05  0.139111185147E-05  0.148305375242E-05  0.158107231165E-05
  0.168556914976E-05  0.179697243134E-05  0.191573861937E-05  0.204235434550E-05  0.217733840396E-05
  0.232124387727E-05  0.247466040239E-05  0.263821658673E-05  0.281258258373E-05  0.299847283877E-05
  0.319664901648E-05  0.340792312157E-05  0.363316082589E-05  0.387328501542E-05  0.412927957163E-05
  0.440219340281E-05  0.469314474177E-05  0.500332572769E-05  0.533400729063E-05  0.568654435905E-05
  0.606238141131E-05  0.646305839424E-05  0.689021703275E-05  0.734560755652E-05  0.783109587121E-05
  0.834867120367E-05  0.890045425238E-05  0.948870587659E-05  0.101158363596E-04  0.107844152847E-04
  0.114971820628E-04  0.122570571572E-04  0.130671540490E-04  0.139307919941E-04  0.148515096226E-04
  0.158330794378E-04  0.168795232724E-04  0.179951287673E-04  0.191844669383E-04  0.204524109048E-04
  0.218041558553E-04  0.232452403332E-04  0.247815689285E-04  0.264194364698E-04  0.281655538146E-04
  0.300270753439E-04  0.320116282743E-04  0.341273439068E-04  0.363828909402E-04  0.387875109870E-04
  0.413510564354E-04  0.440840308134E-04  0.469976318207E-04  0.501037972037E-04  0.534152536620E-04
  0.569455689866E-04  0.607092076432E-04  0.647215900286E-04  0.689991556418E-04  0.735594304301E-04
  0.784210985840E-04  0.836040790763E-04  0.891296072581E-04  0.950203218458E-04  0.101300357655E-03
  0.107995444462E-03  0.115133012393E-03  0.122742304281E-03  0.130854495444E-03  0.139502821366E-03
  0.148722713830E-03  0.158551946026E-03  0.169030787254E-03  0.180202167840E-03  0.192111854949E-03
  0.204808640001E-03  0.218344538473E-03  0.232775002887E-03  0.248159149871E-03  0.264560002202E-03
  0.282044746839E-03  0.300685009984E-03  0.320557150308E-03  0.341742571526E-03  0.364328055608E-03
  0.388406117976E-03  0.414075386151E-03  0.441441003372E-03  0.470615058857E-03  0.501717046440E-03
  0.534874353465E-03  0.570222781924E-03  0.607907103959E-03  0.648081653997E-03  0.690910959912E-03
  0.736570415796E-03  0.785246999062E-03  0.837140034803E-03  0.892462010492E-03  0.951439444347E-03
  0.101431381087E-02  0.108134252733E-02  0.115280000511E-02  0.122897877030E-02  0.131019065798E-02
  0.139676808495E-02  0.148906540619E-02  0.158746036047E-02  0.169235561081E-02  0.180418038612E-02
  0.192339223059E-02  0.205047886780E-02  0.218596018699E-02  0.233039035950E-02  0.248436009384E-02
  0.264849903823E-02  0.282347834034E-02  0.301001337425E-02  0.320886664545E-02  0.342085088546E-02
  0.364683234806E-02  0.388773432027E-02  0.414454086166E-02  0.441830078673E-02  0.471013190575E-02
  0.502122554052E-02  0.535285133252E-02  0.570636236185E-02  0.608320059663E-02  0.648490269354E-02
  0.691310617150E-02  0.736955598168E-02  0.785611149852E-02  0.837475395759E-02  0.892759436782E-02
  0.951688192707E-02  0.101450129714E-01  0.108145404907E-01  0.115281842432E-01  0.122888415069E-01
  0.130995985020E-01  0.139637425266E-01  0.148847748446E-01  0.158664243695E-01  0.169126621884E-01
  0.180277169734E-01  0.192160913273E-01  0.204825791151E-01  0.218322838319E-01  0.232706380607E-01
  0.248034240732E-01  0.264367956310E-01  0.281773010408E-01  0.300319075214E-01  0.320080269373E-01
  0.341135429553E-01  0.363568396760E-01  0.387468317930E-01  0.412929963259E-01  0.440054059704E-01
  0.468947641021E-01  0.499724414602E-01  0.532505145319E-01  0.567418056379E-01  0.604599247113E-01
  0.644193127356E-01  0.686352867880E-01  0.731240866028E-01  0.779029225368E-01  0.829900247731E-01
  0.884046935554E-01  0.941673501792E-01  0.100299588401E+00  0.106824225840E+00  0.113765354851E+00
  0.121148392227E+00  0.129000126958E+00  0.137348765118E+00  0.146223970746E+00  0.155656901393E+00
  0.165680236740E+00  0.176328198390E+00  0.187636558615E+00  0.199642635415E+00  0.212385270816E+00
  0.225904788773E+00  0.240242928473E+00  0.255442748109E+00  0.271548493414E+00  0.288605424362E+00
  0.306659592389E+00  0.325757559382E+00  0.345946048377E+00  0.367271514522E+00  0.389779623256E+00
  0.413514621020E+00  0.438518581925E+00  0.464830511939E+00  0.492485290098E+00  0.521512424270E+00
  0.551934597000E+00  0.583765975202E+00  0.617010255932E+00  0.651658419487E+00  0.687686160791E+00
  0.725050970817E+00  0.763688841943E+00  0.803510575297E+00  0.844397674682E+00  0.886197821439E+00
  0.928719938324E+00  0.971728869069E+00  0.101493972481E+01  0.105801198001E+01  0.110054344014E+01
  0.114206425198E+01  0.118203118625E+01  0.121982249151E+01  0.125473369799E+01  0.128597483970E+01
  0.131266966026E+01  0.133385746870E+01  0.134849841106E+01  0.135548301234E+01  0.135364690998E+01
  0.134179173041E+01  0.131871303343E+01  0.128323614429E+01  0.123426048409E+01  0.117081324990E+01
  0.109217824615E+01  0.997999987966E+00  0.888196877593E+00  0.000000000000E+00  0.000000000000E+00
  0.000000000000E+00  0.000000000000E+00  0.000000000000E+00  0.000000000000E+00  0.000000000000E+00
  0.000000000000E+00  0.000000000000E+00  0.000000000000E+00  0.000000000000E+00  0.000000000000E+00
  0.000000000000E+00  0.000000000000E+00  0.000000000000E+00  0.000000000000E+00  0.000000000000E+00
  0.000000000000E+00  0.000000000000E+00  0.000000000000E+00  0.000000000000E+00  0.000000000000E+00
  0.000000000000E+00  0.000000000000E+00  0.000000000000E+00  0.000000000000E+00  0.000000000000E+00
  0.000000000000E+00  0.000000000000E+00  0.000000000000E+00  0.000000000000E+00  0.000000000000E+00
  0.000000000000E+00  0.000000000000E+00  0.000000000000E+00
 ae wavefunction
 -0.341306304691E-06 -0.362337436209E-06 -0.384533624112E-06 -0.407966993983E-06 -0.432713827789E-06
 -0.458854826147E-06 -0.486475391455E-06 -0.515665923598E-06 -0.546522138110E-06 -0.579145399884E-06
 -0.613643081837E-06 -0.650128944837E-06 -0.688723535456E-06 -0.729554617741E-06 -0.772757625456E-06
 -0.818476150814E-06 -0.866862447104E-06 -0.918077987260E-06 -0.972294032977E-06 -0.102969226120E-05
 -0.109046541465E-05 -0.115481800195E-05 -0.122296704155E-05 -0.129514284882E-05 -0.137158987875E-05
 -0.145256761929E-05 -0.153835154258E-05 -0.162923411730E-05 -0.172552588608E-05 -0.182755661181E-05
 -0.193567649779E-05 -0.205025748648E-05 -0.217169464175E-05 -0.230040762046E-05 -0.243684223872E-05
 -0.258147213964E-05 -0.273480056849E-05 -0.289736226311E-05 -0.306972546609E-05 -0.325249406777E-05
 -0.344630988761E-05 -0.365185510320E-05 -0.386985483923E-05 -0.410107991895E-05 -0.434634980092E-05
 -0.460653569999E-05 -0.488256391890E-05 -0.517541938312E-05 -0.548614942261E-05 -0.581586778170E-05
 -0.616575890385E-05 -0.653708249712E-05 -0.693117836430E-05 -0.734947158523E-05 -0.779347804071E-05
 -0.826481023636E-05 -0.876518358520E-05 -0.929642302386E-05 -0.986047012475E-05 -0.104593906166E-04
 -0.110953824357E-04 -0.117707842598E-04 -0.124880846407E-04 -0.132499316935E-04 -0.140591434313E-04
 -0.149187187776E-04 -0.158318492708E-04 -0.168019315664E-04 -0.178325807005E-04 -0.189276442605E-04
 -0.200912174452E-04 -0.213276591244E-04 -0.226416089096E-04 -0.240380053638E-04 -0.255221053681E-04
 -0.270995047507E-04 -0.287761602535E-04 -0.305584129151E-04 -0.324530129683E-04 -0.344671463445E-04
 -0.366084629006E-04 -0.388851064525E-04 -0.413057467529E-04 -0.438796135680E-04 -0.466165328505E-04
 -0.495269653826E-04 -0.526220477999E-04 -0.559136362817E-04 -0.594143530788E-04 -0.631376360303E-04
 -0.670977911791E-04 -0.713100488860E-04 -0.757906234617E-04 -0.805567766202E-04 -0.856268850415E-04
 -0.910205121986E-04 -0.967584848049E-04 -0.102862974138E-03 -0.109357582544E-03 -0.116267435437E-03
 -0.123619279177E-03 -0.131441585150E-03 -0.139764660467E-03 -0.148620765656E-03 -0.158044239827E-03
 -0.168071633767E-03 -0.178741851377E-03 -0.190096300097E-03 -0.202179050766E-03 -0.215037007523E-03
 -0.228720088405E-03 -0.243281417212E-03 -0.258777527431E-03 -0.275268578841E-03 -0.292818587649E-03
 -0.311495670932E-03 -0.331372306248E-03 -0.352525607338E-03 -0.375037616870E-03 -0.398995617239E-03
 -0.424492460485E-03 -0.451626918470E-03 -0.480504054531E-03 -0.511235617705E-03 -0.543940461203E-03
 -0.578744986015E-03 -0.615783611594E-03 -0.655199274884E-03 -0.697143959372E-03 -0.741779255854E-03
 -0.789276956783E-03 -0.839819685983E-03 -0.893601565733E-03 -0.950828923271E-03 -0.101172103892E-02
 -0.107651093804E-02 -0.114544622926E-02 -0.121878999130E-02 -0.129682171119E-02 -0.137983827638E-02
 -0.146815502367E-02 -0.156210684782E-02 -0.166204937289E-02 -0.176836018947E-02 -0.188144016114E-02
 -0.200171480334E-02 -0.212963573841E-02 -0.226568223026E-02 -0.241036280240E-02 -0.256421694323E-02
 -0.272781690250E-02 -0.290176958291E-02 -0.308671853106E-02 -0.328334603189E-02 -0.349237531088E-02
 -0.371457284831E-02 -0.395075080997E-02 -0.420176959867E-02 -0.446854053088E-02 -0.475202864295E-02
 -0.505325563108E-02 -0.537330292937E-02 -0.571331492986E-02 -0.607450234883E-02 -0.645814574266E-02
 -0.686559917715E-02 -0.729829405325E-02 -0.775774309207E-02 -0.824554448171E-02 -0.876338618754E-02
 -0.931305042766E-02 -0.989641831378E-02 -0.105154746577E-01 -0.111723129424E-01 -0.118691404554E-01
 -0.126082835825E-01 -0.133921932557E-01 -0.142234505512E-01 -0.151047724303E-01 -0.160390176128E-01
 -0.170291925736E-01 -0.180784576490E-01 -0.191901332368E-01 -0.203677060748E-01 -0.216148355734E-01
 -0.229353601830E-01 -0.243333037662E-01 -0.258128819467E-01 -0.273785083987E-01 -0.290348010408E-01
 -0.307865880899E-01 -0.326389139282E-01 -0.345970447303E-01 -0.366664737930E-01 -0.388529265025E-01
 -0.411623648695E-01 -0.436009915555E-01 -0.461752533052E-01 -0.488918436955E-01 -0.517577050999E-01
 -0.547800297641E-01 -0.579662598738E-01 -0.613240864942E-01 -0.648614472444E-01 -0.685865225673E-01
 -0.725077304406E-01 -0.766337193681E-01 -0.809733594811E-01 -0.855357315659E-01 -0.903301138300E-01
 -0.953659662046E-01 -0.100652911974E+00 -0.106200716516E+00 -0.112019262926E+00 -0.118118524289E+00
 -0.124508532367E+00 -0.131199342452E+00 -0.138200994133E+00 -0.145523467742E+00 -0.153176636217E+00
 -0.161170212136E+00 -0.169513689690E+00 -0.178216281358E+00 -0.187286849064E+00 -0.196733829615E+00
 -0.206565154225E+00 -0.216788161990E+00 -0.227409507154E+00 -0.238435060089E+00 -0.249869801937E+00
 -0.261717712873E+00 -0.273981654072E+00 -0.286663243424E+00 -0.299762725202E+00 -0.313278833850E+00
 -0.327208652242E+00 -0.341547464733E+00 -0.356288605498E+00 -0.371423302706E+00 -0.386940519212E+00
 -0.402826790584E+00 -0.419066061456E+00 -0.435639521426E+00 -0.452525441972E+00 -0.469699016233E+00
 -0.487132203912E+00 -0.504793584065E+00 -0.522648219056E+00 -0.540657533410E+00 -0.558779211483E+00
 -0.576967117403E+00 -0.595171239296E+00 -0.613337656640E+00 -0.631408524703E+00 -0.649322063402E+00
 -0.667012531489E+00 -0.684410163604E+00 -0.701441051435E+00 -0.718026963827E+00 -0.734085123586E+00
 -0.749527985605E+00 -0.764263082709E+00 -0.778193011585E+00 -0.791215613259E+00 -0.803224360993E+00
 -0.814108917893E+00 -0.823755791767E+00 -0.832049013720E+00 -0.838870795199E+00 -0.844102154427E+00
 -0.847623527668E+00 -0.849315388045E+00 -0.849058889717E+00 -0.846736545719E+00 -0.842232939616E+00
 -0.835435466416E+00 -0.826235094579E+00 -0.814527144490E+00 -0.800212076411E+00 -0.783196286132E+00
 -0.763392907513E+00 -0.740722622928E+00 -0.715114484736E+00 -0.686506752077E+00 -0.654847749435E+00
 -0.620096752290E+00 -0.582224909476E+00 -0.541216209107E+00 -0.497068496399E+00 -0.449794553398E+00
 -0.399423246005E+00 -0.346000746721E+00 -0.289591836936E+00 -0.230281291829E+00 -0.168175347660E+00
 -0.103403248371E+00 -0.361188651786E-01  0.334976203472E-01  0.105237981745E+00  0.178864175493E+00
  0.254106545519E+00  0.330662017647E+00  0.408192295011E+00  0.486322062673E+00  0.564637208313E+00
  0.642683068542E+00  0.719962721140E+00  0.795935365814E+00  0.870014873532E+00  0.941568637463E+00
  0.100991692733E+01  0.107433302884E+01  0.113404454251E+01  0.118823631959E+01  0.123605562182E+01
  0.127662015734E+01  0.130902950875E+01  0.133237978920E+01  0.134577972046E+01  0.134836389374E+01
  0.133929781329E+01  0.131777351973E+01  0.128300531959E+01  0.123424313299E+01  0.117081324990E+01
  0.109217824615E+01  0.997999987966E+00  0.888196877593E+00  0.000000000000E+00  0.000000000000E+00
  0.000000000000E+00  0.000000000000E+00  0.000000000000E+00  0.000000000000E+00  0.000000000000E+00
  0.000000000000E+00  0.000000000000E+00  0.000000000000E+00  0.000000000000E+00  0.000000000000E+00
  0.000000000000E+00  0.000000000000E+00  0.000000000000E+00  0.000000000000E+00  0.000000000000E+00
  0.000000000000E+00  0.000000000000E+00  0.000000000000E+00  0.000000000000E+00  0.000000000000E+00
  0.000000000000E+00  0.000000000000E+00  0.000000000000E+00  0.000000000000E+00  0.000000000000E+00
  0.000000000000E+00  0.000000000000E+00  0.000000000000E+00  0.000000000000E+00  0.000000000000E+00
  0.000000000000E+00  0.000000000000E+00  0.000000000000E+00
 pseudo wavefunction
  0.154303977419E-12  0.169851501733E-12  0.186965580040E-12  0.205804056855E-12  0.226540680956E-12
  0.249366707885E-12  0.274492663915E-12  0.302150287749E-12  0.332594667864E-12  0.366106595211E-12
  0.402995152976E-12  0.443600567279E-12  0.488297345102E-12  0.537497728401E-12  0.591655496244E-12
  0.651270150053E-12  0.716891520546E-12  0.789124838867E-12  0.868636318683E-12  0.956159300727E-12
  0.105250101645E-11  0.115855003320E-11  0.127528444953E-11  0.140378091627E-11  0.154522456661E-11
  0.170091994661E-11  0.187230304720E-11  0.206095454840E-11  0.226861439803E-11  0.249719785947E-11
  0.274881317620E-11  0.302578101635E-11  0.333065587638E-11  0.366624964142E-11  0.403565751950E-11
  0.444228658887E-11  0.488988722182E-11  0.538258767460E-11  0.592493216266E-11  0.652192277233E-11
  0.717906559543E-11  0.790242151241E-11  0.869866209230E-11  0.957513112514E-11  0.105399123543E-10
  0.116019040335E-10  0.127709009960E-10  0.140576849934E-10  0.154741241361E-10  0.170332823543E-10
  0.187495398872E-10  0.206387259133E-10  0.227182645442E-10  0.250073355281E-10  0.275270511467E-10
  0.303006509349E-10  0.333537160207E-10  0.367144050626E-10  0.404137139580E-10  0.444857617215E-10
  0.489681051667E-10  0.539020852956E-10  0.593332085898E-10  0.653115667198E-10  0.718922985443E-10
  0.791360986600E-10  0.871097771921E-10  0.958868759887E-10  0.105548346903E-09  0.116183298416E-09
  0.127889817495E-09  0.140775874248E-09  0.154960317750E-09  0.170573972187E-09  0.187760843459E-09
  0.206679447359E-09  0.227504271569E-09  0.250427384975E-09  0.275660209129E-09  0.303435468202E-09
  0.334009335413E-09  0.367663795731E-09  0.404709246637E-09  0.445487360937E-09  0.490374238029E-09
  0.539783872688E-09  0.594171973359E-09  0.654040165179E-09  0.719940616488E-09  0.792481131502E-09
  0.872330756115E-09  0.960225948538E-09  0.105697737168E-08  0.116347736990E-08  0.128070819917E-08
  0.140975108639E-08  0.155179620162E-08  0.170815363502E-08  0.188026547980E-08  0.206971913273E-08
  0.227826193465E-08  0.250781728622E-08  0.276050238745E-08  0.303864776457E-08  0.334481876452E-08
  0.368183921498E-08  0.405281746856E-08  0.446117507093E-08  0.491067831768E-08  0.540547299060E-08
  0.595012259399E-08  0.654965044359E-08  0.720958599616E-08  0.793601584720E-08  0.873563986700E-08
  0.961583299279E-08  0.105847132468E-07  0.116512166079E-07  0.128251794263E-07  0.141174291429E-07
  0.155398841489E-07  0.171056637060E-07  0.188292089434E-07  0.207264160441E-07  0.228147828515E-07
  0.251135702471E-07  0.276439797873E-07  0.304293492386E-07  0.334953678132E-07  0.368703130905E-07
  0.405853118092E-07  0.446746269350E-07  0.491759736512E-07  0.541308671856E-07  0.595850056820E-07
  0.655886916458E-07  0.721972958511E-07  0.794717679860E-07  0.874791987453E-07  0.962934385531E-07
  0.105995778621E-06  0.116675700619E-06  0.128431701877E-06  0.141372203721E-06  0.155616551311E-06
  0.171296114221E-06  0.188555497886E-06  0.207553877088E-06  0.228466463789E-06  0.251486122826E-06
  0.276825150369E-06  0.304717231533E-06  0.335419595198E-06  0.369215385883E-06  0.406416274549E-06
  0.447365332388E-06  0.492440194081E-06  0.542056539683E-06  0.596671927220E-06  0.656790011301E-06
  0.722965186639E-06  0.795807699246E-06  0.875989272394E-06  0.964249299179E-06  0.106140165872E-05
  0.116834221877E-05  0.128605709387E-05  0.141563173504E-05  0.155826093479E-05  0.171525983944E-05
  0.188807607026E-05  0.207830306495E-05  0.228769476223E-05  0.251818176472E-05  0.277188912876E-05
  0.305115594491E-05  0.335855688920E-05  0.369692594329E-05  0.406938250169E-05  0.447936010602E-05
  0.493063807038E-05  0.542737628849E-05  0.597415354225E-05  0.657600966363E-05  0.723849193699E-05
  0.796770616768E-05  0.877037288555E-05  0.965388919892E-05  0.106263968661E-04  0.116968572085E-04
  0.128751335513E-04  0.141720819477E-04  0.155996510152E-04  0.171709917998E-04  0.189005786706E-04
  0.208043423509E-04  0.228998163000E-04  0.252062977826E-04  0.277450250941E-04  0.305393725568E-04
  0.336150650648E-04  0.370004141267E-04  0.407265775543E-04  0.448278451554E-04  0.493419530215E-04
  0.543104292608E-04  0.597789743037E-04  0.657978792217E-04  0.724224858346E-04  0.797136927550E-04
  0.877385119262E-04  0.965706806540E-04  0.106291334625E-03  0.116989747939E-03  0.128764146762E-03
  0.141722603873E-03  0.155984022044E-03  0.171679214998E-03  0.188952095504E-03  0.207960981111E-03
  0.228880029001E-03  0.251900812560E-03  0.277234053452E-03  0.305111524285E-03  0.335788138385E-03
  0.369544244735E-03  0.406688147821E-03  0.447558873971E-03  0.492529207734E-03  0.542009024032E-03
  0.596448944133E-03  0.656344346033E-03  0.722239762566E-03  0.794733703514E-03  0.874483941162E-03
  0.962213302167E-03  0.105871601229E-02  0.116486464443E-02  0.128161772469E-02  0.141002805558E-02
  0.155125182025E-02  0.170655853676E-02  0.187734193661E-02  0.206513184735E-02  0.227160716499E-02
  0.249861000790E-02  0.274816115017E-02  0.302247683891E-02  0.332398710612E-02  0.365535569272E-02
  0.401950170832E-02  0.441962315666E-02  0.485922246254E-02  0.534213414112E-02  0.587255475529E-02
  0.645507530988E-02  0.709471623415E-02  0.779696510391E-02  0.856781725322E-02  0.941381942132E-02
  0.103421165726E-01  0.113605020162E-01  0.124774709356E-01  0.137022774169E-01  0.150449950359E-01
  0.165165810301E-01  0.181289440332E-01  0.198950153009E-01  0.218288232838E-01  0.239455713292E-01
  0.262617181979E-01  0.287950609691E-01  0.315648197839E-01  0.345917237246E-01  0.378980969640E-01
  0.415079441248E-01  0.454470335830E-01  0.497429772096E-01  0.544253047986E-01  0.595255311515E-01
  0.650772135096E-01  0.711159967312E-01  0.776796433240E-01  0.848080451712E-01  0.925432135500E-01
  0.100929243861E+00  0.110012251388E+00  0.119840274422E+00  0.130463141296E+00  0.141932298244E+00
  0.154300595715E+00  0.167622031804E+00  0.181951452933E+00  0.197344213916E+00  0.213855802203E+00
  0.231541434419E+00  0.250455637530E+00  0.270651832031E+00  0.292181940622E+00  0.315096052825E+00
  0.339442183897E+00  0.365266175058E+00  0.392611791023E+00  0.421521079804E+00  0.452035067744E+00
  0.484194868854E+00  0.518043290088E+00  0.553627011491E+00  0.590999409456E+00  0.630224069922E+00
  0.671379002375E+00  0.714561511224E+00  0.759893603981E+00  0.807527711634E+00  0.857652361860E+00
  0.910497278117E+00  0.966337177526E+00  0.102549331189E+01  0.108833154960E+01  0.115525554934E+01
  0.122669335847E+01  0.130307561996E+01  0.138480354835E+01  0.147220500613E+01  0.156547829110E+01
  0.166474525020E+01  0.177024084072E+01  0.188223273722E+01  0.000000000000E+00  0.000000000000E+00
  0.000000000000E+00  0.000000000000E+00  0.000000000000E+00  0.000000000000E+00  0.000000000000E+00
  0.000000000000E+00  0.000000000000E+00  0.000000000000E+00  0.000000000000E+00  0.000000000000E+00
  0.000000000000E+00  0.000000000000E+00  0.000000000000E+00  0.000000000000E+00  0.000000000000E+00
  0.000000000000E+00  0.000000000000E+00  0.000000000000E+00  0.000000000000E+00  0.000000000000E+00
  0.000000000000E+00  0.000000000000E+00  0.000000000000E+00  0.000000000000E+00  0.000000000000E+00
  0.000000000000E+00  0.000000000000E+00  0.000000000000E+00  0.000000000000E+00  0.000000000000E+00
  0.000000000000E+00  0.000000000000E+00  0.000000000000E+00
 ae wavefunction
  0.180385966487E-11  0.198227902877E-11  0.217557063658E-11  0.238518890377E-11  0.261271395395E-11
  0.285986391427E-11  0.312850837550E-11  0.342068301468E-11  0.373860560756E-11  0.408469345867E-11
  0.446158250110E-11  0.487214816366E-11  0.531952808690E-11  0.580714710468E-11  0.633874448524E-11
  0.691840385375E-11  0.755058566447E-11  0.824016316880E-11  0.899246134791E-11  0.981329994475E-11
  0.107090403020E-10  0.116866368141E-10  0.127536932994E-10  0.139185246702E-10  0.151902246255E-10
  0.165787397782E-10  0.180949509148E-10  0.197507620818E-10  0.215591982540E-10  0.235345124159E-10
  0.256923029877E-10  0.280496425977E-10  0.306252193155E-10  0.334394915669E-10  0.365148580591E-10
  0.398758442097E-10  0.435493066699E-10  0.475646577476E-10  0.519541116518E-10  0.567529547364E-10
  0.619998420723E-10  0.677371229405E-10  0.740111982020E-10  0.808729123768E-10  0.883779843207E-10
  0.965874797972E-10  0.105568330657E-09  0.115393904340E-09  0.126144629946E-09  0.137908685011E-09
  0.150782750308E-09  0.164872839013E-09  0.180295205722E-09  0.197177346777E-09  0.215659099445E-09
  0.235893846097E-09  0.258049841361E-09  0.282311666016E-09  0.308881827969E-09  0.337982518107E-09
  0.369857542057E-09  0.404774440042E-09  0.443026819138E-09  0.484936913721E-09  0.530858399985E-09
  0.581179489552E-09  0.636326327374E-09  0.696766729005E-09  0.763014283967E-09  0.835632869262E-09
  0.915241607768E-09  0.100252032004E-08  0.109821551384E-08  0.120314697068E-08  0.131821498363E-08
  0.144440831385E-08  0.158281293709E-08  0.173462165765E-08  0.190114467715E-08  0.208382121218E-08
  0.228423226704E-08  0.250411467301E-08  0.274537652272E-08  0.301011414310E-08  0.330063074054E-08
  0.361945691804E-08  0.396937321702E-08  0.435343490136E-08  0.477499921041E-08  0.523775532003E-08
  0.574575726845E-08  0.630346017471E-08  0.691576004439E-08  0.758803753125E-08  0.832620605723E-08
  0.913676470490E-08  0.100268563720E-07  0.110043317054E-07  0.120778193864E-07  0.132568033974E-07
  0.145517079691E-07  0.159739909637E-07  0.175362465359E-07  0.192523179825E-07  0.211374218032E-07
  0.232082840812E-07  0.254832903867E-07  0.279826505712E-07  0.307285799070E-07  0.337454981876E-07
  0.370602485864E-07  0.407023381967E-07  0.447042024294E-07  0.491014955955E-07  0.539334102799E-07
  0.592430283351E-07  0.650777066231E-07  0.714895009208E-07  0.785356317622E-07  0.862789963350E-07
  0.947887309697E-07  0.104140829195E-06  0.114418820835E-06  0.125714518085E-06  0.138128835274E-06
  0.151772689338E-06  0.166767989108E-06  0.183248722018E-06  0.201362147747E-06  0.221270109273E-06
  0.243150472847E-06  0.267198709394E-06  0.293629631183E-06  0.322679298835E-06  0.354607115304E-06
  0.389698124950E-06  0.428265537637E-06  0.470653499654E-06  0.517240135408E-06  0.568440886004E-06
  0.624712173494E-06  0.686555422115E-06  0.754521470968E-06  0.829215415800E-06  0.911301921088E-06
  0.100151104753E-05  0.110064464438E-05  0.120958336052E-05  0.132929433342E-05  0.146083962058E-05
  0.160538544403E-05  0.176421232512E-05  0.193872619395E-05  0.213047056566E-05  0.234113988416E-05
  0.257259414337E-05  0.282687490596E-05  0.310622285052E-05  0.341309699035E-05  0.375019571944E-05
  0.412047985628E-05  0.452719787021E-05  0.497391349286E-05  0.546453593482E-05  0.600335294687E-05
  0.659506698732E-05  0.724483477923E-05  0.795831056658E-05  0.874169340580E-05  0.960177885754E-05
  0.105460154762E-04  0.115825665282E-04  0.127203774071E-04  0.139692492534E-04  0.153399193313E-04
  0.168441487577E-04  0.184948182325E-04  0.203060324704E-04  0.222932340933E-04  0.244733278040E-04
  0.268648157282E-04  0.294879448844E-04  0.323648678164E-04  0.355198175062E-04  0.389792977712E-04
  0.427722904448E-04  0.469304807378E-04  0.514885022854E-04  0.564842034963E-04  0.619589369413E-04
  0.679578736469E-04  0.745303442928E-04  0.817302094564E-04  0.896162611972E-04  0.982526584339E-04
  0.107709398734E-03  0.118062829309E-03  0.129396200200E-03  0.141800262818E-03  0.155373917216E-03
  0.170224911675E-03  0.186470598400E-03  0.204238749343E-03  0.223668436418E-03  0.244910980585E-03
  0.268130974538E-03  0.293507383990E-03  0.321234732764E-03  0.351524377193E-03  0.384605875547E-03
  0.420728458502E-03  0.460162606863E-03  0.503201743053E-03  0.550164043068E-03  0.601394375868E-03
  0.657266377374E-03  0.718184666424E-03  0.784587210270E-03  0.856947847306E-03  0.935778974938E-03
  0.102163441048E-02  0.111511243326E-02  0.121685901587E-02  0.132757125290E-02  0.144800099504E-02
  0.157895869668E-02  0.172131748506E-02  0.187601745845E-02  0.204407022123E-02  0.222656366314E-02
  0.242466698961E-02  0.263963601010E-02  0.287281869061E-02  0.312566097646E-02  0.339971289044E-02
  0.369663491167E-02  0.401820463919E-02  0.436632374445E-02  0.474302521593E-02  0.515048089947E-02
  0.559100933747E-02  0.606708391113E-02  0.658134129209E-02  0.713659021221E-02  0.773582056701E-02
  0.838221287565E-02  0.907914813371E-02  0.983021811043E-02  0.106392361620E-01  0.115102486509E-01
  0.124475470726E-01  0.134556809790E-01  0.145394717342E-01  0.157040270200E-01  0.169547558032E-01
  0.182973832165E-01  0.197379645339E-01  0.212828972896E-01  0.229389307368E-01  0.247131723769E-01
  0.266130921973E-01  0.286465263346E-01  0.308216827554E-01  0.331471517446E-01  0.356319231556E-01
  0.382854106665E-01  0.411174815178E-01  0.441384893625E-01  0.473593082861E-01  0.507913672690E-01
  0.544466855241E-01  0.583379098059E-01  0.624783548900E-01  0.668820481914E-01  0.715637791567E-01
  0.765391538069E-01  0.818246544621E-01  0.874377048229E-01  0.933967402129E-01  0.997212830390E-01
  0.106432023451E+00  0.113550905189E+00  0.121101216697E+00  0.129107687524E+00  0.137596590297E+00
  0.146595848170E+00  0.156135148394E+00  0.166246062159E+00  0.176962171211E+00  0.188319202425E+00
  0.200355170771E+00  0.213110532496E+00  0.226628349865E+00  0.240954469580E+00  0.256137717177E+00
  0.272230109979E+00  0.289287091386E+00  0.307367789085E+00  0.326535299447E+00  0.346856999324E+00
  0.368404885012E+00  0.391255935769E+00  0.415492496534E+00  0.441202671056E+00  0.468480713669E+00
  0.497427405914E+00  0.528150404812E+00  0.560764553884E+00  0.595392157861E+00  0.632163237955E+00
  0.671215808837E+00  0.712696251298E+00  0.756759902720E+00  0.803572057054E+00  0.853309664838E+00
  0.906164134585E+00  0.962345663031E+00  0.102208919683E+01  0.108566099413E+01  0.115336253895E+01
  0.122552633265E+01  0.130249932843E+01  0.138461772480E+01  0.147218675566E+01  0.156547829110E+01
  0.166474525020E+01  0.177024084072E+01  0.188223273722E+01  0.000000000000E+00  0.000000000000E+00
  0.000000000000E+00  0.000000000000E+00  0.000000000000E+00  0.000000000000E+00  0.000000000000E+00
  0.000000000000E+00  0.000000000000E+00  0.000000000000E+00  0.000000000000E+00  0.000000000000E+00
  0.000000000000E+00  0.000000000000E+00  0.000000000000E+00  0.000000000000E+00  0.000000000000E+00
  0.000000000000E+00  0.000000000000E+00  0.000000000000E+00  0.000000000000E+00  0.000000000000E+00
  0.000000000000E+00  0.000000000000E+00  0.000000000000E+00  0.000000000000E+00  0.000000000000E+00
  0.000000000000E+00  0.000000000000E+00  0.000000000000E+00  0.000000000000E+00  0.000000000000E+00
  0.000000000000E+00  0.000000000000E+00  0.000000000000E+00
 End of Dataset
  PAW_PBE N 08Apr2002                    
   5.00000000000000     
 parameters from PSCTR are:
   VRHFIN =N: s2p3
   LEXCH  = PE
   EATOM  =   264.5486 eV,   19.4438 Ry

   TITEL  = PAW_PBE N 08Apr2002
   LULTRA =        F    use ultrasoft PP ?
   IUNSCR =        1    unscreen: 0-lin 1-nonlin 2-no
   RPACOR =    1.200    partial core radius
   POMASS =   14.001; ZVAL   =    5.000    mass and valenz
   RCORE  =    1.500    outmost cutoff radius
   RWIGS  =    1.400; RWIGS  =    0.741    wigner-seitz radius (au A)
   ENMAX  =  400.000; ENMIN  =  300.000 eV
   ICORE  =        2    local potential
   LCOR   =        T    correct aug charges
   LPAW   =        T    paw PP
   EAUG   =  627.112
   DEXC   =    0.000
   RMAX   =    1.529    core radius for proj-oper
   RAUG   =    1.300    factor for augmentation sphere
   RDEP   =    1.514    radius for radial grids
   RDEPT  =    1.338    core radius for aug-charge
 
   Atomic configuration
    4 entries
     n  l   j            E        occ.
     1  0  0.50      -384.7179   2.0000
     2  0  0.50       -18.5828   2.0000
     2  1  0.50        -7.0898   3.0000
     3  2  1.50        -6.8029   0.0000
   Description
     l       E           TYP  RCUT    TYP  RCUT
     0    -18.5828119     23  1.200
     0    -13.5018863     23  1.200
     1     -7.0897853     23  1.500
     1      9.5240782     23  1.500
     2     -6.8029130      7  1.500
   Error from kinetic energy argument (eV)
   NDATA  =      100
   STEP   =   20.000   1.050
  106.      104.      102.      99.8      98.5      95.8      93.0      91.6
  88.9      86.1      84.8      82.0      79.3      76.6      73.9      71.2
  68.6      66.1      63.5      59.9      57.5      55.1      51.7      49.5
  47.4      44.3      41.4      39.5      36.8      34.2      31.7      29.4
  27.2      25.1      23.2      21.4      19.1      17.5      15.6      14.2
  12.6      11.1      9.72      8.50      7.41      6.43      5.55      4.60
  3.93      3.21      2.60      2.18      1.74      1.37      1.02     0.784
 0.597     0.422     0.293     0.199     0.133     0.872E-01 0.567E-01 0.347E-01
 0.238E-01 0.169E-01 0.137E-01 0.123E-01 0.116E-01 0.109E-01 0.100E-01 0.875E-02
 0.733E-02 0.589E-02 0.445E-02 0.343E-02 0.259E-02 0.207E-02 0.177E-02 0.163E-02
 0.153E-02 0.142E-02 0.127E-02 0.106E-02 0.841E-03 0.647E-03 0.505E-03 0.416E-03
 0.381E-03 0.372E-03 0.362E-03 0.337E-03 0.285E-03 0.227E-03 0.173E-03 0.137E-03
 0.121E-03 0.118E-03 0.117E-03 0.109E-03
END of PSCTR-controll parameters
 local part
   124.721915246209     
  0.21549196E+02  0.21549510E+02  0.21545877E+02  0.21539823E+02  0.21531352E+02
  0.21520464E+02  0.21507162E+02  0.21491448E+02  0.21473322E+02  0.21452781E+02
  0.21429822E+02  0.21404440E+02  0.21376626E+02  0.21346368E+02  0.21313655E+02
  0.21278469E+02  0.21240793E+02  0.21200607E+02  0.21157886E+02  0.21112606E+02
  0.21064737E+02  0.21014249E+02  0.20961106E+02  0.20905269E+02  0.20846697E+02
  0.20785343E+02  0.20721157E+02  0.20654086E+02  0.20584070E+02  0.20511050E+02
  0.20434959E+02  0.20355728E+02  0.20273287E+02  0.20187561E+02  0.20098473E+02
  0.20005943E+02  0.19909890E+02  0.19810232E+02  0.19706883E+02  0.19599760E+02
  0.19488778E+02  0.19373852E+02  0.19254900E+02  0.19131839E+02  0.19004592E+02
  0.18873081E+02  0.18737236E+02  0.18596989E+02  0.18452277E+02  0.18303046E+02
  0.18149244E+02  0.17990831E+02  0.17827772E+02  0.17660042E+02  0.17487626E+02
  0.17310517E+02  0.17128722E+02  0.16942256E+02  0.16751148E+02  0.16555439E+02
  0.16355183E+02  0.16150446E+02  0.15941309E+02  0.15727865E+02  0.15510223E+02
  0.15288505E+02  0.15062847E+02  0.14833399E+02  0.14600326E+02  0.14363805E+02
  0.14124029E+02  0.13881202E+02  0.13635543E+02  0.13387282E+02  0.13136662E+02
  0.12883936E+02  0.12629367E+02  0.12373231E+02  0.12115810E+02  0.11857394E+02
  0.11598282E+02  0.11338778E+02  0.11079191E+02  0.10819836E+02  0.10561026E+02
  0.10303082E+02  0.10046322E+02  0.97910627E+01  0.95376214E+01  0.92863112E+01
  0.90374410E+01  0.87913144E+01  0.85482283E+01  0.83084719E+01  0.80723256E+01
  0.78400598E+01  0.76119339E+01  0.73881952E+01  0.71690781E+01  0.69548033E+01
  0.67455764E+01  0.65415880E+01  0.63430123E+01  0.61500068E+01  0.59627116E+01
  0.57812492E+01  0.56057239E+01  0.54362218E+01  0.52728102E+01  0.51155379E+01
  0.49644350E+01  0.48195130E+01  0.46807651E+01  0.45481663E+01  0.44216736E+01
  0.43012270E+01  0.41867491E+01  0.40781468E+01  0.39753109E+01  0.38781174E+01
  0.37864285E+01  0.37000928E+01  0.36189467E+01  0.35428153E+01  0.34715131E+01
  0.34048455E+01  0.33426096E+01  0.32845952E+01  0.32305861E+01  0.31803611E+01
  0.31336953E+01  0.30903610E+01  0.30501290E+01  0.30127696E+01  0.29780538E+01
  0.29457542E+01  0.29156463E+01  0.28875091E+01  0.28611264E+01  0.28362876E+01
  0.28127883E+01  0.27904315E+01  0.27690281E+01  0.27483975E+01  0.27283685E+01
  0.27087795E+01  0.26894792E+01  0.26703270E+01  0.26511931E+01  0.26319591E+01
  0.26125178E+01  0.25927736E+01  0.25726425E+01  0.25520518E+01  0.25309405E+01
  0.25092584E+01  0.24869669E+01  0.24640375E+01  0.24404525E+01  0.24162039E+01
  0.23912936E+01  0.23657321E+01  0.23395387E+01  0.23127404E+01  0.22853718E+01
  0.22574739E+01  0.22290939E+01  0.22002844E+01  0.21711024E+01  0.21416093E+01
  0.21118695E+01  0.20819501E+01  0.20519201E+01  0.20218499E+01  0.19918103E+01
  0.19618721E+01  0.19321057E+01  0.19025800E+01  0.18733621E+01  0.18445170E+01
  0.18161068E+01  0.17881902E+01  0.17608225E+01  0.17340549E+01  0.17079343E+01
  0.16825029E+01  0.16577982E+01  0.16338527E+01  0.16106936E+01  0.15883431E+01
  0.15668181E+01  0.15461299E+01  0.15262850E+01  0.15072844E+01  0.14891243E+01
  0.14717960E+01  0.14552860E+01  0.14395763E+01  0.14246451E+01  0.14104662E+01
  0.13970101E+01  0.13842439E+01  0.13721317E+01  0.13606353E+01  0.13497140E+01
  0.13393253E+01  0.13294254E+01  0.13199693E+01  0.13109113E+01  0.13022055E+01
  0.12938059E+01  0.12856670E+01  0.12777441E+01  0.12699934E+01  0.12623726E+01
  0.12548412E+01  0.12473605E+01  0.12398940E+01  0.12324076E+01  0.12248698E+01
  0.12172520E+01  0.12095283E+01  0.12016760E+01  0.11936754E+01  0.11855101E+01
  0.11771668E+01  0.11686353E+01  0.11599087E+01  0.11509832E+01  0.11418579E+01
  0.11325351E+01  0.11230196E+01  0.11133191E+01  0.11034437E+01  0.10934058E+01
  0.10832201E+01  0.10729030E+01  0.10624728E+01  0.10519493E+01  0.10413534E+01
  0.10307071E+01  0.10200333E+01  0.10093552E+01  0.99869651E+00  0.98808098E+00
  0.97753216E+00  0.96707322E+00  0.95672678E+00  0.94651466E+00  0.93645771E+00
  0.92657565E+00  0.91688689E+00  0.90740839E+00  0.89815553E+00  0.88914200E+00
  0.88037974E+00  0.87187881E+00  0.86364738E+00  0.85569167E+00  0.84801593E+00
  0.84062247E+00  0.83351165E+00  0.82668193E+00  0.82012988E+00  0.81385033E+00
  0.80783637E+00  0.80207948E+00  0.79656962E+00  0.79129539E+00  0.78624409E+00
  0.78140191E+00  0.77675405E+00  0.77228489E+00  0.76797813E+00  0.76381692E+00
  0.75978406E+00  0.75586217E+00  0.75203377E+00  0.74828151E+00  0.74458827E+00
  0.74093734E+00  0.73731251E+00  0.73369825E+00  0.73007979E+00  0.72644325E+00
  0.72277573E+00  0.71906543E+00  0.71530168E+00  0.71147504E+00  0.70757734E+00
  0.70360173E+00  0.69954269E+00  0.69539608E+00  0.69115908E+00  0.68683024E+00
  0.68240944E+00  0.67789785E+00  0.67329786E+00  0.66861310E+00  0.66384831E+00
  0.65900927E+00  0.65410276E+00  0.64913644E+00  0.64411876E+00  0.63905887E+00
  0.63396649E+00  0.62885183E+00  0.62372547E+00  0.61859825E+00  0.61348116E+00
  0.60838522E+00  0.60332139E+00  0.59830045E+00  0.59333293E+00  0.58842894E+00
  0.58359819E+00  0.57884980E+00  0.57419227E+00  0.56963341E+00  0.56518028E+00
  0.56083909E+00  0.55661523E+00  0.55251316E+00  0.54853644E+00  0.54468765E+00
  0.54096845E+00  0.53737954E+00  0.53392065E+00  0.53059060E+00  0.52738730E+00
  0.52430780E+00  0.52134829E+00  0.51850421E+00  0.51577024E+00  0.51314041E+00
  0.51060813E+00  0.50816629E+00  0.50580732E+00  0.50352326E+00  0.50130584E+00
  0.49914657E+00  0.49703681E+00  0.49496788E+00  0.49293108E+00  0.49091783E+00
  0.48891970E+00  0.48692853E+00  0.48493643E+00  0.48293593E+00  0.48091998E+00
  0.47888203E+00  0.47681607E+00  0.47471669E+00  0.47257911E+00  0.47039921E+00
  0.46817353E+00  0.46589936E+00  0.46357465E+00  0.46119811E+00  0.45876914E+00
  0.45628787E+00  0.45375510E+00  0.45117230E+00  0.44854160E+00  0.44586574E+00
  0.44314801E+00  0.44039225E+00  0.43760278E+00  0.43478435E+00  0.43194207E+00
  0.42908140E+00  0.42620803E+00  0.42332788E+00  0.42044698E+00  0.41757148E+00
  0.41470750E+00  0.41186117E+00  0.40903848E+00  0.40624529E+00  0.40348724E+00
  0.40076969E+00  0.39809773E+00  0.39547604E+00  0.39290896E+00  0.39040035E+00
  0.38795364E+00  0.38557174E+00  0.38325707E+00  0.38101152E+00  0.37883643E+00
  0.37673261E+00  0.37470032E+00  0.37273927E+00  0.37084866E+00  0.36902715E+00
  0.36727292E+00  0.36558366E+00  0.36395662E+00  0.36238865E+00  0.36087620E+00
  0.35941538E+00  0.35800201E+00  0.35663164E+00  0.35529962E+00  0.35400112E+00
  0.35273121E+00  0.35148487E+00  0.35025705E+00  0.34904273E+00  0.34783696E+00
  0.34663489E+00  0.34543184E+00  0.34422332E+00  0.34300507E+00  0.34177309E+00
  0.34052373E+00  0.33925361E+00  0.33795976E+00  0.33663956E+00  0.33529081E+00
  0.33391170E+00  0.33250085E+00  0.33105733E+00  0.32958061E+00  0.32807059E+00
  0.32652762E+00  0.32495244E+00  0.32334617E+00  0.32171036E+00  0.32004688E+00
  0.31835794E+00  0.31664608E+00  0.31491409E+00  0.31316504E+00  0.31140218E+00
  0.30962897E+00  0.30784898E+00  0.30606593E+00  0.30428356E+00  0.30250568E+00
  0.30073607E+00  0.29897849E+00  0.29723660E+00  0.29551395E+00  0.29381396E+00
  0.29213987E+00  0.29049469E+00  0.28888121E+00  0.28730197E+00  0.28575923E+00
  0.28425494E+00  0.28279075E+00  0.28136797E+00  0.27998761E+00  0.27865030E+00
  0.27735636E+00  0.27610576E+00  0.27489813E+00  0.27373277E+00  0.27260868E+00
  0.27152453E+00  0.27047872E+00  0.26946937E+00  0.26849435E+00  0.26755131E+00
  0.26663769E+00  0.26575076E+00  0.26488765E+00  0.26404537E+00  0.26322084E+00
  0.26241090E+00  0.26161239E+00  0.26082215E+00  0.26003702E+00  0.25925394E+00
  0.25846991E+00  0.25768205E+00  0.25688763E+00  0.25608408E+00  0.25526901E+00
  0.25444025E+00  0.25359583E+00  0.25273404E+00  0.25185342E+00  0.25095277E+00
  0.25003114E+00  0.24908787E+00  0.24812258E+00  0.24713516E+00  0.24612577E+00
  0.24509485E+00  0.24404308E+00  0.24297141E+00  0.24188101E+00  0.24077328E+00
  0.23964983E+00  0.23851244E+00  0.23736307E+00  0.23620382E+00  0.23503692E+00
  0.23386467E+00  0.23268949E+00  0.23151382E+00  0.23034013E+00  0.22917090E+00
  0.22800859E+00  0.22685561E+00  0.22571430E+00  0.22458690E+00  0.22347556E+00
  0.22238228E+00  0.22130892E+00  0.22025717E+00  0.21922853E+00  0.21822433E+00
  0.21724567E+00  0.21629347E+00  0.21536840E+00  0.21447092E+00  0.21360127E+00
  0.21275946E+00  0.21194529E+00  0.21115831E+00  0.21039790E+00  0.20966320E+00
  0.20895318E+00  0.20826661E+00  0.20760212E+00  0.20695815E+00  0.20633305E+00
  0.20572502E+00  0.20513216E+00  0.20455251E+00  0.20398403E+00  0.20342464E+00
  0.20287225E+00  0.20232476E+00  0.20178009E+00  0.20123621E+00  0.20069112E+00
  0.20014293E+00  0.19958981E+00  0.19903007E+00  0.19846212E+00  0.19788453E+00
  0.19729600E+00  0.19669539E+00  0.19608175E+00  0.19545429E+00  0.19481239E+00
  0.19415564E+00  0.19348380E+00  0.19279682E+00  0.19209483E+00  0.19137814E+00
  0.19064726E+00  0.18990284E+00  0.18914569E+00  0.18837679E+00  0.18759724E+00
  0.18680828E+00  0.18601124E+00  0.18520757E+00  0.18439880E+00  0.18358651E+00
  0.18277235E+00  0.18195798E+00  0.18114509E+00  0.18033539E+00  0.17953052E+00
  0.17873215E+00  0.17794185E+00  0.17716116E+00  0.17639151E+00  0.17563427E+00
  0.17489068E+00  0.17416188E+00  0.17344888E+00  0.17275254E+00  0.17207361E+00
  0.17141267E+00  0.17077015E+00  0.17014633E+00  0.16954133E+00  0.16895513E+00
  0.16838754E+00  0.16783823E+00  0.16730670E+00  0.16679235E+00  0.16629440E+00
  0.16581200E+00  0.16534413E+00  0.16488971E+00  0.16444755E+00  0.16401638E+00
  0.16359486E+00  0.16318161E+00  0.16277521E+00  0.16237419E+00  0.16197710E+00
  0.16158247E+00  0.16118887E+00  0.16079487E+00  0.16039912E+00  0.16000029E+00
  0.15959716E+00  0.15918855E+00  0.15877340E+00  0.15835073E+00  0.15791969E+00
  0.15747953E+00  0.15702963E+00  0.15656948E+00  0.15609871E+00  0.15561710E+00
  0.15512452E+00  0.15462102E+00  0.15410674E+00  0.15358198E+00  0.15304714E+00
  0.15250275E+00  0.15194946E+00  0.15138801E+00  0.15081923E+00  0.15024406E+00
  0.14966350E+00  0.14907862E+00  0.14849053E+00  0.14790042E+00  0.14730947E+00
  0.14671891E+00  0.14612995E+00  0.14554382E+00  0.14496172E+00  0.14438483E+00
  0.14381428E+00  0.14325114E+00  0.14269644E+00  0.14215114E+00  0.14161609E+00
  0.14109208E+00  0.14057980E+00  0.14007984E+00  0.13959267E+00  0.13911866E+00
  0.13865809E+00  0.13821109E+00  0.13777770E+00  0.13735783E+00  0.13695129E+00
  0.13655778E+00  0.13617688E+00  0.13580809E+00  0.13545080E+00  0.13510431E+00
  0.13476786E+00  0.13444058E+00  0.13412157E+00  0.13380986E+00  0.13350444E+00
  0.13320427E+00  0.13290826E+00  0.13261534E+00  0.13232441E+00  0.13203440E+00
  0.13174423E+00  0.13145287E+00  0.13115932E+00  0.13086263E+00  0.13056190E+00
  0.13025629E+00  0.12994505E+00  0.12962749E+00  0.12930301E+00  0.12897109E+00
  0.12863133E+00  0.12828340E+00  0.12792707E+00  0.12756222E+00  0.12718884E+00
  0.12680698E+00  0.12641684E+00  0.12601868E+00  0.12561287E+00  0.12519984E+00
  0.12478014E+00  0.12435438E+00  0.12392323E+00  0.12348743E+00  0.12304779E+00
  0.12260514E+00  0.12216036E+00  0.12171437E+00  0.12126810E+00  0.12082247E+00
  0.12037845E+00  0.11993695E+00  0.11949890E+00  0.11906519E+00  0.11863667E+00
  0.11821417E+00  0.11779844E+00  0.11739019E+00  0.11699005E+00  0.11659862E+00
  0.11621637E+00  0.11584373E+00  0.11548104E+00  0.11512855E+00  0.11478641E+00
  0.11445471E+00  0.11413343E+00  0.11382247E+00  0.11352164E+00  0.11323067E+00
  0.11294921E+00  0.11267683E+00  0.11241303E+00  0.11215723E+00  0.11190882E+00
  0.11166711E+00  0.11143137E+00  0.11120082E+00  0.11097468E+00  0.11075210E+00
  0.11053225E+00  0.11031428E+00  0.11009733E+00  0.10988057E+00  0.10966316E+00
  0.10944430E+00  0.10922323E+00  0.10899920E+00  0.10877154E+00  0.10853962E+00
  0.10830285E+00  0.10806072E+00  0.10781278E+00  0.10755867E+00  0.10729807E+00
  0.10703076E+00  0.10675660E+00  0.10647551E+00  0.10618751E+00  0.10589267E+00
  0.10559117E+00  0.10528325E+00  0.10496920E+00  0.10464941E+00  0.10432433E+00
  0.10399444E+00  0.10366031E+00  0.10332254E+00  0.10298176E+00  0.10263866E+00
  0.10229394E+00  0.10194832E+00  0.10160256E+00  0.10125738E+00  0.10091355E+00
  0.10057179E+00  0.10023284E+00  0.99897386E-01  0.99566109E-01  0.99239644E-01
  0.98918585E-01  0.98603483E-01  0.98294834E-01  0.97993081E-01  0.97698603E-01
  0.97411719E-01  0.97132682E-01  0.96861676E-01  0.96598816E-01  0.96344147E-01
  0.96097646E-01  0.95859217E-01  0.95628700E-01  0.95405865E-01  0.95190423E-01
  0.94982020E-01  0.94780250E-01  0.94584652E-01  0.94394721E-01  0.94209906E-01
  0.94029624E-01  0.93853260E-01  0.93680172E-01  0.93509703E-01  0.93341183E-01
  0.93173937E-01  0.93007291E-01  0.92840577E-01  0.92673145E-01  0.92504360E-01
  0.92333619E-01  0.92160346E-01  0.91984004E-01  0.91804100E-01  0.91620184E-01
  0.91431858E-01  0.91238779E-01  0.91040657E-01  0.90837265E-01  0.90628433E-01
  0.90414056E-01  0.90194087E-01  0.89968547E-01  0.89737514E-01  0.89501128E-01
  0.89259590E-01  0.89013154E-01  0.88762128E-01  0.88506871E-01  0.88247788E-01
  0.87985324E-01  0.87719963E-01  0.87452219E-01  0.87182633E-01  0.86911769E-01
  0.86640206E-01  0.86368532E-01  0.86097341E-01  0.85827223E-01  0.85558764E-01
  0.85292535E-01  0.85029089E-01  0.84768954E-01  0.84512631E-01  0.84260587E-01
  0.84013250E-01  0.83771009E-01  0.83534205E-01  0.83303133E-01  0.83078037E-01
  0.82859107E-01  0.82646482E-01  0.82440243E-01  0.82240417E-01  0.82046976E-01
  0.81859836E-01  0.81678859E-01  0.81503856E-01  0.81334589E-01  0.81170770E-01
  0.81012071E-01  0.80858120E-01  0.80708509E-01  0.80562801E-01  0.80420526E-01
  0.80281195E-01  0.80144298E-01  0.80009312E-01  0.79875708E-01  0.79742950E-01
  0.79610506E-01  0.79477852E-01  0.79344475E-01  0.79209879E-01  0.79073590E-01
  0.78935161E-01  0.78794175E-01  0.78650247E-01  0.78503034E-01  0.78352230E-01
  0.78197572E-01  0.78038845E-01  0.77875880E-01  0.77708554E-01  0.77536796E-01
  0.77360584E-01  0.77179945E-01  0.76994955E-01  0.76805738E-01  0.76612463E-01
  0.76415345E-01  0.76214639E-01  0.76010641E-01  0.75803679E-01  0.75594118E-01
  0.75382347E-01  0.75168781E-01  0.74953856E-01  0.74738022E-01  0.74521742E-01
  0.74305485E-01  0.74089722E-01  0.73874921E-01  0.73661545E-01  0.73450043E-01
  0.73240848E-01  0.73034375E-01  0.72831012E-01  0.72631123E-01  0.72435037E-01
  0.72243052E-01  0.72055427E-01  0.71872383E-01  0.71694101E-01  0.71520717E-01
  0.71352328E-01  0.71188982E-01  0.71030685E-01  0.70877400E-01  0.70729044E-01
  0.70585492E-01  0.70446580E-01  0.70312102E-01  0.70181818E-01  0.70055450E-01
  0.69932693E-01  0.69813211E-01  0.69696644E-01  0.69582612E-01  0.69470716E-01
  0.69360544E-01  0.69251677E-01  0.69143687E-01  0.69036150E-01  0.68928639E-01
  0.68820741E-01  0.68712048E-01  0.68602172E-01  0.68490742E-01  0.68377409E-01
  0.68261851E-01  0.68143773E-01  0.68022912E-01  0.67899039E-01  0.67771960E-01
  0.67641517E-01  0.67507593E-01  0.67370109E-01  0.67229024E-01  0.67084340E-01
  0.66936096E-01  0.66784373E-01  0.66629288E-01  0.66470994E-01  0.66309680E-01
  0.66145569E-01  0.65978913E-01  0.65809990E-01  0.65639105E-01  0.65466584E-01
  0.65292771E-01  0.65118024E-01  0.64942714E-01  0.64767218E-01  0.64591918E-01
  0.64417194E-01  0.64243424E-01  0.64070980E-01  0.63900218E-01  0.63731486E-01
  0.63565109E-01  0.63401392E-01  0.63240619E-01  0.63083044E-01  0.62928896E-01
  0.62778368E-01  0.62631627E-01  0.62488800E-01  0.62349984E-01  0.62215236E-01
  0.62084581E-01  0.61958004E-01  0.61835457E-01  0.61716856E-01  0.61602082E-01
  0.61490983E-01  0.61383377E-01  0.61279052E-01  0.61177770E-01  0.61079268E-01
  0.60983259E-01  0.60889442E-01  0.60797495E-01  0.60707087E-01  0.60617877E-01
  0.60529516E-01  0.60441654E-01  0.60353942E-01  0.60266034E-01  0.60177592E-01
  0.60088289E-01  0.59997812E-01  0.59905865E-01  0.59812171E-01  0.59716476E-01
  0.59618550E-01  0.59518191E-01  0.59415223E-01  0.59309501E-01  0.59200912E-01
  0.59089375E-01  0.58974840E-01  0.58857292E-01  0.58736747E-01  0.58613255E-01
 gradient corrections used for XC
           5
 core charge-density (partial)
  0.11917933E-01  0.11914190E-01  0.11902970E-01  0.11884292E-01  0.11858186E-01
  0.11824698E-01  0.11783885E-01  0.11735816E-01  0.11680574E-01  0.11618251E-01
  0.11548953E-01  0.11472797E-01  0.11389911E-01  0.11300434E-01  0.11204515E-01
  0.11102313E-01  0.10993997E-01  0.10879746E-01  0.10759747E-01  0.10634194E-01
  0.10503291E-01  0.10367248E-01  0.10226283E-01  0.10080617E-01  0.99304815E-02
  0.97761092E-02  0.96177389E-02  0.94556133E-02  0.92899783E-02  0.91210826E-02
  0.89491771E-02  0.87745147E-02  0.85973488E-02  0.84179337E-02  0.82365236E-02
  0.80533720E-02  0.78687312E-02  0.76828518E-02  0.74959823E-02  0.73083685E-02
  0.71202527E-02  0.69318737E-02  0.67434663E-02  0.65552605E-02  0.63674812E-02
  0.61803481E-02  0.59940751E-02  0.58088699E-02  0.56249337E-02  0.54424610E-02
  0.52616393E-02  0.50826486E-02  0.49056616E-02  0.47308431E-02  0.45583500E-02
  0.43883310E-02  0.42209268E-02  0.40562696E-02  0.38944833E-02  0.37356833E-02
  0.35799763E-02  0.34274608E-02  0.32782265E-02  0.31323549E-02  0.29899188E-02
  0.28509828E-02  0.27156033E-02  0.25838285E-02  0.24556984E-02  0.23312456E-02
  0.22104946E-02  0.20934625E-02  0.19801591E-02  0.18705873E-02  0.17647428E-02
  0.16626148E-02  0.15641862E-02  0.14694336E-02  0.13783277E-02  0.12908338E-02
  0.12069116E-02  0.11265159E-02  0.10495966E-02  0.97609940E-03  0.90596547E-03
  0.83913222E-03  0.77553347E-03  0.71509966E-03  0.65775825E-03  0.60343392E-03
  0.55204892E-03  0.50352328E-03  0.45777518E-03  0.41472113E-03  0.37427628E-03
  0.33635469E-03  0.30086954E-03  0.26773341E-03  0.23685851E-03  0.20815688E-03
  0.18154066E-03  0.15692224E-03  0.13421451E-03  0.11333103E-03  0.94186206E-04
  0.76695469E-04  0.60775434E-04  0.46344051E-04  0.33320744E-04  0.21626540E-04
  0.11184191E-04  0.19182810E-05 -0.62446742E-05 -0.13376138E-04 -0.19545473E-04
 -0.24819873E-04 -0.29264304E-04 -0.32941451E-04 -0.35911678E-04 -0.38232994E-04
 -0.39961032E-04 -0.41149030E-04 -0.41847824E-04 -0.42105849E-04 -0.41969140E-04
 -0.41481355E-04 -0.40683785E-04 -0.39615389E-04 -0.38312819E-04 -0.36810461E-04
 -0.35140479E-04 -0.33332856E-04 -0.31415452E-04 -0.29414054E-04 -0.27352437E-04
 -0.25252427E-04 -0.23133961E-04 -0.21015160E-04 -0.18912392E-04 -0.16840348E-04
 -0.14812110E-04 -0.12839227E-04 -0.10931787E-04 -0.90984931E-05 -0.73467371E-05
 -0.56826745E-05 -0.41112984E-05 -0.26365136E-05 -0.12612092E-05  0.12669428E-07
  0.11840504E-05  0.22526656E-05  0.32189835E-05  0.40841431E-05  0.48498901E-05
  0.55185147E-05  0.60927920E-05  0.65759246E-05  0.69714867E-05  0.72833719E-05
  0.75157425E-05  0.76729816E-05  0.77596478E-05  0.77804323E-05  0.77401191E-05
  0.76435468E-05  0.74955741E-05  0.73010468E-05  0.70647684E-05  0.67914725E-05
  0.64857976E-05  0.61522648E-05  0.57952575E-05  0.54190034E-05  0.50275590E-05
  0.46247959E-05  0.42143892E-05  0.37998082E-05  0.33843085E-05  0.29709267E-05
  0.25624754E-05  0.21615417E-05  0.17704854E-05  0.13914398E-05  0.10263137E-05
  0.67679357E-06  0.34434865E-06  0.30235327E-07 -0.26449643E-06 -0.53899629E-06
 -0.79260589E-06 -0.10248505E-05 -0.12354302E-05 -0.14242106E-05 -0.15912129E-05
 -0.17366039E-05 -0.18606859E-05 -0.19638859E-05 -0.20467454E-05 -0.21099094E-05
 -0.21541162E-05 -0.21801865E-05 -0.21890136E-05 -0.21815528E-05 -0.21588118E-05
 -0.21218407E-05 -0.20717232E-05 -0.20095673E-05 -0.19364966E-05 -0.18536428E-05
 -0.17621372E-05 -0.16631039E-05 -0.15576529E-05 -0.14468739E-05 -0.13318300E-05
 -0.12135531E-05 -0.10930385E-05 -0.97124084E-06 -0.84907016E-06 -0.72738860E-06
 -0.60700752E-06 -0.48868512E-06 -0.37312449E-06 -0.26097215E-06 -0.15281701E-06
 -0.49189676E-07  0.49437758E-07  0.14265159E-06  0.23009602E-06  0.31147238E-06
  0.38653795E-06  0.45510460E-06  0.51703710E-06  0.57225122E-06  0.62071162E-06
  0.66242948E-06  0.69746010E-06  0.72590021E-06  0.74788526E-06  0.76358656E-06
  0.77320835E-06  0.77698487E-06  0.77517728E-06  0.76807067E-06  0.75597107E-06
  0.73920239E-06  0.71810348E-06  0.69302524E-06  0.66432777E-06  0.63237761E-06
  0.59754507E-06  0.56020169E-06  0.52071783E-06  0.47946027E-06  0.43679013E-06
  0.39306078E-06  0.34861594E-06  0.30378794E-06  0.25889618E-06  0.21424560E-06
  0.17012550E-06  0.12680835E-06  0.84548861E-07  0.43583154E-07  0.41281265E-08
 -0.33619068E-07 -0.69481375E-07 -0.10330206E-06 -0.13494479E-06 -0.16429359E-06
 -0.19125265E-06 -0.21574606E-06 -0.23771740E-06 -0.25712923E-06 -0.27396249E-06
 -0.28821583E-06 -0.29990480E-06 -0.30906105E-06 -0.31573143E-06 -0.31997699E-06
 -0.32187201E-06 -0.32150295E-06 -0.31896737E-06 -0.31437285E-06 -0.30783583E-06
 -0.29948054E-06 -0.28943786E-06 -0.27784421E-06 -0.26484043E-06 -0.25057070E-06
 -0.23518151E-06 -0.21882061E-06 -0.20163598E-06 -0.18377494E-06 -0.16538321E-06
 -0.14660402E-06 -0.12757736E-06 -0.10843916E-06 -0.89320608E-07 -0.70347520E-07
 -0.51639738E-07 -0.33310615E-07 -0.15466547E-07  0.17934261E-08  0.18377958E-07
  0.34203675E-07  0.49195390E-07  0.63286263E-07  0.76417895E-07  0.88540375E-07
  0.99612264E-07  0.10960053E-06  0.11848044E-06  0.12623538E-06  0.13285666E-06
  0.13834330E-06  0.14270165E-06  0.14594518E-06  0.14809405E-06  0.14917475E-06
  0.14921970E-06  0.14826682E-06  0.14635907E-06  0.14354400E-06  0.13987328E-06
  0.13540219E-06  0.13018920E-06  0.12429539E-06  0.11778404E-06  0.11072013E-06
  0.10316982E-06  0.95200070E-07  0.86878095E-07  0.78270993E-07  0.69445295E-07
  0.60466570E-07  0.51399041E-07  0.42305224E-07  0.33245595E-07  0.24278275E-07
  0.15458747E-07  0.68395931E-08 -0.15297337E-08 -0.96031156E-08 -0.17337946E-07
 -0.24695276E-07 -0.31639938E-07 -0.38140634E-07 -0.44170002E-07 -0.49704653E-07
 -0.54725187E-07 -0.59216172E-07 -0.63166113E-07 -0.66567387E-07 -0.69416162E-07
 -0.71712290E-07 -0.73459186E-07 -0.74663684E-07 -0.75335883E-07 -0.75488968E-07
 -0.75139025E-07 -0.74304844E-07 -0.73007711E-07 -0.71271185E-07 -0.69120877E-07
 -0.66584221E-07 -0.63690239E-07 -0.60469302E-07 -0.56952897E-07 -0.53173392E-07
 -0.49163798E-07 -0.44957539E-07 -0.40588233E-07 -0.36089464E-07 -0.31494577E-07
 -0.26836471E-07 -0.22147405E-07 -0.17458815E-07 -0.12801140E-07 -0.82036605E-08
 -0.36943515E-08  0.70025603E-09  0.49551964E-08  0.90471787E-08  0.12954682E-07
  0.16658035E-07  0.20139486E-07  0.23383254E-07  0.26375567E-07  0.29104686E-07
  0.31560923E-07  0.33736631E-07  0.35626195E-07  0.37226006E-07  0.38534416E-07
  0.39551700E-07  0.40279984E-07  0.40723185E-07  0.40886926E-07  0.40778451E-07
  0.40406533E-07  0.39781367E-07  0.38914470E-07  0.37818561E-07  0.36507453E-07
  0.34995926E-07  0.33299607E-07  0.31434850E-07  0.29418606E-07  0.27268299E-07
  0.25001706E-07  0.22636827E-07  0.20191774E-07  0.17684643E-07  0.15133407E-07
  0.12555805E-07  0.99692336E-08  0.73906486E-08  0.48364706E-08  0.23224961E-08
 -0.13618458E-09 -0.25252625E-08 -0.48312786E-08 -0.70416845E-08 -0.91448959E-08
 -0.11130339E-07 -0.12988489E-07 -0.14710901E-07 -0.16290231E-07 -0.17720254E-07
 -0.18995873E-07 -0.20113115E-07 -0.21069131E-07 -0.21862178E-07 -0.22491602E-07
 -0.22957812E-07 -0.23262246E-07 -0.23407337E-07 -0.23396467E-07 -0.23233922E-07
 -0.22924840E-07 -0.22475153E-07 -0.21891532E-07 -0.21181320E-07 -0.20352474E-07
 -0.19413489E-07 -0.18373340E-07 -0.17241403E-07 -0.16027393E-07 -0.14741288E-07
 -0.13393261E-07 -0.11993611E-07 -0.10552693E-07 -0.90808538E-08 -0.75883637E-08
 -0.60853555E-08 -0.45817638E-08 -0.30872671E-08 -0.16112337E-08 -0.16267042E-09
  0.12498247E-08  0.26181061E-08  0.39345207E-08  0.51919430E-08  0.63838069E-08
  0.75041322E-08  0.85475479E-08  0.95093101E-08  0.10385316E-07  0.11172113E-07
  0.11866905E-07  0.12467553E-07  0.12972569E-07  0.13381114E-07  0.13692984E-07
  0.13908595E-07  0.14028965E-07  0.14055693E-07  0.13990934E-07  0.13837373E-07
  0.13598190E-07  0.13277034E-07  0.12877984E-07  0.12405514E-07  0.11864454E-07
  0.11259953E-07  0.10597436E-07  0.98825636E-08  0.91211921E-08  0.83193297E-08
  0.74830962E-08  0.66186807E-08  0.57323017E-08  0.48301665E-08  0.39184326E-08
  0.30031700E-08  0.20903250E-08  0.11856857E-08  0.29484901E-09 -0.57680966E-09
 -0.14241653E-08 -0.22423694E-08 -0.30268743E-08 -0.37734545E-08 -0.44782255E-08
 -0.51376605E-08 -0.57486041E-08 -0.63082832E-08 -0.68143158E-08 -0.72647168E-08
 -0.76579008E-08 -0.79926832E-08 -0.82682778E-08 -0.84842932E-08 -0.86407251E-08
 -0.87379482E-08 -0.87767043E-08 -0.87580896E-08 -0.86835395E-08 -0.85548115E-08
 -0.83739669E-08 -0.81433507E-08 -0.78655703E-08 -0.75434731E-08 -0.71801231E-08
 -0.67787763E-08 -0.63428563E-08 -0.58759283E-08 -0.53816741E-08 -0.48638656E-08
 -0.43263393E-08 -0.37729706E-08 -0.32076485E-08 -0.26342505E-08 -0.20566190E-08
 -0.14785373E-08 -0.90370713E-09 -0.33572747E-09  0.22192615E-09  0.76592077E-09
  0.12930838E-08  0.18004194E-08  0.22851238E-08  0.27445982E-08  0.31764612E-08
  0.35785586E-08  0.39489722E-08  0.42860266E-08  0.45882948E-08  0.48546013E-08
  0.50840242E-08  0.52758957E-08  0.54298006E-08  0.55455733E-08  0.56232938E-08
  0.56632817E-08  0.56660890E-08  0.56324915E-08  0.55634796E-08  0.54602467E-08
  0.53241781E-08  0.51568375E-08  0.49599539E-08  0.47354068E-08  0.44852113E-08
  0.42115026E-08  0.39165197E-08  0.36025895E-08  0.32721100E-08  0.29275337E-08
  0.25713513E-08  0.22060746E-08  0.18342210E-08  0.14582968E-08  0.10807820E-08
  0.70411525E-09  0.33067925E-09 -0.37213174E-10 -0.39733207E-09 -0.74754278E-09
 -0.10858174E-08 -0.14102453E-08 -0.17190428E-08 -0.20105619E-08 -0.22832977E-08
 -0.25358951E-08 -0.27671541E-08 -0.29760345E-08 -0.31616587E-08 -0.33233145E-08
 -0.34604559E-08 -0.35727032E-08 -0.36598420E-08 -0.37218213E-08 -0.37587505E-08
 -0.37708954E-08 -0.37586737E-08 -0.37226488E-08 -0.36635236E-08 -0.35821335E-08
 -0.34794380E-08 -0.33565128E-08 -0.32145399E-08 -0.30547989E-08 -0.28786565E-08
 -0.26875561E-08 -0.24830076E-08 -0.22665762E-08 -0.20398717E-08 -0.18045371E-08
 -0.15622382E-08 -0.13146520E-08 -0.10634566E-08 -0.81031998E-09 -0.55688999E-09
 -0.30478439E-09 -0.55581151E-10  0.18919067E-09  0.42805962E-09  0.65962004E-09
  0.88253958E-09  0.10955662E-08  0.12975347E-08  0.14873718E-08  0.16641021E-08
  0.18268513E-08  0.19748506E-08  0.21074390E-08  0.22240658E-08  0.23242915E-08
  0.24077889E-08  0.24743429E-08  0.25238496E-08  0.25563148E-08  0.25718523E-08
  0.25706807E-08  0.25531201E-08  0.25195887E-08  0.24705973E-08  0.24067456E-08
  0.23287157E-08  0.22372669E-08  0.21332291E-08  0.20174964E-08  0.18910206E-08
  0.17548036E-08  0.16098903E-08  0.14573615E-08  0.12983261E-08  0.11339139E-08
  0.96526790E-09  0.79353678E-09  0.61986779E-09  0.44539943E-09  0.27125444E-09
  0.98533055E-10 -0.71693556E-10 -0.23838947E-09 -0.40055989E-09 -0.55725671E-09
 -0.70758357E-09 -0.85070062E-09 -0.98582874E-09 -0.11122534E-08 -0.12293279E-08
 -0.13364764E-08 -0.14331960E-08 -0.15190589E-08 -0.15937135E-08 -0.16568854E-08
 -0.17083777E-08 -0.17480708E-08 -0.17759219E-08 -0.17919637E-08 -0.17963032E-08
 -0.17891192E-08 -0.17706605E-08 -0.17412426E-08 -0.17012447E-08 -0.16511064E-08
 -0.15913234E-08 -0.15224439E-08 -0.14450639E-08 -0.13598227E-08 -0.12673982E-08
 -0.11685018E-08 -0.10638735E-08 -0.95427650E-09 -0.84049229E-09 -0.72331525E-09
 -0.60354743E-09 -0.48199337E-09 -0.35945503E-09 -0.23672675E-09 -0.11459040E-09
  0.61893363E-11  0.12486948E-09  0.24073307E-09  0.35309320E-09  0.46129685E-09
  0.56472843E-09  0.66281299E-09  0.75501915E-09  0.84086172E-09  0.91990396E-09
  0.99175948E-09  0.10560939E-08  0.11126259E-08  0.11611284E-08  0.12014286E-08
  0.12334087E-08  0.12570054E-08  0.12722093E-08  0.12790643E-08  0.12776662E-08
  0.12681615E-08  0.12507454E-08  0.12256597E-08  0.11931909E-08  0.11536671E-08
  0.11074557E-08  0.10549602E-08  0.99661717E-09  0.93289279E-09  0.86427965E-09
  0.79129305E-09  0.71446744E-09  0.63435274E-09  0.55151063E-09  0.46651078E-09
  0.37992719E-09  0.29233447E-09  0.20430421E-09  0.11640147E-09  0.29181271E-10
 -0.56814673E-10 -0.14106119E-09 -0.22305268E-09 -0.30230596E-09 -0.37836296E-09
 -0.45079320E-09 -0.51919604E-09 -0.58320275E-09 -0.64247825E-09 -0.69672278E-09
 -0.74567311E-09 -0.78910369E-09 -0.82682743E-09 -0.85869626E-09 -0.88460146E-09
 -0.90447370E-09 -0.91828283E-09 -0.92603749E-09 -0.92778440E-09 -0.92360749E-09
 -0.91362674E-09 -0.89799692E-09 -0.87690598E-09 -0.85057343E-09 -0.81924840E-09
 -0.78320761E-09 -0.74275325E-09 -0.69821059E-09 -0.64992565E-09 -0.59826266E-09
 -0.54360146E-09 -0.48633493E-09 -0.42686625E-09 -0.36560623E-09 -0.30297063E-09
 -0.23937740E-09 -0.17524409E-09 -0.11098517E-09 -0.47009517E-10  0.16282117E-10
  0.78499466E-10  0.13926506E-09  0.19821640E-09  0.25500802E-09  0.30931337E-09
  0.36082661E-09  0.40926421E-09  0.45436638E-09  0.49589836E-09  0.53365150E-09
  0.56744417E-09  0.59712252E-09  0.62256100E-09  0.64366272E-09  0.66035964E-09
  0.67261255E-09  0.68041088E-09  0.68377234E-09  0.68274238E-09  0.67739346E-09
  0.66782425E-09  0.65415853E-09  0.63654412E-09  0.61515151E-09  0.59017251E-09
  0.56181869E-09  0.53031976E-09  0.49592186E-09  0.45888576E-09  0.41948500E-09
  0.37800397E-09  0.33473600E-09  0.28998131E-09  0.24404511E-09  0.19723551E-09
  0.14986161E-09  0.10223152E-09  0.54650395E-10  0.74186355E-11 -0.39169997E-10
 -0.84830105E-10 -0.12928633E-09 -0.17227494E-09 -0.21354532E-09 -0.25286135E-09
 -0.29000269E-09 -0.32476593E-09 -0.35696563E-09 -0.38643520E-09 -0.41302772E-09
 -0.43661653E-09 -0.45709577E-09 -0.47438073E-09 -0.48840806E-09 -0.49913590E-09
 -0.50654381E-09 -0.51063257E-09 -0.51142390E-09 -0.50896004E-09 -0.50330312E-09
 -0.49453454E-09 -0.48275419E-09 -0.46807951E-09 -0.45064453E-09 -0.43059878E-09
 -0.40810616E-09 -0.38334364E-09 -0.35650002E-09 -0.32777455E-09 -0.29737552E-09
 -0.26551883E-09 -0.23242654E-09 -0.19832536E-09 -0.16344516E-09 -0.12801751E-09
 -0.92274148E-10 -0.56445571E-10 -0.20759567E-10  0.14560166E-10  0.49295373E-10
  0.83234536E-10  0.11617412E-09  0.14791972E-09  0.17828719E-09  0.20710363E-09
  0.23420833E-09  0.25945361E-09  0.28270556E-09  0.30384472E-09  0.32276658E-09
  0.33938209E-09  0.35361795E-09  0.36541691E-09  0.37473786E-09  0.38155588E-09
  0.38586219E-09  0.38766399E-09  0.38698415E-09  0.38386088E-09  0.37834730E-09
  0.37051087E-09  0.36043278E-09  0.34820724E-09  0.33394073E-09  0.31775117E-09
  0.29976699E-09  0.28012618E-09  0.25897534E-09  0.23646859E-09  0.21276652E-09
  0.18803509E-09  0.16244450E-09  0.13616809E-09  0.10938119E-09  0.82259986E-10
  0.54980400E-10  0.27716999E-10  0.64190703E-12 -0.26076246E-10 -0.52273337E-10
 -0.77790721E-10 -0.10247616E-09 -0.12618468E-09 -0.14877942E-09 -0.17013234E-09
 -0.19012494E-09 -0.20864889E-09 -0.22560654E-09 -0.24091140E-09 -0.25448856E-09
 -0.26627501E-09 -0.27621983E-09 -0.28428441E-09 -0.29044250E-09 -0.29468021E-09
 -0.29699594E-09 -0.29740026E-09 -0.29591561E-09 -0.29257607E-09 -0.28742698E-09
 -0.28052448E-09 -0.27193505E-09 -0.26173491E-09 -0.25000948E-09 -0.23685266E-09
 -0.22236618E-09 -0.20665879E-09 -0.18984558E-09 -0.17204709E-09 -0.15338851E-09
 -0.13399886E-09 -0.11401006E-09 -0.93556155E-10 -0.72772363E-10 -0.51794250E-10
 -0.30756866E-10 -0.97938965E-11  0.10963156E-10  0.31385773E-10  0.51349191E-10
  0.70733138E-10  0.89422531E-10  0.10730813E-09  0.12428718E-09  0.14026391E-09
  0.15515011E-09  0.16886558E-09  0.18133850E-09  0.19250579E-09  0.20231341E-09
  0.21071659E-09  0.21767995E-09  0.22317766E-09  0.22719344E-09  0.22972058E-09
  0.23076180E-09  0.23032920E-09  0.22844398E-09  0.22513625E-09  0.22044472E-09
  0.21441632E-09  0.20710583E-09  0.19857542E-09  0.18889420E-09  0.17813763E-09
  0.16638704E-09  0.15372902E-09  0.14025477E-09  0.12605954E-09  0.11124191E-09
  0.95903196E-10  0.80146715E-10  0.64077153E-10  0.47799875E-10  0.31420253E-10
  0.15043005E-10 -0.12284541E-11 -0.17292651E-10 -0.33050666E-10 -0.48406723E-10
 -0.63268755E-10 -0.77548940E-10 -0.91164196E-10 -0.10403665E-09 -0.11609406E-09
 -0.12727021E-09 -0.13750524E-09 -0.14674595E-09 -0.15494607E-09 -0.16206642E-09
 -0.16807515E-09 -0.17294775E-09 -0.17666720E-09 -0.17922396E-09 -0.18061591E-09
 -0.18084832E-09 -0.17993369E-09 -0.17789161E-09 -0.17474853E-09 -0.17053752E-09
 -0.16529801E-09 -0.15907540E-09 -0.15192078E-09 -0.14389046E-09 -0.13504564E-09
 kinetic energy density (partial)
  0.58247555E+01  0.58229316E+01  0.58174628E+01  0.58083586E+01  0.57956344E+01
  0.57793118E+01  0.57594187E+01  0.57359887E+01  0.57090616E+01  0.56786828E+01
  0.56449035E+01  0.56077804E+01  0.55673758E+01  0.55237571E+01  0.54769968E+01
  0.54271723E+01  0.53743658E+01  0.53186637E+01  0.52601570E+01  0.51989406E+01
  0.51351130E+01  0.50687767E+01  0.50000370E+01  0.49290025E+01  0.48557846E+01
  0.47804970E+01  0.47032558E+01  0.46241789E+01  0.45433860E+01  0.44609981E+01
  0.43771373E+01  0.42919264E+01  0.42054890E+01  0.41179488E+01  0.40294295E+01
  0.39400545E+01  0.38499466E+01  0.37592281E+01  0.36680198E+01  0.35764416E+01
  0.34846115E+01  0.33926459E+01  0.33006592E+01  0.32087636E+01  0.31170689E+01
  0.30256822E+01  0.29347077E+01  0.28442470E+01  0.27543983E+01  0.26652564E+01
  0.25769131E+01  0.24894563E+01  0.24029704E+01  0.23175360E+01  0.22332298E+01
  0.21501246E+01  0.20682894E+01  0.19877889E+01  0.19086837E+01  0.18310306E+01
  0.17548819E+01  0.16802860E+01  0.16072869E+01  0.15359248E+01  0.14662356E+01
  0.13982512E+01  0.13319994E+01  0.12675040E+01  0.12047852E+01  0.11438590E+01
  0.10847378E+01  0.10274304E+01  0.97194200E+00  0.91827420E+00  0.86642537E+00
  0.81639061E+00  0.76816187E+00  0.72172810E+00  0.67707538E+00  0.63418702E+00
  0.59304373E+00  0.55362372E+00  0.51590289E+00  0.47985489E+00  0.44545136E+00
  0.41266198E+00  0.38145466E+00  0.35179570E+00  0.32364986E+00  0.29698059E+00
  0.27175009E+00  0.24791949E+00  0.22544899E+00  0.20429795E+00  0.18442506E+00
  0.16578846E+00  0.14834585E+00  0.13205461E+00  0.11687192E+00  0.10275489E+00
  0.89660618E-01  0.77546358E-01  0.66369565E-01  0.56088015E-01  0.46659883E-01
  0.38043837E-01  0.30199107E-01  0.23085567E-01  0.16663797E-01  0.10895153E-01
  0.57418249E-02  0.11668863E-02 -0.28656515E-02 -0.63907974E-02 -0.94425413E-02
 -0.12053819E-01 -0.14256482E-01 -0.16081274E-01 -0.17557806E-01 -0.18714545E-01
 -0.19578798E-01 -0.20176703E-01 -0.20533227E-01 -0.20672164E-01 -0.20616137E-01
 -0.20386607E-01 -0.20003877E-01 -0.19487109E-01 -0.18854338E-01 -0.18122489E-01
 -0.17307398E-01 -0.16423834E-01 -0.15485524E-01 -0.14505180E-01 -0.13494526E-01
 -0.12464331E-01 -0.11424438E-01 -0.10383794E-01 -0.93504900E-02 -0.83317896E-02
 -0.73341670E-02 -0.63633422E-02 -0.54243167E-02 -0.45214103E-02 -0.36582973E-02
 -0.28380432E-02 -0.20631407E-02 -0.13355459E-02 -0.65671418E-03 -0.27635183E-04
  0.55113260E-03  0.10794278E-02  0.15574530E-02  0.19857425E-02  0.23651308E-02
  0.26967222E-02  0.29818612E-02  0.32221047E-02  0.34191942E-02  0.35750301E-02
  0.36916469E-02  0.37711894E-02  0.38158905E-02  0.38280501E-02  0.38100151E-02
  0.37641610E-02  0.36928746E-02  0.35985378E-02  0.34835128E-02  0.33501287E-02
  0.32006690E-02  0.30373605E-02  0.28623630E-02  0.26777607E-02  0.24855544E-02
  0.22876543E-02  0.20858749E-02  0.18819297E-02  0.16774276E-02  0.14738699E-02
  0.12726482E-02  0.10750432E-02  0.88222382E-03  0.69524781E-03  0.51506220E-03
  0.34250482E-03  0.17830627E-03  0.23092384E-04 -0.12261282E-03 -0.25838380E-03
 -0.38388976E-03 -0.49889058E-03 -0.60323251E-03 -0.69684357E-03 -0.77972879E-03
 -0.85196526E-03 -0.91369708E-03 -0.96513023E-03 -0.10065273E-02 -0.10382025E-02
 -0.10605161E-02 -0.10738696E-02 -0.10787004E-02 -0.10754770E-02 -0.10646939E-02
 -0.10468670E-02 -0.10225291E-02 -0.99222517E-03 -0.95650836E-03 -0.91593591E-03
 -0.87106532E-03 -0.82245074E-03 -0.77063966E-03 -0.71616969E-03 -0.65956577E-03
 -0.60133742E-03 -0.54197646E-03 -0.48195474E-03 -0.42172231E-03 -0.36170573E-03
 -0.30230663E-03 -0.24390051E-03 -0.18683579E-03 -0.13143305E-03 -0.77984493E-04
 -0.26753619E-04  0.22024920E-04  0.68145270E-04  0.11143015E-03  0.15173046E-03
  0.18892475E-03  0.22291854E-03  0.25364348E-03  0.28105645E-03  0.30513851E-03
  0.32589376E-03  0.34334813E-03  0.35754808E-03  0.36855928E-03  0.37646516E-03
  0.38136551E-03  0.38337500E-03  0.38262172E-03  0.37924564E-03  0.37339715E-03
  0.36523558E-03  0.35492774E-03  0.34264644E-03  0.32856917E-03  0.31287665E-03
  0.29575155E-03  0.27737726E-03  0.25793661E-03  0.23761078E-03  0.21657820E-03
  0.19501356E-03  0.17308681E-03  0.15096236E-03  0.12879827E-03  0.10674552E-03
  0.84947377E-04  0.63538856E-04  0.42646220E-04  0.22386584E-04  0.28675821E-05
 -0.15812886E-04 -0.33566835E-04 -0.50316310E-04 -0.65993432E-04 -0.80540373E-04
 -0.93909279E-04 -0.10606213E-03 -0.11697055E-03 -0.12661554E-03 -0.13498721E-03
 -0.14208443E-03 -0.14791446E-03 -0.15249252E-03 -0.15584136E-03 -0.15799078E-03
 -0.15897717E-03 -0.15884293E-03 -0.15763599E-03 -0.15540925E-03 -0.15222003E-03
 -0.14812955E-03 -0.14320230E-03 -0.13750556E-03 -0.13110884E-03 -0.12408331E-03
 -0.11650130E-03 -0.10843582E-03 -0.99959997E-04 -0.91146663E-04 -0.82067878E-04
 -0.72794503E-04 -0.63395804E-04 -0.53939066E-04 -0.44489253E-04 -0.35108682E-04
 -0.25856733E-04 -0.16789591E-04 -0.79600109E-05  0.58287675E-06  0.87937392E-05
  0.16631178E-04  0.24057839E-04  0.31040491E-04  0.37550073E-04  0.43561723E-04
  0.49054767E-04  0.54012691E-04  0.58423085E-04  0.62277563E-04  0.65571665E-04
  0.68304730E-04  0.70479761E-04  0.72103260E-04  0.73185062E-04  0.73738139E-04
  0.73778404E-04  0.73324497E-04  0.72397565E-04  0.71021035E-04  0.69220379E-04
  0.67022875E-04  0.64457369E-04  0.61554034E-04  0.58344126E-04  0.54859749E-04
  0.51133618E-04  0.47198829E-04  0.43088637E-04  0.38836235E-04  0.34474547E-04
  0.30036030E-04  0.25552481E-04  0.21054861E-04  0.16573128E-04  0.12136080E-04
  0.77712160E-05  0.35046049E-05 -0.63922913E-06 -0.46374080E-05 -0.84687878E-05
 -0.12114033E-04 -0.15555674E-04 -0.18778159E-04 -0.21767879E-04 -0.24513194E-04
 -0.27004433E-04 -0.29233896E-04 -0.31195826E-04 -0.32886387E-04 -0.34303619E-04
 -0.35447389E-04 -0.36319330E-04 -0.36922767E-04 -0.37262646E-04 -0.37345443E-04
 -0.37179074E-04 -0.36772797E-04 -0.36137107E-04 -0.35283629E-04 -0.34225009E-04
 -0.32974797E-04 -0.31547334E-04 -0.29957634E-04 -0.28221265E-04 -0.26354236E-04
 -0.24372878E-04 -0.22293730E-04 -0.20133432E-04 -0.17908607E-04 -0.15635768E-04
 -0.13331206E-04 -0.11010900E-04 -0.86904236E-05 -0.63848604E-05 -0.41087222E-05
 -0.18758761E-05  0.30052320E-06  0.24080945E-05  0.44352842E-05  0.63714138E-05
  0.82067200E-05  0.99323885E-05  0.11540580E-04  0.13024450E-04  0.14378161E-04
  0.15596889E-04  0.16676823E-04  0.17615158E-04  0.18410081E-04  0.19060754E-04
  0.19567287E-04  0.19930714E-04  0.20152951E-04  0.20236762E-04  0.20185718E-04
  0.20004143E-04  0.19697070E-04  0.19270188E-04  0.18729782E-04  0.18082680E-04
  0.17336190E-04  0.16498043E-04  0.15576330E-04  0.14579439E-04  0.13515994E-04
  0.12394795E-04  0.11224757E-04  0.10014845E-04  0.87740252E-05  0.75111987E-05
  0.62351535E-05  0.49545095E-05  0.36776691E-05  0.24127706E-05  0.11676439E-05
 -0.50229868E-07 -0.12337561E-05 -0.23762603E-05 -0.34715187E-05 -0.45137846E-05
 -0.54978114E-05 -0.64188717E-05 -0.72727726E-05 -0.80558672E-05 -0.87650624E-05
 -0.93978232E-05 -0.99521728E-05 -0.10426690E-04 -0.10820503E-04 -0.11133278E-04
 -0.11365210E-04 -0.11517003E-04 -0.11589855E-04 -0.11585433E-04 -0.11505854E-04
 -0.11353656E-04 -0.11131774E-04 -0.10843505E-04 -0.10492485E-04 -0.10082649E-04
 -0.96182026E-05 -0.91035889E-05 -0.85434510E-05 -0.79425991E-05 -0.73059749E-05
 -0.66386177E-05 -0.59456289E-05 -0.52321391E-05 -0.45032742E-05 -0.37641234E-05
 -0.30197080E-05 -0.22749513E-05 -0.15346504E-05 -0.80344880E-06 -0.85811224E-07
  0.61399984E-06  0.12919459E-05  0.19442323E-05  0.25673256E-05  0.31579692E-05
  0.37131972E-05  0.42303450E-05  0.47070589E-05  0.51413028E-05  0.55313630E-05
  0.58758508E-05  0.61737027E-05  0.64241796E-05  0.66268624E-05  0.67816471E-05
  0.68887372E-05  0.69486351E-05  0.69621307E-05  0.69302899E-05  0.68544406E-05
  0.67361578E-05  0.65772477E-05  0.63797301E-05  0.61458208E-05  0.58779126E-05
  0.55785557E-05  0.52504379E-05  0.48963639E-05  0.45192353E-05  0.41220293E-05
  0.37077784E-05  0.32795499E-05  0.28404254E-05  0.23934813E-05  0.19417696E-05
  0.14882986E-05  0.10360158E-05  0.58779001E-06  0.14639572E-06 -0.28550253E-06
 -0.70536419E-06 -0.11107858E-05 -0.14995128E-05 -0.18694504E-05 -0.22186728E-05
 -0.25454314E-05 -0.28481619E-05 -0.31254892E-05 -0.33762324E-05 -0.35994070E-05
 -0.37942269E-05 -0.39601045E-05 -0.40966498E-05 -0.42036686E-05 -0.42811584E-05
 -0.43293048E-05 -0.43484753E-05 -0.43392132E-05 -0.43022298E-05 -0.42383962E-05
 -0.41487341E-05 -0.40344060E-05 -0.38967042E-05 -0.37370403E-05 -0.35569331E-05
 -0.33579966E-05 -0.31419279E-05 -0.29104945E-05 -0.26655215E-05 -0.24088786E-05
 -0.21424677E-05 -0.18682100E-05 -0.15880331E-05 -0.13038594E-05 -0.10175934E-05
 -0.73111050E-06 -0.44624577E-06 -0.16478308E-06  0.11155483E-06  0.38111590E-06
  0.64232765E-06  0.89370528E-06  0.11338591E-05  0.13615013E-05  0.15754516E-05
  0.17746427E-05  0.19581239E-05  0.21250655E-05  0.22747604E-05  0.24066264E-05
  0.25202073E-05  0.26151725E-05  0.26913168E-05  0.27485590E-05  0.27869393E-05
  0.28066168E-05  0.28078659E-05  0.27910719E-05  0.27567265E-05  0.27054220E-05
  0.26378458E-05  0.25547738E-05  0.24570638E-05  0.23456482E-05  0.22215264E-05
  0.20857575E-05  0.19394521E-05  0.17837640E-05  0.16198826E-05  0.14490240E-05
  0.12724231E-05  0.10913256E-05  0.90697940E-06  0.72062725E-06  0.53349862E-06
  0.34680241E-06  0.16171972E-06 -0.20603030E-07 -0.19906060E-06 -0.37259504E-06
 -0.54020140E-06 -0.70093295E-06 -0.85390597E-06 -0.99830400E-06 -0.11333816E-05
 -0.12584678E-05 -0.13729683E-05 -0.14763682E-05 -0.15682333E-05 -0.16482116E-05
 -0.17160330E-05 -0.17715104E-05 -0.18145384E-05 -0.18450927E-05 -0.18632285E-05
 -0.18690787E-05 -0.18628511E-05 -0.18448262E-05 -0.18153533E-05 -0.17748475E-05
 -0.17237855E-05 -0.16627013E-05 -0.15921819E-05 -0.15128623E-05 -0.14254208E-05
 -0.13305739E-05 -0.12290705E-05 -0.11216872E-05 -0.10092226E-05 -0.89249170E-06
 -0.77232061E-06 -0.64954110E-06 -0.52498519E-06 -0.39947998E-06 -0.27384245E-06
 -0.14887458E-06 -0.25358559E-07  0.95947769E-07  0.21431519E-06  0.32904718E-06
  0.43948363E-06  0.54500434E-06  0.64503214E-06  0.73903569E-06  0.82653199E-06
  0.90708842E-06  0.98032459E-06  0.10459137E-05  0.11035835E-05  0.11531171E-05
  0.11943533E-05  0.12271863E-05  0.12515656E-05  0.12674952E-05  0.12750324E-05
  0.12742866E-05  0.12654175E-05  0.12486334E-05  0.12241886E-05  0.11923812E-05
  0.11535504E-05  0.11080733E-05  0.10563624E-05  0.99886157E-06  0.93604346E-06
  0.86840541E-06  0.79646610E-06  0.72076186E-06  0.64184297E-06  0.56026989E-06
  0.47660961E-06  0.39143188E-06  0.30530565E-06  0.21879544E-06  0.13245791E-06
  0.46838444E-07 -0.37532016E-07 -0.12014010E-06 -0.20049290E-06 -0.27812073E-06
 -0.35257960E-06 -0.42345364E-06 -0.49035712E-06 -0.55293640E-06 -0.61087154E-06
 -0.66387774E-06 -0.71170646E-06 -0.75414638E-06 -0.79102404E-06 -0.82220424E-06
 -0.84759023E-06 -0.86712366E-06 -0.88078418E-06 -0.88858898E-06 -0.89059196E-06
 -0.88688277E-06 -0.87758558E-06 -0.86285772E-06 -0.84288809E-06 -0.81789541E-06
 -0.78812631E-06 -0.75385330E-06 -0.71537262E-06 -0.67300190E-06 -0.62707783E-06
 -0.57795371E-06 -0.52599690E-06 -0.47158628E-06 -0.41510969E-06 -0.35696127E-06
 -0.29753895E-06 -0.23724180E-06 -0.17646753E-06 -0.11561003E-06 -0.55056926E-07
  0.48127484E-08  0.63630781E-07  0.12104192E-06  0.17670589E-06  0.23029928E-06
  0.28151728E-06  0.33007528E-06  0.37571036E-06  0.41818252E-06  0.45727581E-06
  0.49279935E-06  0.52458799E-06  0.55250302E-06  0.57643254E-06  0.59629172E-06
  0.61202290E-06  0.62359545E-06  0.63100557E-06  0.63427580E-06  0.63345449E-06
  0.62861501E-06  0.61985493E-06  0.60729496E-06  0.59107780E-06  0.57136691E-06
  0.54834510E-06  0.52221308E-06  0.49318788E-06  0.46150124E-06  0.42739790E-06
  0.39113380E-06  0.35297436E-06  0.31319259E-06  0.27206728E-06  0.22988114E-06
  0.18691895E-06  0.14346573E-06  0.99804963E-07  0.56216822E-07  0.12976453E-07
 -0.29647666E-07 -0.71395308E-07 -0.11201600E-06 -0.15127046E-06 -0.18893189E-06
 -0.22478721E-06 -0.25863821E-06 -0.29030252E-06 -0.31961451E-06 -0.34642610E-06
 -0.37060734E-06 -0.39204701E-06 -0.41065296E-06 -0.42635244E-06 -0.43909219E-06
 -0.44883852E-06 -0.45557717E-06 -0.45931311E-06 -0.46007020E-06 -0.45789072E-06
 -0.45283484E-06 -0.44497996E-06 -0.43441991E-06 -0.42126415E-06 -0.40563679E-06
 -0.38767561E-06 -0.36753098E-06 -0.34536466E-06 -0.32134869E-06 -0.29566408E-06
 -0.26849954E-06 -0.24005019E-06 -0.21051625E-06 -0.18010162E-06 -0.14901265E-06
 -0.11745670E-06 -0.85640883E-07 -0.53770757E-07 -0.22049029E-07  0.93256544E-08
  0.40159903E-07  0.70266718E-07  0.99466568E-07  0.12758841E-06  0.15447063E-06
  0.17996192E-06  0.20392206E-06  0.22622265E-06  0.24674774E-06  0.26539434E-06
  0.28207288E-06  0.29670761E-06  0.30923681E-06  0.31961300E-06  0.32780300E-06
  0.33378795E-06  0.33756319E-06  0.33913809E-06  0.33853575E-06  0.33579268E-06
  0.33095837E-06  0.32409474E-06  0.31527561E-06  0.30458604E-06  0.29212163E-06
  0.27798774E-06  0.26229870E-06  0.24517698E-06  0.22675223E-06  0.20716043E-06
  0.18654290E-06  0.16504532E-06  0.14281680E-06  0.12000883E-06  0.96774341E-07
  0.73266681E-07  0.49638673E-07  0.26041649E-07  0.26245182E-08 -0.20467131E-07
 -0.43091901E-07 -0.65113412E-07 -0.86401087E-07 -0.10683089E-06 -0.12628601E-06
 -0.14465748E-06 -0.16184478E-06 -0.17775631E-06 -0.19230987E-06 -0.20543299E-06
 -0.21706331E-06 -0.22714878E-06 -0.23564785E-06 -0.24252960E-06 -0.24777374E-06
 -0.25137062E-06 -0.25332112E-06 -0.25363651E-06 -0.25233819E-06 -0.24945747E-06
 -0.24503518E-06 -0.23912129E-06 -0.23177447E-06 -0.22306162E-06 -0.21305729E-06
 -0.20184310E-06 -0.18950718E-06 -0.17614346E-06 -0.16185104E-06 -0.14673347E-06
 -0.13089804E-06 -0.11445507E-06 -0.97517124E-07 -0.80198336E-07 -0.62613617E-07
 -0.44877947E-07 -0.27105639E-07 -0.94096361E-08  0.80991836E-08  0.25312676E-07
  0.42126071E-07  0.58438589E-07  0.74154014E-07  0.89181239E-07  0.10343477E-06
  0.11683517E-06  0.12930952E-06  0.14079171E-06  0.15122285E-06  0.16055146E-06
  0.16873375E-06  0.17573376E-06  0.18152348E-06  0.18608294E-06  0.18940018E-06
  0.19147127E-06  0.19230017E-06  0.19189864E-06  0.19028604E-06  0.18748909E-06
  0.18354163E-06  0.17848430E-06  0.17236418E-06  0.16523442E-06  0.15715381E-06
  0.14818635E-06  0.13840074E-06  0.12786995E-06  0.11667063E-06  0.10488262E-06
  0.92588403E-07  0.79872537E-07  0.66821097E-07  0.53521121E-07  0.40060041E-07
  0.26525130E-07  0.13002958E-07 -0.42114587E-09 -0.13663616E-07 -0.26643147E-07
 -0.39281182E-07 -0.51502363E-07 -0.63234969E-07 -0.74411313E-07 -0.84968119E-07
 -0.94846859E-07 -0.10399406E-06 -0.11236157E-06 -0.11990679E-06 -0.12659288E-06
 -0.13238890E-06 -0.13726993E-06 -0.14121716E-06 -0.14421790E-06 -0.14626562E-06
 -0.14735986E-06 -0.14750620E-06 -0.14671612E-06 -0.14500686E-06 -0.14240122E-06
 -0.13892737E-06 -0.13461857E-06 -0.12951293E-06 -0.12365309E-06 -0.11708588E-06
 -0.10986198E-06 -0.10203557E-06 -0.93663915E-07 -0.84806981E-07 -0.75527017E-07
 -0.65888137E-07 -0.55955889E-07 -0.45796827E-07 -0.35478076E-07 -0.25066906E-07
 -0.14630304E-07 -0.42345569E-08  0.60551569E-08  0.16175163E-07  0.26063671E-07
  0.35661143E-07  0.44910636E-07  0.53758129E-07  0.62152823E-07  0.70047424E-07
  0.77398391E-07  0.84166167E-07  0.90315373E-07  0.95814980E-07  0.10063845E-06
  0.10476384E-06  0.10817389E-06  0.11085608E-06  0.11280261E-06  0.11401045E-06
  0.11448123E-06  0.11422125E-06  0.11324130E-06  0.11155660E-06  0.10918661E-06
  0.10615488E-06  0.10248881E-06  0.98219505E-07  0.93381439E-07  0.88012267E-07
  0.82152519E-07  0.75845313E-07  0.69136053E-07  0.62072114E-07  0.54702519E-07
  0.47077613E-07  0.39248725E-07  0.31267837E-07  0.23187246E-07  0.15059233E-07
  0.69357322E-08 -0.11319881E-08 -0.90936442E-08 -0.16900238E-07 -0.24504353E-07
 -0.31860427E-07 -0.38925024E-07 -0.45657076E-07 -0.52018113E-07 -0.57972476E-07
 -0.63487504E-07 -0.68533705E-07 -0.73084902E-07 -0.77118357E-07 -0.80614873E-07
 -0.83558871E-07 -0.85938446E-07 -0.87745394E-07 -0.88975222E-07 -0.89627130E-07
 -0.89703969E-07 -0.89212184E-07 -0.88161726E-07 -0.86565948E-07 -0.84441482E-07
 -0.81808092E-07 -0.78688512E-07 -0.75108272E-07 -0.71095496E-07 -0.66680702E-07
 atomic pseudo charge-density
  0.50000000E+01  0.49905920E+01  0.49625297E+01  0.49162908E+01  0.48526485E+01
  0.47726391E+01  0.46775203E+01  0.45687233E+01  0.44478032E+01  0.43163885E+01
  0.41761349E+01  0.40286837E+01  0.38756263E+01  0.37184763E+01  0.35586481E+01
  0.33974423E+01  0.32360366E+01  0.30754820E+01  0.29167034E+01  0.27605022E+01
  0.26075624E+01  0.24584576E+01  0.23136596E+01  0.21735467E+01  0.20384129E+01
  0.19084767E+01  0.17838898E+01  0.16647446E+01  0.15510824E+01  0.14428999E+01
  0.13401557E+01  0.12427762E+01  0.11506608E+01  0.10636865E+01  0.98171195E+00
  0.90458151E+00  0.83212828E+00  0.76417699E+00  0.70054656E+00  0.64105228E+00
  0.58550764E+00  0.53372598E+00  0.48552187E+00  0.44071220E+00  0.39911723E+00
  0.36056131E+00  0.32487355E+00  0.29188830E+00  0.26144558E+00  0.23339135E+00
  0.20757768E+00  0.18386290E+00  0.16211167E+00  0.14219496E+00  0.12399001E+00
  0.10738023E+00  0.92255117E-01  0.78510094E-01  0.66046340E-01  0.54770619E-01
  0.44595081E-01  0.35437068E-01  0.27218897E-01  0.19867657E-01  0.13314992E-01
  0.74968918E-02  0.23534806E-02 -0.21711878E-02 -0.61293327E-02 -0.95696425E-02
 -0.12537466E-01 -0.15074997E-01 -0.17221453E-01 -0.19013243E-01 -0.20484137E-01
 -0.21665419E-01 -0.22586037E-01 -0.23272751E-01 -0.23750260E-01 -0.24041340E-01
 -0.24166964E-01 -0.24146415E-01 -0.23997401E-01 -0.23736156E-01 -0.23377541E-01
 -0.22935134E-01 -0.22421319E-01 -0.21847371E-01 -0.21223528E-01 -0.20559071E-01
 -0.19862388E-01 -0.19141040E-01 -0.18401825E-01 -0.17650830E-01 -0.16893486E-01
 -0.16134622E-01 -0.15378508E-01 -0.14628898E-01 -0.13889077E-01 -0.13161895E-01
 -0.12449804E-01 -0.11754892E-01 -0.11078916E-01 -0.10423328E-01 -0.97893046E-02
 -0.91777747E-02 -0.85894389E-02 -0.80247946E-02 -0.74841555E-02 -0.69676713E-02
 -0.64753448E-02 -0.60070491E-02 -0.55625422E-02 -0.51414813E-02 -0.47434360E-02
 -0.43678999E-02 -0.40143022E-02 -0.36820170E-02 -0.33703735E-02 -0.30786639E-02
 -0.28061514E-02 -0.25520773E-02 -0.23156672E-02 -0.20961373E-02 -0.18926989E-02
 -0.17045640E-02 -0.15309487E-02 -0.13710775E-02 -0.12241863E-02 -0.10895255E-02
 -0.96636253E-03 -0.85398382E-03 -0.75169688E-03 -0.65883177E-03 -0.57474239E-03
 -0.49880752E-03 -0.43043157E-03 -0.36904520E-03 -0.31410565E-03 -0.26509697E-03
 -0.22153001E-03 -0.18294234E-03 -0.14889795E-03 -0.11898694E-03 -0.92824957E-04
 -0.70052699E-04 -0.50335206E-04 -0.33361154E-04 -0.18842060E-04 -0.65114418E-05
  0.38760640E-05  0.12545617E-04  0.19703116E-04  0.25536157E-04  0.30215003E-04
  0.33893560E-04  0.36710351E-04  0.38789484E-04  0.40241608E-04  0.41164852E-04
  0.41645747E-04  0.41760126E-04  0.41573989E-04  0.41144351E-04  0.40520049E-04
  0.39742521E-04  0.38846542E-04  0.37860937E-04  0.36809243E-04  0.35710335E-04
  0.34579024E-04  0.33426600E-04  0.32261349E-04  0.31089020E-04  0.29913268E-04
  0.28736041E-04  0.27557948E-04  0.26378579E-04  0.25196797E-04  0.24010989E-04
  0.22819298E-04  0.21619810E-04  0.20410720E-04  0.19190472E-04  0.17957867E-04
  0.16712152E-04  0.15453086E-04  0.14180984E-04  0.12896743E-04  0.11601854E-04
  0.10298393E-04  0.89890031E-05  0.76768662E-05  0.63656585E-05  0.50595032E-05
  0.37629135E-05  0.24807308E-05  0.12180587E-05 -0.19806011E-07 -0.12274439E-05
 -0.23993842E-05 -0.35301748E-05 -0.46144522E-05 -0.56470072E-05 -0.66228492E-05
 -0.75372655E-05 -0.83858767E-05 -0.91646872E-05 -0.98701301E-05 -0.10499106E-04
 -0.11049019E-04 -0.11517798E-04 -0.11903926E-04 -0.12206449E-04 -0.12424986E-04
 -0.12559733E-04 -0.12611458E-04 -0.12581494E-04 -0.12471724E-04 -0.12284560E-04
 -0.12022921E-04 -0.11690202E-04 -0.11290245E-04 -0.10827301E-04 -0.10305988E-04
 -0.97312548E-05 -0.91083334E-05 -0.84426946E-05 -0.77400007E-05 -0.70060589E-05
 -0.62467727E-05 -0.54680947E-05 -0.46759794E-05 -0.38763376E-05 -0.30749910E-05
 -0.22776303E-05 -0.14897734E-05 -0.71672769E-06  0.36446148E-07  0.76496695E-06
  0.14643630E-05  0.21304984E-05  0.27595966E-05  0.33482598E-05  0.38934853E-05
  0.43926780E-05  0.48436591E-05  0.52446718E-05  0.55943827E-05  0.58918808E-05
  0.61366719E-05  0.63286707E-05  0.64681899E-05  0.65559257E-05  0.65929415E-05
  0.65806487E-05  0.65207850E-05  0.64153916E-05  0.62667880E-05  0.60775454E-05
  0.58504589E-05  0.55885193E-05  0.52948831E-05  0.49728434E-05  0.46257997E-05
  0.42572277E-05  0.38706504E-05  0.34696089E-05  0.30576339E-05  0.26382188E-05
  0.22147936E-05  0.17907001E-05  0.13691687E-05  0.95329688E-06  0.54602920E-06
  0.15013960E-06 -0.23178471E-06 -0.59735719E-06 -0.94440390E-06 -0.12709732E-05
 -0.15753435E-05 -0.18560289E-05 -0.21117823E-05 -0.23415974E-05 -0.25447077E-05
 -0.27205840E-05 -0.28689307E-05 -0.29896788E-05 -0.30829791E-05 -0.31491924E-05
 -0.31888793E-05 -0.32027881E-05 -0.31918419E-05 -0.31571250E-05 -0.30998675E-05
 -0.30214307E-05 -0.29232904E-05 -0.28070211E-05 -0.26742793E-05 -0.25267869E-05
 -0.23663147E-05 -0.21946660E-05 -0.20136607E-05 -0.18251196E-05 -0.16308495E-05
 -0.14326290E-05 -0.12321947E-05 -0.10312286E-05 -0.83134649E-06 -0.63408715E-06
 -0.44090249E-06 -0.25314913E-06 -0.72080844E-07  0.10115770E-06  0.26553608E-06
  0.42014209E-06  0.56418455E-06  0.69699494E-06  0.81802795E-06  0.92686092E-06
  0.10231923E-05  0.11068390E-05  0.11777330E-05  0.12359169E-05  0.12815390E-05
  0.13148469E-05  0.13361816E-05  0.13459702E-05  0.13447181E-05  0.13330018E-05
  0.13114596E-05  0.12807841E-05  0.12417133E-05  0.11950216E-05  0.11415117E-05
  0.10820059E-05  0.10173376E-05  0.94834350E-06  0.87585551E-06  0.80069362E-06
  0.72365875E-06  0.64552626E-06  0.56704000E-06  0.48890679E-06  0.41179161E-06
  0.33631328E-06  0.26304088E-06  0.19249068E-06  0.12512377E-06  0.61344357E-07
  0.14986012E-08 -0.54125860E-07 -0.10529983E-06 -0.15185187E-06 -0.19366714E-06
 -0.23068562E-06 -0.26289995E-06 -0.29035279E-06 -0.31313381E-06 -0.33137632E-06
 -0.34525357E-06 -0.35497483E-06 -0.36078130E-06 -0.36294175E-06 -0.36174820E-06
 -0.35751140E-06 -0.35055639E-06 -0.34121809E-06 -0.32983692E-06 -0.31675458E-06
 -0.30230999E-06 -0.28683541E-06 -0.27065281E-06 -0.25407048E-06 -0.23737998E-06
 -0.22085331E-06 -0.20474050E-06 -0.18926751E-06 -0.17463447E-06 -0.16101433E-06
 -0.14855181E-06 -0.13736279E-06 -0.12753402E-06 -0.11912320E-06 -0.11215938E-06
 -0.10664373E-06 -0.10255058E-06 -0.99828801E-07 -0.98403375E-07 -0.98177300E-07
 -0.99033647E-07 -0.10083783E-06 -0.10344002E-06 -0.10667772E-06 -0.11037837E-06
 -0.11436209E-06 -0.11844441E-06 -0.12243900E-06 -0.12616038E-06 -0.12942661E-06
 -0.13206179E-06 -0.13389857E-06 -0.13478041E-06 -0.13456374E-06 -0.13311993E-06
 -0.13033702E-06 -0.12612129E-06 -0.12039852E-06 -0.11311507E-06 -0.10423867E-06
 -0.93758973E-07 -0.81687829E-07 -0.68059304E-07 -0.52929441E-07 -0.36375762E-07
 -0.18496531E-07  0.59022411E-09  0.20747912E-07  0.41822785E-07  0.63645541E-07
  0.86033091E-07  0.10879049E-06  0.13171301E-06  0.15458825E-06  0.17719848E-06
  0.19932287E-06  0.22073989E-06  0.24122967E-06  0.26057632E-06  0.27857032E-06
  0.29501068E-06  0.30970720E-06  0.32248250E-06  0.33317399E-06  0.34163564E-06
  0.34773967E-06  0.35137798E-06  0.35246343E-06  0.35093092E-06  0.34673827E-06
  0.33986679E-06  0.33032177E-06  0.31813259E-06  0.30335273E-06  0.28605941E-06
  0.26635317E-06  0.24435706E-06  0.22021573E-06  0.19409426E-06  0.16617682E-06
  0.13666514E-06  0.10577682E-06  0.73743458E-07  0.40808699E-07  0.72261265E-08
 -0.26742924E-07 -0.60831628E-07 -0.94769988E-07 -0.12828718E-06 -0.16111393E-06
 -0.19298483E-06 -0.22364068E-06 -0.25283076E-06 -0.28031499E-06 -0.30586604E-06
 -0.32927136E-06 -0.35033495E-06 -0.36887915E-06 -0.38474616E-06 -0.39779944E-06
 -0.40792488E-06 -0.41503180E-06 -0.41905379E-06 -0.41994925E-06 -0.41770178E-06
 -0.41232035E-06 -0.40383924E-06 -0.39231772E-06 -0.37783965E-06 -0.36051270E-06
 -0.34046749E-06 -0.31785651E-06 -0.29285283E-06 -0.26564868E-06 -0.23645382E-06
 -0.20549382E-06 -0.17300821E-06 -0.13924843E-06 -0.10447586E-06 -0.68959559E-07
 -0.32974141E-07  0.32025135E-08  0.39291508E-07  0.75015195E-07  0.11009942E-06
  0.14427575E-06  0.17728357E-06  0.20887223E-06  0.23880298E-06  0.26685085E-06
  0.29280645E-06  0.31647753E-06  0.33769051E-06  0.35629173E-06  0.37214864E-06
  0.38515076E-06  0.39521042E-06  0.40226338E-06  0.40626921E-06  0.40721150E-06
  0.40509785E-06  0.39995967E-06  0.39185182E-06  0.38085200E-06  0.36706004E-06
  0.35059693E-06  0.33160375E-06  0.31024045E-06  0.28668440E-06  0.26112891E-06
  0.23378158E-06  0.20486258E-06  0.17460279E-06  0.14324192E-06  0.11102656E-06
  0.78208159E-07  0.45041030E-07  0.11780312E-07 -0.21320041E-07 -0.54009251E-07
 -0.86041663E-07 -0.11717863E-06 -0.14719035E-06 -0.17585757E-06 -0.20297322E-06
 -0.22834396E-06 -0.25179155E-06 -0.27315414E-06 -0.29228735E-06 -0.30906530E-06
 -0.32338136E-06 -0.33514886E-06 -0.34430157E-06 -0.35079400E-06 -0.35460158E-06
 -0.35572065E-06 -0.35416827E-06 -0.34998189E-06 -0.34321885E-06 -0.33395573E-06
 -0.32228759E-06 -0.30832698E-06 -0.29220292E-06 -0.27405973E-06 -0.25405571E-06
 -0.23236179E-06 -0.20916005E-06 -0.18464218E-06 -0.15900790E-06 -0.13246331E-06
 -0.10521920E-06 -0.77489393E-07 -0.49489026E-07 -0.21432880E-07  0.64662897E-08
  0.33999377E-07  0.60962503E-07  0.87158536E-07  0.11239853E-06  0.13650311E-06
  0.15930372E-06  0.18064381E-06  0.20037989E-06  0.21838250E-06  0.23453699E-06
  0.24874429E-06  0.26092141E-06  0.27100191E-06  0.27893620E-06  0.28469170E-06
  0.28825287E-06  0.28962109E-06  0.28881447E-06  0.28586745E-06  0.28083032E-06
  0.27376862E-06  0.26476246E-06  0.25390564E-06  0.24130482E-06  0.22707844E-06
  0.21135570E-06  0.19427540E-06  0.17598472E-06  0.15663799E-06  0.13639540E-06
  0.11542167E-06  0.93884726E-07  0.71954370E-07  0.49800933E-07  0.27593970E-07
  0.55009655E-08 -0.16313923E-07 -0.37691072E-07 -0.58476554E-07 -0.78523227E-07
 -0.97691766E-07 -0.11585161E-06 -0.13288182E-06 -0.14867187E-06 -0.16312234E-06
 -0.17614547E-06 -0.18766569E-06 -0.19761998E-06 -0.20595816E-06 -0.21264306E-06
 -0.21765064E-06 -0.22096990E-06 -0.22260280E-06 -0.22256399E-06 -0.22088054E-06
 -0.21759151E-06 -0.21274742E-06 -0.20640973E-06 -0.19865016E-06 -0.18954994E-06
 -0.17919910E-06 -0.16769556E-06 -0.15514432E-06 -0.14165646E-06 -0.12734825E-06
 -0.11234016E-06 -0.96755849E-07 -0.80721185E-07 -0.64363243E-07 -0.47809315E-07
 -0.31185940E-07 -0.14617951E-07  0.17724402E-08  0.17866530E-07  0.33549960E-07
  0.48713505E-07  0.63253813E-07  0.77074082E-07  0.90084675E-07  0.10220367E-06
  0.11335732E-06  0.12348050E-06  0.13251700E-06  0.14041981E-06  0.14715127E-06
  0.15268322E-06  0.15699700E-06  0.16008343E-06  0.16194268E-06  0.16258409E-06
  0.16202592E-06  0.16029507E-06  0.15742665E-06  0.15346361E-06  0.14845620E-06
  0.14246150E-06  0.13554283E-06  0.12776915E-06  0.11921439E-06  0.10995688E-06
  0.10007856E-06  0.89664375E-07  0.78801529E-07  0.67578792E-07  0.56085802E-07
  0.44412367E-07  0.32647790E-07  0.20880203E-07  0.91959339E-08 -0.23211085E-08
 -0.13590012E-07 -0.24533405E-07 -0.35077961E-07 -0.45154863E-07 -0.54700221E-07
 -0.63655445E-07 -0.71967567E-07 -0.79589517E-07 -0.86480345E-07 -0.92605388E-07
 -0.97936395E-07 -0.10245159E-06 -0.10613570E-06 -0.10897991E-06 -0.11098179E-06
 -0.11214515E-06 -0.11247991E-06 -0.11200184E-06 -0.11073234E-06 -0.10869813E-06
 -0.10593094E-06 -0.10246714E-06 -0.98347388E-07 -0.93616202E-07 -0.88321545E-07
 -0.82514391E-07 -0.76248268E-07 -0.69578803E-07 -0.62563260E-07 -0.55260072E-07
 -0.47728383E-07 -0.40027591E-07 -0.32216902E-07 -0.24354898E-07 -0.16499119E-07
 -0.87056653E-08 -0.10288158E-08  0.64793227E-08  0.13769146E-07  0.20793857E-07
  0.27509733E-07  0.33876374E-07  0.39856912E-07  0.45418190E-07  0.50530913E-07
  0.55169755E-07  0.59313448E-07  0.62944826E-07  0.66050847E-07  0.68622574E-07
  0.70655135E-07  0.72147646E-07  0.73103114E-07  0.73528309E-07  0.73433610E-07
  0.72832836E-07  0.71743046E-07  0.70184331E-07  0.68179584E-07  0.65754252E-07
  0.62936085E-07  0.59754872E-07  0.56242166E-07  0.52431005E-07  0.48355636E-07
  0.44051235E-07  0.39553620E-07  0.34898985E-07  0.30123622E-07  0.25263664E-07
  0.20354828E-07  0.15432173E-07  0.10529868E-07  0.56809784E-08  0.91725923E-09
 -0.37310281E-08 -0.82352874E-08 -0.12568739E-07 -0.16706557E-07 -0.20625979E-07
 -0.24306413E-07 -0.27729508E-07 -0.30879216E-07 -0.33741836E-07 -0.36306036E-07
 -0.38562856E-07 -0.40505700E-07 -0.42130304E-07 -0.43434695E-07 -0.44419131E-07
 -0.45086029E-07 -0.45439877E-07 -0.45487138E-07 -0.45236143E-07 -0.44696971E-07
 -0.43881326E-07 -0.42802401E-07 -0.41474740E-07 -0.39914096E-07 -0.38137284E-07
 -0.36162030E-07 -0.34006822E-07 -0.31690761E-07 -0.29233413E-07 -0.26654658E-07
 -0.23974551E-07 -0.21213181E-07 -0.18390537E-07 -0.15526378E-07 -0.12640112E-07
 -0.97506788E-08 -0.68764451E-08 -0.40351009E-08 -0.12435699E-08  0.14820740E-08
  0.41266809E-08  0.66760900E-08  0.91171860E-08  0.11437946E-07  0.13627476E-07
  0.15676045E-07  0.17575098E-07  0.19317274E-07  0.20896408E-07  0.22307526E-07
  0.23546836E-07  0.24611705E-07  0.25500640E-07  0.26213253E-07  0.26750223E-07
  0.27113260E-07  0.27305052E-07  0.27329217E-07  0.27190249E-07  0.26893461E-07
  0.26444925E-07  0.25851408E-07  0.25120311E-07  0.24259604E-07  0.23277761E-07
  0.22183692E-07  0.20986680E-07  0.19696316E-07  0.18322435E-07  0.16875054E-07
  0.15364307E-07  0.13800391E-07  0.12193506E-07  0.10553800E-07  0.88913146E-08
  0.72159395E-08  0.55373613E-08  0.38650200E-08  0.22080679E-08  0.57533064E-09
 -0.10247285E-08 -0.25840406E-08 -0.40949610E-08 -0.55502955E-08 -0.69433235E-08
 -0.82678188E-08 -0.95180663E-08 -0.10688877E-07 -0.11775600E-07 -0.12774129E-07
 -0.13680913E-07 -0.14492954E-07 -0.15207814E-07 -0.15823609E-07 -0.16339008E-07
 -0.16753223E-07 -0.17066009E-07 -0.17277643E-07 -0.17388920E-07 -0.17401137E-07
 -0.17316073E-07 -0.17135977E-07 -0.16863544E-07 -0.16501899E-07 -0.16054570E-07
 -0.15525466E-07 -0.14918856E-07 -0.14239335E-07 -0.13491805E-07 -0.12681442E-07
 -0.11813670E-07 -0.10894129E-07 -0.99286449E-08 -0.89232016E-08 -0.78839062E-08
 -0.68169590E-08 -0.57286216E-08 -0.46251849E-08 -0.35129372E-08 -0.23981325E-08
 -0.12869593E-08 -0.18550942E-09  0.90025205E-09  0.19645167E-08  0.30016612E-08
  0.40062758E-08  0.49731901E-08  0.58974993E-08  0.67745876E-08  0.76001512E-08
  0.83702188E-08  0.90811706E-08  0.97297560E-08  0.10313108E-07  0.10828758E-07
  0.11274643E-07  0.11649120E-07  0.11950967E-07  0.12179389E-07  0.12334020E-07
  0.12414923E-07  0.12422584E-07  0.12357908E-07  0.12222211E-07  0.12017208E-07
  0.11745001E-07  0.11408065E-07  0.11009226E-07  0.10551650E-07  0.10038810E-07
  0.94744748E-08  0.88626739E-08  0.82076771E-08  0.75139638E-08  0.67861949E-08
  0.60291819E-08  0.52478566E-08  0.44472388E-08  0.36324048E-08  0.28084547E-08
  0.19804809E-08  0.11535356E-08  0.33259958E-09 -0.47744873E-09 -0.12718630E-08
 -0.20460577E-08 -0.27956360E-08 -0.35164154E-08 -0.42044521E-08 -0.48560642E-08
 -0.54678513E-08 -0.60367141E-08 -0.65598699E-08 -0.70348669E-08 -0.74595957E-08
 -0.78322984E-08 -0.81515755E-08 -0.84163894E-08 -0.86260664E-08 -0.87802955E-08
 -0.88791250E-08 -0.89229562E-08 -0.89125353E-08 -0.88489427E-08 -0.87335802E-08
 -0.85681558E-08 -0.83546674E-08 -0.80953835E-08 -0.77928233E-08 -0.74497348E-08
 -0.70690720E-08 -0.66539706E-08 -0.62077232E-08 -0.57337536E-08 -0.52355905E-08
 -0.47168415E-08 -0.41811662E-08 -0.36322503E-08 -0.30737792E-08 -0.25094131E-08
 -0.19427619E-08 -0.13773614E-08 -0.81665079E-09 -0.26395089E-09  0.27755587E-09
  0.80484408E-09  0.13150623E-08  0.18055485E-08  0.22738432E-08  0.27177016E-08
  0.31351029E-08  0.35242580E-08  0.38836155E-08  0.42118649E-08  0.45079391E-08
  0.47710134E-08  0.50005043E-08  0.51960652E-08  0.53575809E-08  0.54851602E-08
  0.55791275E-08  0.56400123E-08  0.56685377E-08  0.56656077E-08  0.56322939E-08
  0.55698207E-08  0.54795500E-08  0.53629657E-08  0.52216569E-08  0.50573021E-08
  0.48716523E-08  0.46665146E-08  0.44437363E-08  0.42051888E-08  0.39527520E-08
  0.36883003E-08  0.34136877E-08  0.31307355E-08  0.28412196E-08  0.25468598E-08
  0.22493096E-08  0.19501477E-08  0.16508700E-08  0.13528831E-08  0.10574999E-08
  0.76593521E-09  0.47930341E-09  0.19861723E-09 -0.75212429E-10 -0.34137552E-09
   25.1333556480997      T
 Non local Part
           0           2  0.809101009264628     
   4.95117806065304        5.78043321655911        5.78043321655911     
   6.74039580541299     
 Reciprocal Space Part
  0.53611357E+02  0.53292218E+02  0.52337589E+02  0.50755826E+02  0.48560816E+02
  0.45771922E+02  0.42413897E+02  0.38516769E+02  0.34115688E+02  0.29250737E+02
  0.23966699E+02  0.18312769E+02  0.12342218E+02  0.61119970E+01 -0.31772164E+00
 -0.68840574E+01 -0.13522001E+02 -0.20165053E+02 -0.26745910E+02 -0.33197211E+02
 -0.39452313E+02 -0.45446104E+02 -0.51115834E+02 -0.56401952E+02 -0.61248931E+02
 -0.65606074E+02 -0.69428275E+02 -0.72676722E+02 -0.75319534E+02 -0.77332302E+02
 -0.78698528E+02 -0.79409953E+02 -0.79466753E+02 -0.78877603E+02 -0.77659599E+02
 -0.75838039E+02 -0.73446061E+02 -0.70524136E+02 -0.67119438E+02 -0.63285085E+02
 -0.59079268E+02 -0.54564300E+02 -0.49805569E+02 -0.44870453E+02 -0.39827191E+02
 -0.34743744E+02 -0.29686672E+02 -0.24720041E+02 -0.19904388E+02 -0.15295764E+02
 -0.10944877E+02 -0.68963499E+01 -0.31881027E+01  0.14911751E+00  0.30920606E+01
  0.56251417E+01  0.77404546E+01  0.94376309E+01  0.10723552E+02  0.11611923E+02
  0.12122718E+02  0.12281521E+02  0.12118763E+02  0.11668893E+02  0.10969492E+02
  0.10060351E+02  0.89825471E+01  0.77775222E+01  0.64861951E+01  0.51481270E+01
  0.38007521E+01  0.24786942E+01  0.12131787E+01  0.31551524E-01 -0.10430880E+01
 -0.19921365E+01 -0.28016168E+01 -0.34621917E+01 -0.39690663E+01 -0.43217848E+01
 -0.45239346E+01 -0.45827671E+01 -0.45087503E+01 -0.43150671E+01 -0.40170764E+01
 -0.36317507E+01 -0.31771083E+01 -0.26716538E+01 -0.21338418E+01 -0.15815768E+01
 -0.10317607E+01 -0.49989762E+00  0.23723823E-03  0.45685814E+00  0.86035666E+00
  0.12034154E+01  0.14810490E+01  0.16905755E+01  0.18315239E+01  0.19054826E+01
 Real Space Part
 -0.13484615E+04 -0.13474916E+04 -0.13445843E+04 -0.13397468E+04 -0.13329913E+04
 -0.13243347E+04 -0.13137986E+04 -0.13014090E+04 -0.12871967E+04 -0.12711967E+04
 -0.12534480E+04 -0.12339939E+04 -0.12128816E+04 -0.11901617E+04 -0.11658884E+04
 -0.11401194E+04 -0.11129154E+04 -0.10843398E+04 -0.10544591E+04 -0.10233420E+04
 -0.99105995E+03 -0.95768626E+03 -0.92329647E+03 -0.88796797E+03 -0.85177991E+03
 -0.81481306E+03 -0.77714974E+03 -0.73887363E+03 -0.70006975E+03 -0.66082435E+03
 -0.62122483E+03 -0.58135967E+03 -0.54131838E+03 -0.50119143E+03 -0.46107018E+03
 -0.42104685E+03 -0.38121441E+03 -0.34166658E+03 -0.30249767E+03 -0.26380257E+03
 -0.22567657E+03 -0.18821531E+03 -0.15151456E+03 -0.11567015E+03 -0.80777677E+02
 -0.46932361E+02 -0.14228761E+02  0.17239501E+02  0.47380054E+02  0.76102132E+02
  0.10331696E+03  0.12893818E+03  0.15288230E+03  0.17506920E+03  0.19542265E+03
  0.21387087E+03  0.23034710E+03  0.24479022E+03  0.25714535E+03  0.26736449E+03
  0.27540716E+03  0.28124099E+03  0.28484239E+03  0.28619706E+03  0.28530062E+03
  0.28215904E+03  0.27678914E+03  0.26921894E+03  0.25948797E+03  0.24764744E+03
  0.23376039E+03  0.21790162E+03  0.20015761E+03  0.18062622E+03  0.15941626E+03
  0.13664675E+03  0.11244432E+03  0.86947330E+02  0.60534274E+02  0.36442330E+02
  0.27135016E+02  0.17187261E+02  0.75331399E+01 -0.16299569E+01 -0.10169232E+02
 -0.17951292E+02 -0.24846481E+02 -0.30731933E+02 -0.35492215E+02 -0.39020353E+02
 -0.41219151E+02 -0.42001200E+02 -0.41290307E+02 -0.39021721E+02 -0.35142591E+02
 -0.29607021E+02 -0.22402170E+02 -0.13627919E+02 -0.21145349E+01  0.00000000E+00
 Reciprocal Space Part
 -0.40989220E+02 -0.40730674E+02 -0.39957300E+02 -0.38675879E+02 -0.36897682E+02
 -0.34638430E+02 -0.31918221E+02 -0.28761443E+02 -0.25196652E+02 -0.21256424E+02
 -0.16977164E+02 -0.12398882E+02 -0.75649160E+01 -0.25216183E+01  0.26820177E+01
  0.79947748E+01  0.13363682E+02  0.18734531E+02  0.24052446E+02  0.29262480E+02
  0.34310260E+02  0.39142649E+02  0.43708430E+02  0.47958987E+02  0.51848992E+02
  0.55337062E+02  0.58386385E+02  0.60965307E+02  0.63047849E+02  0.64614157E+02
  0.65650868E+02  0.66151376E+02  0.66116000E+02  0.65552039E+02  0.64473706E+02
  0.62901952E+02  0.60864167E+02  0.58393766E+02  0.55529672E+02  0.52315684E+02
  0.48799774E+02  0.45033288E+02  0.41070095E+02  0.36965685E+02  0.32776244E+02
  0.28557714E+02  0.24364864E+02  0.20250390E+02  0.16264064E+02  0.12451944E+02
  0.88556669E+01  0.55118358E+01  0.24515143E+01 -0.30016236E+00 -0.27242526E+01
 -0.48081459E+01 -0.65455721E+01 -0.79364833E+01 -0.89868142E+01 -0.97081280E+01
 -0.10117158E+02 -0.10235256E+02 -0.10087769E+02 -0.97033449E+01 -0.91132018E+01
 -0.83503683E+01 -0.74489134E+01 -0.64431878E+01 -0.53670898E+01 -0.42533743E+01
 -0.31330182E+01 -0.20346555E+01 -0.98409188E+00 -0.39088175E-02  0.88683902E+00
  0.16728281E+01  0.23425723E+01  0.28884319E+01  0.33065310E+01  0.35965874E+01
  0.37616660E+01  0.38078626E+01  0.37439326E+01  0.35808737E+01  0.33314785E+01
  0.30098681E+01  0.26310210E+01  0.22103090E+01  0.17630532E+01  0.13041091E+01
  0.84749287E+00  0.40605336E+00 -0.88008617E-02 -0.38731704E+00 -0.72155285E+00
 -0.10054697E+01 -0.12349658E+01 -0.14078513E+01 -0.15237703E+01 -0.15840750E+01
 Real Space Part
  0.11205075E+04  0.11197125E+04  0.11173296E+04  0.11133645E+04  0.11078270E+04
  0.11007306E+04  0.10920924E+04  0.10819335E+04  0.10702784E+04  0.10571551E+04
  0.10425949E+04  0.10266325E+04  0.10093057E+04  0.99065513E+03  0.97072442E+03
  0.94955979E+03  0.92721002E+03  0.90372630E+03  0.87916205E+03  0.85357280E+03
  0.82701607E+03  0.79955121E+03  0.77123929E+03  0.74214301E+03  0.71232657E+03
  0.68185555E+03  0.65079688E+03  0.61921874E+03  0.58719047E+03  0.55478250E+03
  0.52206633E+03  0.48911447E+03  0.45600037E+03  0.42279836E+03  0.38958367E+03
  0.35643232E+03  0.32342108E+03  0.29062744E+03  0.25812952E+03  0.22600601E+03
  0.19433607E+03  0.16319923E+03  0.13267527E+03  0.10284408E+03  0.73785508E+02
  0.45579159E+02  0.18304186E+02 -0.79609449E+01 -0.33138724E+02 -0.57152895E+02
 -0.79928785E+02 -0.10139366E+03 -0.12147711E+03 -0.14011147E+03 -0.15723227E+03
 -0.17277867E+03 -0.18669401E+03 -0.19892625E+03 -0.20942855E+03 -0.21815976E+03
 -0.22508498E+03 -0.23017608E+03 -0.23341218E+03 -0.23478021E+03 -0.23427533E+03
 -0.23190137E+03 -0.22767119E+03 -0.22160703E+03 -0.21374074E+03 -0.20411398E+03
 -0.19277827E+03 -0.17979500E+03 -0.16523534E+03 -0.14918002E+03 -0.13171895E+03
 -0.11295063E+03 -0.92979974E+02 -0.71921725E+02 -0.50089573E+02 -0.30163288E+02
 -0.22465869E+02 -0.14233632E+02 -0.62401872E+01  0.13505371E+01  0.84279849E+01
  0.14881032E+02  0.20601583E+02  0.25487116E+02  0.29441226E+02  0.32374488E+02
  0.34205562E+02  0.34861214E+02  0.34277510E+02  0.32400019E+02  0.29184194E+02
  0.24591284E+02  0.18610019E+02  0.11322835E+02  0.17570716E+01  0.00000000E+00
 Non local Part
           1           2  0.809101009264628     
   1.22338271084671        3.52552832169747        3.52552832169747     
   8.35969593299738     
 Reciprocal Space Part
  0.00000000E+00  0.11231247E+01  0.22149003E+01  0.32448658E+01  0.41843119E+01
  0.50070978E+01  0.56903973E+01  0.62153550E+01  0.65676351E+01  0.67378465E+01
  0.67218342E+01  0.65208276E+01  0.61414432E+01  0.55955397E+01  0.48999315E+01
  0.40759661E+01  0.31489782E+01  0.21476348E+01  0.11031883E+01  0.48657770E-01
 -0.98203908E+00 -0.19549816E+01 -0.28371443E+01 -0.35972750E+01 -0.42067285E+01
 -0.46402350E+01 -0.48765833E+01 -0.48991997E+01 -0.46966092E+01 -0.42627669E+01
 -0.35972512E+01 -0.27053138E+01 -0.15977873E+01 -0.29085154E+00  0.11943331E+01
  0.28321165E+01  0.45929598E+01  0.64441303E+01  0.83504730E+01  0.10275238E+02
  0.12180941E+02  0.14030239E+02  0.15786794E+02  0.17416107E+02  0.18886299E+02
  0.20168821E+02  0.21239079E+02  0.22076955E+02  0.22667216E+02  0.22999797E+02
  0.23069966E+02  0.22878347E+02  0.22430829E+02  0.21738343E+02  0.20816529E+02
  0.19685297E+02  0.18368293E+02  0.16892300E+02  0.15286563E+02  0.13582090E+02
  0.11810914E+02  0.10005362E+02  0.81973301E+01  0.64175967E+01  0.46951761E+01
  0.30567388E+01  0.15261055E+01  0.12382445E+00 -0.11331567E+01 -0.22317224E+01
 -0.31627204E+01 -0.39209921E+01 -0.45053064E+01 -0.49182010E+01 -0.51657396E+01
 -0.52571932E+01 -0.52046579E+01 -0.50226200E+01 -0.47274837E+01 -0.43370725E+01
 -0.38701209E+01 -0.33457674E+01 -0.27830644E+01 -0.22005147E+01 -0.16156474E+01
 -0.10446413E+01 -0.50200334E+00 -0.30942804E-03  0.44999045E+00  0.84069946E+00
  0.11659341E+01  0.14221189E+01  0.16079196E+01  0.17241193E+01  0.17734445E+01
  0.17603482E+01  0.16907592E+01  0.15718050E+01  0.14115195E+01  0.12185426E+01
 Real Space Part
  0.00000000E+00  0.22347392E+02  0.44592127E+02  0.66631763E+02  0.88364286E+02
  0.10968835E+03  0.13050353E+03  0.15071061E+03  0.17021186E+03  0.18891146E+03
  0.20671580E+03  0.22353396E+03  0.23927818E+03  0.25386433E+03  0.26721248E+03
  0.27924747E+03  0.28989951E+03  0.29910482E+03  0.30680621E+03  0.31295380E+03
  0.31750559E+03  0.32042810E+03  0.32169697E+03  0.32129751E+03  0.31922522E+03
  0.31548619E+03  0.31009757E+03  0.30308779E+03  0.29449682E+03  0.28437628E+03
  0.27278944E+03  0.25981116E+03  0.24552765E+03  0.23003614E+03  0.21344445E+03
  0.19587041E+03  0.17744117E+03  0.15829236E+03  0.13856718E+03  0.11841535E+03
  0.97991951E+02  0.77456178E+02  0.56969996E+02  0.36696715E+02  0.16799498E+02
 -0.25601773E+01 -0.21224118E+02 -0.39039021E+02 -0.55858106E+02 -0.71542728E+02
 -0.85963972E+02 -0.99004205E+02 -0.11055856E+03 -0.12053634E+03 -0.12886231E+03
 -0.13547791E+03 -0.14034224E+03 -0.14343294E+03 -0.14474694E+03 -0.14430083E+03
 -0.14213126E+03 -0.13829486E+03 -0.13286811E+03 -0.12594679E+03 -0.11764531E+03
 -0.10809562E+03 -0.97445999E+02 -0.85859386E+02 -0.73511606E+02 -0.60589237E+02
 -0.47287263E+02 -0.33806490E+02 -0.20350764E+02 -0.71240061E+01  0.56728914E+01
  0.17845269E+02  0.29207983E+02  0.39588700E+02  0.48831149E+02  0.56798339E+02
  0.63375620E+02  0.68473540E+02  0.72030578E+02  0.74015504E+02  0.74429432E+02
  0.73307684E+02  0.70720931E+02  0.66776390E+02  0.61618030E+02  0.55426930E+02
  0.48420528E+02  0.40852114E+02  0.33009102E+02  0.25211647E+02  0.17810102E+02
  0.11182919E+02  0.57322710E+01  0.18762774E+01  0.12337662E+00  0.00000000E+00
 Reciprocal Space Part
  0.00000000E+00 -0.65122812E+00 -0.12811568E+01 -0.18691121E+01 -0.23956539E+01
 -0.28431498E+01 -0.31963004E+01 -0.34425989E+01 -0.35727149E+01 -0.35807901E+01
 -0.34646387E+01 -0.32258460E+01 -0.28697634E+01 -0.24053984E+01 -0.18452047E+01
 -0.12047750E+01 -0.50244720E+00  0.24116691E+00  0.10037171E+01  0.17617004E+01
  0.24910818E+01  0.31679318E+01  0.37690662E+01  0.42726687E+01  0.46588820E+01
  0.49103498E+01  0.50126968E+01  0.49549339E+01  0.47297773E+01  0.43338745E+01
  0.37679300E+01  0.30367291E+01  0.21490586E+01  0.11175268E+01 -0.41712411E-01
 -0.13093225E+01 -0.26632273E+01 -0.40791191E+01 -0.55310223E+01 -0.69918939E+01
 -0.84342487E+01 -0.98307925E+01 -0.11155045E+02 -0.12381942E+02 -0.13488395E+02
 -0.14453803E+02 -0.15260493E+02 -0.15894098E+02 -0.16343838E+02 -0.16602723E+02
 -0.16667659E+02 -0.16539462E+02 -0.16222776E+02 -0.15725912E+02 -0.15060593E+02
 -0.14241630E+02 -0.13286531E+02 -0.12215058E+02 -0.11048737E+02 -0.98103398E+01
 -0.85233548E+01 -0.72114488E+01 -0.58979433E+01 -0.46053134E+01 -0.33547217E+01
 -0.21655979E+01 -0.10552733E+01 -0.38677315E-01  0.87189848E+00  0.16669651E+01
  0.23399277E+01  0.28871047E+01  0.33076757E+01  0.36035634E+01  0.37792538E+01
  0.38415620E+01  0.37993518E+01  0.36632180E+01  0.34451410E+01  0.31581236E+01
  0.28158204E+01  0.24321690E+01  0.20210335E+01  0.15958685E+01  0.11694104E+01
  0.75340524E+00  0.35837579E+00 -0.65657744E-02 -0.33385809E+00 -0.61758173E+00
 -0.85350163E+00 -0.10390618E+01 -0.11733356E+01 -0.12569341E+01 -0.12918792E+01
 -0.12814443E+01 -0.12299720E+01 -0.11426716E+01 -0.10254064E+01 -0.88447508E+00
 Real Space Part
  0.00000000E+00 -0.15627899E+02 -0.31184172E+02 -0.46597318E+02 -0.61796099E+02
 -0.76709683E+02 -0.91267799E+02 -0.10540093E+03 -0.11904049E+03 -0.13211911E+03
 -0.14457085E+03 -0.15633152E+03 -0.16733898E+03 -0.17753356E+03 -0.18685835E+03
 -0.19525973E+03 -0.20268768E+03 -0.20909634E+03 -0.21444440E+03 -0.21869563E+03
 -0.22181930E+03 -0.22379065E+03 -0.22459137E+03 -0.22420994E+03 -0.22264212E+03
 -0.21989120E+03 -0.21596835E+03 -0.21089282E+03 -0.20469215E+03 -0.19740226E+03
 -0.18906748E+03 -0.17974050E+03 -0.16948224E+03 -0.15836164E+03 -0.14645532E+03
 -0.13384720E+03 -0.12062802E+03 -0.10689474E+03 -0.92749890E+02 -0.78300810E+02
 -0.63658829E+02 -0.48938364E+02 -0.34255946E+02 -0.19729194E+02 -0.54757352E+01
  0.83879173E+01  0.21747518E+02  0.34492265E+02  0.46515980E+02  0.57718292E+02
  0.68005799E+02  0.77293198E+02  0.85504376E+02  0.92573438E+02  0.98445656E+02
  0.10307835E+03  0.10644162E+03  0.10851902E+03  0.10930807E+03  0.10882057E+03
  0.10708289E+03  0.10413592E+03  0.10003497E+03  0.94849441E+02  0.88662268E+02
  0.81569200E+02  0.73677863E+02  0.65106626E+02  0.55983261E+02  0.46443420E+02
  0.36628925E+02  0.26685893E+02  0.16762710E+02  0.70078760E+01 -0.24322550E+01
 -0.11415811E+02 -0.19807794E+02 -0.27482481E+02 -0.34325803E+02 -0.40237683E+02
 -0.45134286E+02 -0.48950095E+02 -0.51639915E+02 -0.53180603E+02 -0.53572567E+02
 -0.52841138E+02 -0.51037408E+02 -0.48239111E+02 -0.44550782E+02 -0.40104030E+02
 -0.35056996E+02 -0.29593989E+02 -0.23924238E+02 -0.18280888E+02 -0.12919154E+02
 -0.81147905E+01 -0.41609126E+01 -0.13623369E+01 -0.89633026E-01  0.00000000E+00
 PAW radial sets
         399  0.708915279022620     
(5E20.12)                                
 augmentation charges (non sperical)
 -0.121506698485E+00 -0.148151609359E+00 -0.959422877975E-02 -0.824975807859E-02 -0.148151609359E+00
 -0.180656005013E+00 -0.114074884150E-01 -0.974711338580E-02 -0.959422877975E-02 -0.114074884150E-01
  0.116078392253E+00  0.185748354025E+00 -0.824975807859E-02 -0.974711338580E-02  0.185748354025E+00
  0.295826056226E+00
 uccopancies in atom
  0.200000000022E+01  0.000000000000E+00  0.000000000000E+00  0.000000000000E+00  0.000000000000E+00
  0.000000000000E+00  0.000000000000E+00  0.000000000000E+00  0.000000000000E+00  0.000000000000E+00
  0.999999999470E+00  0.000000000000E+00  0.000000000000E+00  0.000000000000E+00  0.000000000000E+00
  0.000000000000E+00
 grid
  0.280527516333E-04  0.289225357721E-04  0.298192878340E-04  0.307438439676E-04  0.316970662468E-04
  0.326798434741E-04  0.336930920097E-04  0.347377566259E-04  0.358148113878E-04  0.369252605618E-04
  0.380701395518E-04  0.392505158649E-04  0.404674901063E-04  0.417221970061E-04  0.430158064768E-04
  0.443495247045E-04  0.457245952736E-04  0.471423003259E-04  0.486039617567E-04  0.501109424469E-04
  0.516646475341E-04  0.532665257223E-04  0.549180706334E-04  0.566208221993E-04  0.583763680979E-04
  0.601863452337E-04  0.620524412639E-04  0.639763961718E-04  0.659600038897E-04  0.680051139712E-04
  0.701136333158E-04  0.722875279473E-04  0.745288248462E-04  0.768396138405E-04  0.792220495539E-04
  0.816783534148E-04  0.842108157277E-04  0.868217978087E-04  0.895137341871E-04  0.922891348757E-04
  0.951505877110E-04  0.981007607661E-04  0.101142404838E-03  0.104278356015E-03  0.107511538316E-03
  0.110844966423E-03  0.114281748487E-03  0.117825089030E-03  0.121478291928E-03  0.125244763500E-03
  0.129128015674E-03  0.133131669268E-03  0.137259457366E-03  0.141515228795E-03  0.145902951719E-03
  0.150426717332E-03  0.155090743682E-03  0.159899379594E-03  0.164857108732E-03  0.169968553777E-03
  0.175238480738E-03  0.180671803396E-03  0.186273587883E-03  0.192049057411E-03  0.198003597136E-03
  0.204142759186E-03  0.210472267831E-03  0.216998024827E-03  0.223726114913E-03  0.230662811488E-03
  0.237814582461E-03  0.245188096279E-03  0.252790228147E-03  0.260628066437E-03  0.268708919298E-03
  0.277040321473E-03  0.285630041319E-03  0.294486088053E-03  0.303616719224E-03  0.313030448405E-03
  0.322736053137E-03  0.332742583110E-03  0.343059368603E-03  0.353696029184E-03  0.364662482677E-03
  0.375968954412E-03  0.387625986760E-03  0.399644448959E-03  0.412035547251E-03  0.424810835334E-03
  0.437982225128E-03  0.451561997889E-03  0.465562815655E-03  0.479997733055E-03  0.494880209481E-03
  0.510224121638E-03  0.526043776481E-03  0.542353924558E-03  0.559169773761E-03  0.576507003509E-03
  0.594381779364E-03  0.612810768108E-03  0.631811153281E-03  0.651400651203E-03  0.671597527497E-03
  0.692420614113E-03  0.713889326894E-03  0.736023683677E-03  0.758844322957E-03  0.782372523134E-03
  0.806630222348E-03  0.831640038941E-03  0.857425292542E-03  0.884010025812E-03  0.911419026863E-03
  0.939677852369E-03  0.968812851398E-03  0.998851189976E-03  0.102982087642E-02  0.106175078746E-02
  0.109467069516E-02  0.112861129465E-02  0.116360423281E-02  0.119968213770E-02  0.123687864907E-02
  0.127522844964E-02  0.131476729750E-02  0.135553205942E-02  0.139756074525E-02  0.144089254332E-02
  0.148556785704E-02  0.153162834252E-02  0.157911694742E-02  0.162807795104E-02  0.167855700554E-02
  0.173060117855E-02  0.178425899706E-02  0.183958049263E-02  0.189661724807E-02  0.195542244556E-02
  0.201605091616E-02  0.207855919103E-02  0.214300555407E-02  0.220945009629E-02  0.227795477185E-02
  0.234858345582E-02  0.242140200372E-02  0.249647831295E-02  0.257388238610E-02  0.265368639620E-02
  0.273596475402E-02  0.282079417747E-02  0.290825376313E-02  0.299842505997E-02  0.309139214544E-02
  0.318724170380E-02  0.328606310702E-02  0.338794849805E-02  0.349299287677E-02  0.360129418856E-02
  0.371295341562E-02  0.382807467115E-02  0.394676529639E-02  0.406913596075E-02  0.419530076495E-02
  0.432537734748E-02  0.445948699420E-02  0.459775475151E-02  0.474030954290E-02  0.488728428917E-02
  0.503881603237E-02  0.519504606359E-02  0.535612005467E-02  0.552218819408E-02  0.569340532692E-02
  0.586993109928E-02  0.605193010718E-02  0.623957204995E-02  0.643303188850E-02  0.663249000848E-02
  0.683813238844E-02  0.705015077324E-02  0.726874285286E-02  0.749411244673E-02  0.772646969374E-02
  0.796603124822E-02  0.821302048191E-02  0.846766769229E-02  0.873021031726E-02  0.900089315657E-02
  0.927996860004E-02  0.956769686293E-02  0.986434622857E-02  0.101701932985E-01  0.104855232502E-01
  0.108106301035E-01  0.111458169942E-01  0.114913964569E-01  0.118476907164E-01  0.122150319883E-01
  0.125937627887E-01  0.129842362533E-01  0.133868164670E-01  0.138018788033E-01  0.142298102742E-01
  0.146710098911E-01  0.151258890370E-01  0.155948718499E-01  0.160783956182E-01  0.165769111888E-01
  0.170908833870E-01  0.176207914503E-01  0.181671294750E-01  0.187304068773E-01  0.193111488675E-01
  0.199098969406E-01  0.205272093808E-01  0.211636617819E-01  0.218198475842E-01  0.224963786278E-01
  0.231938857233E-01  0.239130192394E-01  0.246544497100E-01  0.254188684590E-01  0.262069882449E-01
  0.270195439257E-01  0.278572931437E-01  0.287210170323E-01  0.296115209441E-01  0.305296352018E-01
  0.314762158727E-01  0.324521455667E-01  0.334583342591E-01  0.344957201394E-01  0.355652704861E-01
  0.366679825681E-01  0.378048845754E-01  0.389770365768E-01  0.401855315093E-01  0.414314961966E-01
  0.427160923999E-01  0.440405179010E-01  0.454060076197E-01  0.468138347644E-01  0.482653120201E-01
  0.497617927717E-01  0.513046723665E-01  0.528953894146E-01  0.545354271311E-01  0.562263147182E-01
  0.579696287918E-01  0.597669948511E-01  0.616200887945E-01  0.635306384819E-01  0.655004253464E-01
  0.675312860547E-01  0.696251142200E-01  0.717838621675E-01  0.740095427550E-01  0.763042312493E-01
  0.786700672619E-01  0.811092567431E-01  0.836240740397E-01  0.862168640153E-01  0.888900442366E-01
  0.916461072276E-01  0.944876227942E-01  0.974172404194E-01  0.100437691734E+00  0.103551793066E+00
  0.106762448061E+00  0.110072650395E+00  0.113485486565E+00  0.117004138763E+00  0.120631887848E+00
  0.124372116402E+00  0.128228311886E+00  0.132204069889E+00  0.136303097485E+00  0.140529216684E+00
  0.144886368000E+00  0.149378614125E+00  0.154010143714E+00  0.158785275294E+00  0.163708461288E+00
  0.168784292168E+00  0.174017500736E+00  0.179412966535E+00  0.184975720401E+00  0.190710949150E+00
  0.196624000420E+00  0.202720387652E+00  0.209005795233E+00  0.215486083798E+00  0.222167295690E+00
  0.229055660599E+00  0.236157601368E+00  0.243479739980E+00  0.251028903739E+00  0.258812131627E+00
  0.266836680875E+00  0.275110033725E+00  0.283639904409E+00  0.292434246341E+00  0.301501259532E+00
  0.310849398238E+00  0.320487378843E+00  0.330424187982E+00  0.340669090926E+00  0.351231640216E+00
  0.362121684576E+00  0.373349378090E+00  0.384925189674E+00  0.396859912833E+00  0.409164675732E+00
  0.421850951565E+00  0.434930569259E+00  0.448415724497E+00  0.462318991095E+00  0.476653332723E+00
  0.491432114994E+00  0.506669117928E+00  0.522378548794E+00  0.538575055366E+00  0.555273739575E+00
  0.572490171592E+00  0.590240404346E+00  0.608540988491E+00  0.627408987842E+00  0.646861995280E+00
  0.666918149159E+00  0.687596150219E+00  0.708915279023E+00  0.730895413931E+00  0.753557049641E+00
  0.776921316292E+00  0.801009999172E+00  0.825845559028E+00  0.851451153008E+00  0.877850656256E+00
  0.905068684171E+00  0.933130615361E+00  0.962062615304E+00  0.991891660749E+00  0.102264556487E+01
  0.105435300318E+01  0.108704354031E+01  0.112074765754E+01  0.115549678122E+01  0.119132331210E+01
  0.122826065552E+01  0.126634325257E+01  0.130560661218E+01  0.134608734425E+01  0.138782319380E+01
  0.143085307611E+01  0.147521711308E+01  0.152095667058E+01  0.156811439704E+01  0.161673426321E+01
  0.166686160321E+01  0.171854315669E+01  0.177182711255E+01  0.182676315374E+01  0.188340250367E+01
  0.194179797397E+01  0.200200401367E+01  0.206407676003E+01  0.212807409087E+01  0.219405567851E+01
  0.226208304544E+01  0.233221962168E+01  0.240453080390E+01  0.247908401643E+01  0.255594877409E+01
  0.263519674707E+01  0.271690182767E+01  0.280114019927E+01  0.288799040732E+01  0.297753343262E+01
  0.306985276680E+01  0.316503449014E+01  0.326316735191E+01  0.336434285306E+01  0.346865533154E+01
  0.357620205030E+01  0.368708328794E+01  0.380140243226E+01  0.391926607658E+01  0.404078411922E+01
  0.416606986592E+01  0.429524013548E+01  0.442841536874E+01  0.456571974080E+01  0.470728127689E+01
  0.485323197168E+01  0.500370791237E+01  0.515884940559E+01  0.531880110823E+01
 aepotential
  0.363644682247E+05  0.353487416706E+05  0.343218994995E+05  0.332874444338E+05  0.322492400225E+05
  0.312117418979E+05  0.301780275742E+05  0.291515120221E+05  0.281355701014E+05  0.271326677666E+05
  0.261455362744E+05  0.251761744466E+05  0.242266614051E+05  0.232986148873E+05  0.223934581517E+05
  0.215123434150E+05  0.206562124034E+05  0.198257551850E+05  0.190214912190E+05  0.182437354012E+05
  0.174926412683E+05  0.167682089012E+05  0.160703026727E+05  0.153986696739E+05  0.147529457178E+05
  0.141326945858E+05  0.135373749937E+05  0.129664283631E+05  0.124191682409E+05  0.118949864823E+05
  0.113930896964E+05  0.109128288476E+05  0.104533937975E+05  0.100140762037E+05  0.959407610545E+04
  0.919266419585E+04  0.880912587447E+04  0.844266666875E+04  0.809257804644E+04  0.775821494956E+04
  0.743880725762E+04  0.713376718388E+04  0.684239598311E+04  0.656410751195E+04  0.629826616677E+04
  0.604433537324E+04  0.580173396356E+04  0.556992903385E+04  0.534844825234E+04  0.513676849927E+04
  0.493444232967E+04  0.474102075770E+04  0.455608033392E+04  0.437921615343E+04  0.421006720150E+04
  0.404823768918E+04  0.389340654465E+04  0.374520075028E+04  0.360334332964E+04  0.346756458209E+04
  0.333746920786E+04  0.321293097421E+04  0.309357648591E+04  0.297921320000E+04  0.286960400430E+04
  0.276454697462E+04  0.266379117974E+04  0.256715857659E+04  0.247448165241E+04  0.238555779224E+04
  0.230020878365E+04  0.221828597864E+04  0.213964701754E+04  0.206411269629E+04  0.199157762385E+04
  0.192189284723E+04  0.185492693728E+04  0.179057785600E+04  0.172871416363E+04  0.166924381454E+04
  0.161204904442E+04  0.155704450397E+04  0.150411721562E+04  0.145321232766E+04  0.140420803139E+04
  0.135704335172E+04  0.131163502413E+04  0.126791907021E+04  0.122581697826E+04  0.118525977529E+04
  0.114619060503E+04  0.110854625082E+04  0.107227597939E+04  0.103730229655E+04  0.100360002578E+04
  0.971106622423E+03  0.939763723548E+03  0.909545672905E+03  0.880393077063E+03  0.852270716517E+03
  0.825135424449E+03  0.798951259846E+03  0.773681748520E+03  0.749290413740E+03  0.725741193258E+03
  0.703006522257E+03  0.681052369598E+03  0.659851797879E+03  0.639374128283E+03  0.619593371624E+03
  0.600483397054E+03  0.582019904854E+03  0.564177027826E+03  0.546934865898E+03  0.530268765892E+03
  0.514159527799E+03  0.498585937261E+03  0.483528647889E+03  0.468969625663E+03  0.454890306476E+03
  0.441274378511E+03  0.428103286791E+03  0.415363079843E+03  0.403039233956E+03  0.391114281210E+03
  0.379577112064E+03  0.368411501947E+03  0.357605613714E+03  0.347148007624E+03  0.337024744195E+03
  0.327224857559E+03  0.317737313866E+03  0.308551043175E+03  0.299656208017E+03  0.291042438663E+03
  0.282699731175E+03  0.274619287462E+03  0.266792205917E+03  0.259209477209E+03  0.251862834791E+03
  0.244744433327E+03  0.237846626851E+03  0.231161553649E+03  0.224682246817E+03  0.218401783471E+03
  0.212313235299E+03  0.206410401255E+03  0.200686705093E+03  0.195136328691E+03  0.189753271044E+03
  0.184532049878E+03  0.179467020718E+03  0.174552996299E+03  0.169784929800E+03  0.165157750677E+03
  0.160666811307E+03  0.156307455179E+03  0.152075188114E+03  0.147965704029E+03  0.143974852057E+03
  0.140098600399E+03  0.136332809852E+03  0.132674144684E+03  0.129118393670E+03  0.125662499916E+03
  0.122302563270E+03  0.119035516892E+03  0.115858059860E+03  0.112767014638E+03  0.109759315829E+03
  0.106832102237E+03  0.103982390852E+03  0.101207487954E+03  0.985046210266E+02  0.958712337914E+02
  0.933046967933E+02  0.908025978674E+02  0.883625288383E+02  0.859821528780E+02  0.836591391493E+02
  0.813913594237E+02  0.791766176932E+02  0.770128572658E+02  0.748980070893E+02  0.728301291303E+02
  0.708072615360E+02  0.688275647727E+02  0.668891858207E+02  0.649903532722E+02  0.631293420475E+02
  0.613044552230E+02  0.595140387381E+02  0.577565072790E+02  0.560302690858E+02  0.543338184627E+02
  0.526656454509E+02  0.510243090430E+02  0.494083767439E+02  0.478164701677E+02  0.462472266708E+02
  0.446993332654E+02  0.431714741504E+02  0.416624274742E+02  0.401709143645E+02  0.386957680869E+02
  0.372357697734E+02  0.357898081006E+02  0.343567312566E+02  0.329354442610E+02  0.315248860564E+02
  0.301239875381E+02  0.287317346571E+02  0.273471220025E+02  0.259691724322E+02  0.245969288767E+02
  0.232294582664E+02  0.218658580321E+02  0.205052314900E+02  0.191467187953E+02  0.177894776579E+02
  0.164326873891E+02  0.150755539155E+02  0.137172948397E+02  0.123571639974E+02  0.109944320853E+02
  0.962838541045E+01  0.825834551856E+01  0.688364994680E+01  0.550365955949E+01  0.411776095861E+01
  0.272536462678E+01  0.132590449240E+01 -0.811611237080E-01 -0.149634805889E+01 -0.292014624475E+01
 -0.435302113079E+01 -0.579541125108E+01 -0.724772649713E+01 -0.871035342334E+01 -0.101836467483E+02
 -0.116679335512E+02 -0.131635146559E+02 -0.146706573719E+02 -0.161896006967E+02 -0.177205521151E+02
 -0.192636874310E+02 -0.208191490020E+02 -0.223870457351E+02 -0.239674519012E+02 -0.255604048061E+02
 -0.271659054058E+02 -0.287839142952E+02 -0.304143518026E+02 -0.320570942843E+02 -0.337119729797E+02
 -0.353787693970E+02 -0.370572129372E+02 -0.387469757046E+02 -0.404476680153E+02 -0.421588320648E+02
 -0.438799345326E+02 -0.456103584052E+02 -0.473493929670E+02 -0.490962213142E+02 -0.508499075859E+02
 -0.526093802337E+02 -0.543734137380E+02 -0.561406077430E+02 -0.579093634126E+02 -0.596778570927E+02
 -0.614440122636E+02 -0.632054693090E+02 -0.649595555124E+02 -0.667032556601E+02 -0.684331865848E+02
 -0.701455782694E+02 -0.718362659770E+02 -0.735006983686E+02 -0.751339678176E+02 -0.767308697731E+02
 -0.782859986697E+02 -0.797938880338E+02 -0.812492023659E+02 -0.826469881328E+02 -0.839829912972E+02
 -0.852540493200E+02 -0.864585674264E+02 -0.875970895116E+02 -0.886729695437E+02 -0.896931276911E+02
 -0.906688136179E+02 -0.916161617852E+02 -0.925560700321E+02 -0.935125587284E+02 -0.945084005548E+02
 -0.955568566820E+02 -0.966495566929E+02 -0.977435754195E+02 -0.987548957575E+02 -0.995673585401E+02
 -0.100061379846E+03 -0.100154992325E+03 -0.998385175860E+02 -0.991826925454E+02 -0.983122582005E+02
 -0.973581436896E+02 -0.964160585281E+02 -0.955317699989E+02 -0.947111141203E+02 -0.939390881949E+02
 -0.931953469543E+02 -0.924622717305E+02 -0.917274073771E+02 -0.909830060807E+02 -0.902246338886E+02
 -0.894498049634E+02 -0.886569508584E+02 -0.878448123883E+02 -0.870121333309E+02 -0.861575897491E+02
 -0.852798265131E+02 -0.843775483315E+02 -0.834496262855E+02 -0.824951686059E+02 -0.815135855842E+02
 -0.805046166180E+02 -0.794683496524E+02 -0.784052059023E+02 -0.773159303477E+02 -0.762015691304E+02
 -0.750634350400E+02 -0.739030828065E+02 -0.727222711947E+02 -0.715229330546E+02 -0.703071375873E+02
 -0.690770573444E+02 -0.678349367499E+02 -0.665830513997E+02 -0.653236791265E+02 -0.640590656940E+02
 -0.627913868676E+02 -0.615227227132E+02 -0.602550215233E+02 -0.589900761191E+02 -0.577295002498E+02
 -0.564747132155E+02 -0.552269326439E+02 -0.539871781594E+02 -0.527562866405E+02 -0.515349396867E+02
 -0.503237019290E+02 -0.491230679775E+02 -0.479335146096E+02 -0.467555482868E+02 -0.455897587322E+02
 -0.444368476562E+02 -0.432976556180E+02 -0.421731693520E+02 -0.410645145245E+02 -0.399729343717E+02
 -0.388997564336E+02 -0.378463502098E+02 -0.368140787624E+02 -0.358042472639E+02 -0.348180513137E+02
 -0.338565277674E+02 -0.329205107111E+02 -0.320105952759E+02 -0.311271118111E+02 -0.302701126510E+02
 -0.294393729592E+02 -0.286344060614E+02 -0.278544923014E+02 -0.270987190485E+02 -0.263660283296E+02
 -0.256552678991E+02 -0.249652415141E+02 -0.242947547304E+02 -0.236426534972E+02 -0.230078539946E+02
 -0.223893632855E+02 -0.217862912838E+02 -0.211978551883E+02 -0.206233778781E+02 -0.200622818571E+02
 -0.195140802427E+02 -0.189783660815E+02 -0.184548010177E+02 -0.179431040713E+02 -0.174430410447E+02
 -0.169544148739E+02 -0.164770570862E+02 -0.160108204113E+02 -0.155555725167E+02 -0.151111907893E+02
 -0.146775580634E+02 -0.142545591814E+02 -0.138420782774E+02 -0.134399966805E+02
 core charge-density
  0.378166382033E-05  0.401938218526E-05  0.427204063063E-05  0.454057781232E-05  0.482599133249E-05
  0.512934143848E-05  0.545175495397E-05  0.579442945618E-05  0.615863771496E-05  0.654573241029E-05
  0.695715114492E-05  0.739442177149E-05  0.785916805303E-05  0.835311567821E-05  0.887809865318E-05
  0.943606609378E-05  0.100290894428E-04  0.106593701395E-04  0.113292477686E-04  0.120412087194E-04
  0.127978953877E-04  0.136021159518E-04  0.144568547612E-04  0.153652833747E-04  0.163307722892E-04
  0.173569034008E-04  0.184474832458E-04  0.196065570691E-04  0.208384237714E-04  0.221476517906E-04
  0.235390959747E-04  0.250179155092E-04  0.265895929631E-04  0.282599545242E-04  0.300351914967E-04
  0.319218831414E-04  0.339270209390E-04  0.360580343676E-04  0.383228182867E-04  0.407297620288E-04
  0.432877803026E-04  0.460063460226E-04  0.488955251816E-04  0.519660138961E-04  0.552291777549E-04
  0.586970936191E-04  0.623825940175E-04  0.662993143062E-04  0.704617427578E-04  0.748852737606E-04
  0.795862643255E-04  0.845820940975E-04  0.898912290922E-04  0.955332893873E-04  0.101529121008E-03
  0.107900872272E-03  0.114672074856E-03  0.121867729890E-03  0.129514399378E-03  0.137640303265E-03
  0.146275422513E-03  0.155451608552E-03  0.165202699464E-03  0.175564643377E-03  0.186575629429E-03
  0.198276226838E-03  0.210709532514E-03  0.223921327783E-03  0.237960244726E-03  0.252877942766E-03
  0.268729296092E-03  0.285572592595E-03  0.303469745000E-03  0.322486514935E-03  0.342692750750E-03
  0.364162639841E-03  0.386974976441E-03  0.411213445752E-03  0.436966925402E-03  0.464329805310E-03
  0.493402326995E-03  0.524290943565E-03  0.557108701540E-03  0.591975645917E-03  0.629019249703E-03
  0.668374869566E-03  0.710186228970E-03  0.754605930538E-03  0.801795999305E-03  0.851928458715E-03
  0.905185941277E-03  0.961762335898E-03  0.102186347405E-02  0.108570785700E-02  0.115352742669E-02
  0.122556838235E-02  0.130209204600E-02  0.138337577946E-02  0.146971395559E-02  0.156141898734E-02
  0.165882241745E-02  0.176227607267E-02  0.187215328581E-02  0.198885018963E-02  0.211278708663E-02
  0.224440989904E-02  0.238419170316E-02  0.253263435332E-02  0.269027019979E-02  0.285766390639E-02
  0.303541437281E-02  0.322415676765E-02  0.342456467803E-02  0.363735238222E-02  0.386327725157E-02
  0.410314228912E-02  0.435779881160E-02  0.462814928284E-02  0.491515030611E-02  0.521981578385E-02
  0.554322025343E-02  0.588650240763E-02  0.625086880961E-02  0.663759781181E-02  0.704804368872E-02
  0.748364099484E-02  0.794590915748E-02  0.843645731705E-02  0.895698942556E-02  0.950930961565E-02
  0.100953278533E-01  0.107170658861E-01  0.113766635009E-01  0.120763851046E-01  0.128186266416E-01
  0.136059228624E-01  0.144409549583E-01  0.153265585765E-01  0.162657322302E-01  0.172616461211E-01
  0.183176513872E-01  0.194372897925E-01  0.206243038743E-01  0.218826475632E-01  0.232164972909E-01
  0.246302636011E-01  0.261286032777E-01  0.277164320051E-01  0.293989375739E-01  0.311815936432E-01
  0.330701740746E-01  0.350707678441E-01  0.371897945453E-01  0.394340204890E-01  0.418105754040E-01
  0.443269697467E-01  0.469911126159E-01  0.498113302737E-01  0.527963852673E-01  0.559554961426E-01
  0.592983577374E-01  0.628351620343E-01  0.665766195620E-01  0.705339812944E-01  0.747190610461E-01
  0.791442582858E-01  0.838225813587E-01  0.887676710248E-01  0.939938242705E-01  0.995160183126E-01
  0.105349934702E+00  0.111511983431E+00  0.118019326943E+00  0.124889903896E+00  0.132142452569E+00
  0.139796533724E+00  0.147872552780E+00  0.156391781074E+00  0.165376376027E+00  0.174849399952E+00
  0.184834837276E+00  0.195357609862E+00  0.206443590153E+00  0.218119611785E+00  0.230413477316E+00
  0.243353962671E+00  0.256970817891E+00  0.271294763709E+00  0.286357483495E+00  0.302191610014E+00
  0.318830706458E+00  0.336309241148E+00  0.354662555287E+00  0.373926823069E+00  0.394139003478E+00
  0.415336783001E+00  0.437558508511E+00  0.460843109485E+00  0.485230008756E+00  0.510759020889E+00
  0.537470237345E+00  0.565403897453E+00  0.594600244395E+00  0.625099365069E+00  0.656941013160E+00
  0.690164414236E+00  0.724808052229E+00  0.760909436140E+00  0.798504846459E+00  0.837629060264E+00
  0.878315054434E+00  0.920593686416E+00  0.964493351935E+00  0.101003961941E+01  0.105725484080E+01
  0.110615773899E+01  0.115676297176E+01  0.120908067294E+01  0.126311597140E+01  0.131886848887E+01
  0.137633181810E+01  0.143549298288E+01  0.149633188228E+01  0.155882072160E+01  0.162292343312E+01
  0.168859509021E+01  0.175578131908E+01  0.182441771261E+01  0.189442925190E+01  0.196572974121E+01
  0.203822126300E+01  0.211179366026E+01  0.218632405404E+01  0.226167640462E+01  0.233770112556E+01
  0.241423476017E+01  0.249109973095E+01  0.256810417249E+01  0.264504185891E+01  0.272169223770E+01
  0.279782058098E+01  0.287317826622E+01  0.294750319794E+01  0.302052038126E+01  0.309194265834E+01
  0.316147161750E+01  0.322879868398E+01  0.329360639986E+01  0.335556989951E+01  0.341435858459E+01
  0.346963800072E+01  0.352107191546E+01  0.356832459415E+01  0.361106326753E+01  0.364896078101E+01
  0.368169841240E+01  0.370896884034E+01  0.373047924212E+01  0.374595449491E+01  0.375514045000E+01
  0.375780724585E+01  0.375375262056E+01  0.374280518108E+01  0.372482758235E+01  0.369971956582E+01
  0.366742080477E+01  0.362791350065E+01  0.358122467419E+01  0.352742809383E+01  0.346664578542E+01
  0.339904906809E+01  0.332485906544E+01  0.324434664476E+01  0.315783174407E+01  0.306568205376E+01
  0.296831102944E+01  0.286617522329E+01  0.275977093367E+01  0.264963018647E+01  0.253631607696E+01
  0.242041751637E+01  0.230254344397E+01  0.218331658191E+01  0.206336682552E+01  0.194332437627E+01
  0.182381273964E+01  0.170544171357E+01  0.158880050898E+01  0.147445113992E+01  0.136292222218E+01
  0.125470331142E+01  0.115023989838E+01  0.104992915524E+01  0.954116491950E+00  0.863092930960E+00
  0.777093246636E+00  0.696294757196E+00  0.620816638371E+00  0.550719698884E+00  0.486006745858E+00
  0.426623917033E+00  0.372463504423E+00  0.323368663451E+00  0.279139964659E+00  0.239543195318E+00
  0.204317468720E+00  0.173182769535E+00  0.145846494454E+00  0.122009020997E+00  0.101368570371E+00
  0.836255979111E-01  0.684868027987E-01  0.556687341024E-01  0.449009230101E-01  0.359284741784E-01
  0.285140747574E-01  0.224394102838E-01  0.175060040752E-01  0.135355187642E-01  0.103695748809E-01
  0.786915263364E-02  0.591364976933E-02  0.439967124581E-02  0.323962579980E-02  0.236020086205E-02
  0.170078111719E-02  0.121186793030E-02  0.853547475325E-03  0.594045348017E-03  0.408395333890E-03
  0.277240370311E-03  0.185775025615E-03  0.122831331298E-03  0.801037316694E-04  0.515043219388E-04
  0.326363886311E-04  0.203724169086E-04  0.125220019327E-04  0.757527515406E-05  0.450830130131E-05
  0.263819761430E-05  0.151727715932E-05  0.857160605918E-06  0.475410303565E-06  0.258729670345E-06
  0.138086057402E-06  0.722314610159E-07  0.370096600223E-07  0.185629494615E-07  0.910845686849E-08
  0.436940952226E-08  0.204779353782E-08  0.936982076507E-09  0.418258591348E-09  0.182013624740E-09
  0.771569668921E-10  0.318357285543E-10  0.127752079609E-10  0.498159427524E-11  0.188598229330E-11
  0.692604025446E-12  0.246494315584E-12  0.849349193704E-13  0.283068968066E-13  0.911548357493E-14
  0.283327531106E-14  0.849071924741E-15  0.245050923468E-15  0.680327475072E-16  0.181470860207E-16
  0.464498000278E-17  0.113944347556E-17  0.267522527865E-18  0.600337636740E-19  0.128584722925E-19
  0.262490886242E-20  0.509945345871E-21  0.941350985564E-22  0.164858752089E-22  0.273462739426E-23
  0.428925577688E-24  0.635057769142E-25  0.885970233932E-26  0.116252745537E-26  0.143200576541E-27
  0.165271484844E-28  0.178357309896E-29  0.179607775786E-30  0.168412510742E-31  0.146718129219E-32
  0.118486592989E-33  0.884944603632E-35  0.609787577708E-36  0.386703975621E-37  0.225115334046E-38
  0.119981026466E-39  0.583876096058E-41  0.258709833632E-42  0.104072434120E-43
 kinetic energy-density
  0.532956018166E-01  0.540203856969E-01  0.547720725133E-01  0.555514721754E-01  0.563599445251E-01
  0.571986195198E-01  0.580687284981E-01  0.589718771247E-01  0.599093557332E-01  0.608828377130E-01
  0.618938244556E-01  0.629440654135E-01  0.640353821697E-01  0.651696582464E-01  0.663488774905E-01
  0.675751610302E-01  0.688506662078E-01  0.701777564928E-01  0.715588319379E-01  0.729964639909E-01
  0.744933405836E-01  0.760522916367E-01  0.776762900206E-01  0.793684721750E-01  0.811321158098E-01
  0.829707040860E-01  0.848878557921E-01  0.868874462016E-01  0.889734902702E-01  0.911502279551E-01
  0.934221862700E-01  0.957940243824E-01  0.982707663792E-01  0.100857651737E+00  0.103560187444E+00
  0.106384175812E+00  0.109335805687E+00  0.112421592746E+00  0.115648280065E+00  0.119023129031E+00
  0.122553757149E+00  0.126248183035E+00  0.130114928398E+00  0.134162922739E+00  0.138401590699E+00
  0.142841046045E+00  0.147491751605E+00  0.152364810923E+00  0.157472113068E+00  0.162826034994E+00
  0.168439847465E+00  0.174327369697E+00  0.180503326804E+00  0.186983294538E+00  0.193783659305E+00
  0.200921941351E+00  0.208416473348E+00  0.216286732714E+00  0.224553197643E+00  0.233237912666E+00
  0.242363616333E+00  0.251955029695E+00  0.262037712616E+00  0.272639209985E+00  0.283788105858E+00
  0.295515450067E+00  0.307853413531E+00  0.320836321703E+00  0.334500451319E+00  0.348884567174E+00
  0.364029207508E+00  0.379977558194E+00  0.396775368239E+00  0.414470994396E+00  0.433115792935E+00
  0.452764050608E+00  0.473473301846E+00  0.495304548609E+00  0.518322274007E+00  0.542595028522E+00
  0.568195239989E+00  0.595199888595E+00  0.623689875623E+00  0.653752244744E+00  0.685477807917E+00
  0.718963599636E+00  0.754312160163E+00  0.791632286577E+00  0.831039548316E+00  0.872655644004E+00
  0.916610380751E+00  0.963040642432E+00  0.101209231707E+01  0.106391913599E+01  0.111868441391E+01
  0.117656172327E+01  0.123773412039E+01  0.130239592539E+01  0.137075400042E+01  0.144302579483E+01
  0.151944359259E+01  0.160025189907E+01  0.168571156046E+01  0.177609758624E+01  0.187170219814E+01
  0.197283460186E+01  0.207982284413E+01  0.219301431683E+01  0.231277714911E+01  0.243950174308E+01
  0.257360080968E+01  0.271551315292E+01  0.286570178728E+01  0.302465897332E+01  0.319290504453E+01
  0.337099154365E+01  0.355950295500E+01  0.375905786268E+01  0.397031170957E+01  0.419395852035E+01
  0.443073352279E+01  0.468141517322E+01  0.494682569234E+01  0.522784040998E+01  0.552538011049E+01
  0.584042428695E+01  0.617400693146E+01  0.652722228433E+01  0.690123009595E+01  0.729725617644E+01
  0.771659798084E+01  0.816062648191E+01  0.863079430597E+01  0.912863531629E+01  0.965577393391E+01
  0.102139250593E+02  0.108049032111E+02  0.114306262181E+02  0.120931204334E+02  0.127945271836E+02
  0.135371079702E+02  0.143232537091E+02  0.151554870356E+02  0.160364726470E+02  0.169690241146E+02
  0.179561098836E+02  0.190008634973E+02  0.201065902870E+02  0.212767768955E+02  0.225150994037E+02
  0.238254348552E+02  0.252118675916E+02  0.266787031576E+02  0.282304756430E+02  0.298719611202E+02
  0.316081864983E+02  0.334444438524E+02  0.353863001032E+02  0.374396100069E+02  0.396105308565E+02
  0.419055325941E+02  0.443314111197E+02  0.468953089818E+02  0.496047162433E+02  0.524675006793E+02
  0.554919053794E+02  0.586865818270E+02  0.620605847008E+02  0.656234072449E+02  0.693849780237E+02
  0.733556888848E+02  0.775464052180E+02  0.819684758541E+02  0.866337584137E+02  0.915546219702E+02
  0.967439695080E+02  0.102215242406E+03  0.107982442141E+03  0.114060134977E+03  0.120463462567E+03
  0.127208152170E+03  0.134310526416E+03  0.141787504837E+03  0.149656610481E+03  0.157935969889E+03
  0.166644314206E+03  0.175800974162E+03  0.185425875427E+03  0.195539524070E+03  0.206162999706E+03
  0.217317931554E+03  0.229026478569E+03  0.241311303194E+03  0.254195534633E+03  0.267702733657E+03
  0.281856847267E+03  0.296682151643E+03  0.312203199816E+03  0.328444747811E+03  0.345431680989E+03
  0.363188930528E+03  0.381741367671E+03  0.401113721384E+03  0.421330432155E+03  0.442415541722E+03
  0.464392563948E+03  0.487284288107E+03  0.511112682662E+03  0.535898640335E+03  0.561661843927E+03
  0.588420533443E+03  0.616191274816E+03  0.644988758614E+03  0.674825503508E+03  0.705711635918E+03
  0.737654570303E+03  0.770658751022E+03  0.804725319729E+03  0.839851806320E+03  0.876031801192E+03
  0.913254611700E+03  0.951504910055E+03  0.990762390043E+03  0.103100138199E+04  0.107219052991E+04
  0.111429239501E+04  0.115726311000E+04  0.120105205271E+04  0.124560147184E+04  0.129084620111E+04
  0.133671333892E+04  0.138312198887E+04  0.142998301218E+04  0.147719882965E+04  0.152466326091E+04
  0.157226141834E+04  0.161986965692E+04  0.166735558530E+04  0.171457815746E+04  0.176138781893E+04
  0.180762678020E+04  0.185312932957E+04  0.189772227765E+04  0.194122550659E+04  0.198345259586E+04
  0.202421159936E+04  0.206330590340E+04  0.210053523112E+04  0.213569673869E+04  0.216858625130E+04
  0.219899959727E+04  0.222673405825E+04  0.225158993160E+04  0.227337217208E+04  0.229189213725E+04
  0.230696938827E+04  0.231843356250E+04  0.232612628154E+04  0.232990307487E+04  0.232963531104E+04
  0.232521210123E+04  0.231654215080E+04  0.230355553635E+04  0.228620537857E+04  0.226446937804E+04
  0.223835119114E+04  0.220788160410E+04  0.217311949915E+04  0.213415255150E+04  0.209109766407E+04
  0.204410108872E+04  0.199333823016E+04  0.193901309964E+04  0.188135741465E+04  0.182062932185E+04
  0.175711174858E+04  0.169111036934E+04  0.162295120115E+04  0.155297783234E+04  0.148154830538E+04
  0.140903167764E+04  0.133580429574E+04  0.126224582597E+04  0.118873506881E+04  0.111564579838E+04
  0.104334219264E+04  0.972174745875E+03  0.902475981982E+03  0.834556503087E+03  0.768701333998E+03
  0.705166688100E+03  0.644177276681E+03  0.585924311829E+03  0.530564393391E+03  0.478219503649E+03
  0.428978304822E+03  0.382898750342E+03  0.340011595749E+03  0.300323789143E+03  0.263820298158E+03
  0.230463266265E+03  0.200188731432E+03  0.172902844863E+03  0.148480362608E+03  0.126767390515E+03
  0.107588271134E+03  0.907544509340E+02  0.760726014124E+02  0.633504173764E+02  0.524001100278E+02
  0.430404409857E+02  0.350980933202E+02  0.284087988168E+02  0.228183342407E+02  0.181833598331E+02
  0.143720451124E+02  0.112644434343E+02  0.875260472780E+01  0.674043771869E+01  0.514334866793E+01
  0.388769191896E+01  0.291007157106E+01  0.215653420764E+01  0.158169104647E+01  0.114780501202E+01
  0.823874182651E+00  0.584738416366E+00  0.410230805826E+00  0.284390385677E+00  0.194747361572E+00
  0.131687353972E+00  0.878969298237E-01  0.578891466977E-01  0.376050505208E-01  0.240850450603E-01
  0.152027567245E-01  0.945336875532E-02  0.578828890297E-02  0.348832620364E-02  0.206816388365E-02
  0.120571579456E-02  0.690846457071E-03  0.388841118991E-03  0.214875647520E-03  0.116517050159E-03
  0.619632707151E-04  0.322975259184E-04  0.164904971043E-04  0.824250313206E-05  0.403058697483E-05
  0.192697287548E-05  0.900091241875E-06  0.410485221495E-06  0.182639890725E-06  0.792242716096E-07
  0.334774763100E-07  0.137700619677E-07  0.550875937537E-08  0.214161338764E-08  0.808389172263E-09
  0.296007327267E-09  0.105047209884E-09  0.360953111724E-10  0.119969672164E-10  0.385302974212E-11
  0.119449508471E-11  0.357061532784E-12  0.102798855720E-12  0.284717196428E-13  0.757698632475E-14
  0.193507159880E-14  0.473651026669E-15  0.110970240171E-15  0.248512956769E-16  0.531221576853E-17
  0.108232492613E-17  0.209868384496E-18  0.386701998848E-19  0.676018309427E-20  0.111939955651E-20
  0.175277897752E-21  0.259079652323E-22  0.360852459185E-23  0.472736231684E-24  0.581405804574E-25
  0.669983991758E-26  0.721940658852E-27  0.725924142978E-28  0.679683361753E-29  0.591278568799E-30
  0.476829056869E-31  0.355633725492E-32  0.244718079417E-33  0.154979052009E-34  0.900972305673E-36
  0.479550994136E-37  0.233056503359E-38  0.103127060877E-39  0.414298796570E-41
 mkinetic energy-density pseudized
  0.100410759564E-06  0.106733819873E-06  0.113455055553E-06  0.120599540478E-06  0.128193927473E-06
  0.136266547744E-06  0.144847516567E-06  0.153968845636E-06  0.163664562481E-06  0.173970837415E-06
  0.184926118462E-06  0.196571274796E-06  0.208949749198E-06  0.222107720129E-06  0.236094273994E-06
  0.250961588264E-06  0.266765126128E-06  0.283563843397E-06  0.301420408445E-06  0.320401435993E-06
  0.340577735622E-06  0.362024575924E-06  0.384821965306E-06  0.409054950452E-06  0.434813933605E-06
  0.462195009808E-06  0.491300325395E-06  0.522238459051E-06  0.555124826869E-06  0.590082112917E-06
  0.627240726913E-06  0.666739290724E-06  0.708725155505E-06  0.753354951393E-06  0.800795171827E-06
  0.851222794653E-06  0.904825942355E-06  0.961804583844E-06  0.102237128046E-05  0.108675197893E-05
  0.115518685429E-05  0.122793120583E-05  0.130525640954E-05  0.138745093048E-05  0.147482139887E-05
  0.156769375405E-05  0.166641446034E-05  0.177135179961E-05  0.188289724510E-05  0.200146692187E-05
  0.212750315915E-05  0.226147614047E-05  0.240388565770E-05  0.255526297553E-05  0.271617281336E-05
  0.288721545204E-05  0.306902897319E-05  0.326229163962E-05  0.346772442557E-05  0.368609370638E-05
  0.391821411739E-05  0.416495159304E-05  0.442722659721E-05  0.470601755704E-05  0.500236451297E-05
  0.531737299864E-05  0.565221816508E-05  0.600814916465E-05  0.638649381102E-05  0.678866353255E-05
  0.721615863768E-05  0.767057391184E-05  0.815360456677E-05  0.866705256451E-05  0.921283333965E-05
  0.979298294483E-05  0.104096656462E-04  0.110651819972E-04  0.117619774207E-04  0.125026513317E-04
  0.132899668343E-04  0.141268610295E-04  0.150164559717E-04  0.159620703156E-04  0.169672316964E-04
  0.180356898892E-04  0.191714307975E-04  0.203786913225E-04  0.216619751681E-04  0.230260696422E-04
  0.244760635151E-04  0.260173660025E-04  0.276557269444E-04  0.293972582540E-04  0.312484567177E-04
  0.332162282303E-04  0.353079135565E-04  0.375313157148E-04  0.398947290850E-04  0.424069703492E-04
  0.450774113805E-04  0.479160142032E-04  0.509333681537E-04  0.541407293814E-04  0.575500628371E-04
  0.611740869050E-04  0.650263208446E-04  0.691211352204E-04  0.734738055060E-04  0.781005690640E-04
  0.830186857133E-04  0.882465021091E-04  0.938035201777E-04  0.997104698584E-04  0.105989386427E-03
  0.112663692684E-03  0.119758286324E-03  0.127299632796E-03  0.135315864021E-03  0.143836883312E-03
  0.152894476910E-03  0.162522432536E-03  0.172756665407E-03  0.183635352184E-03  0.195199073354E-03
  0.207490964573E-03  0.220556877536E-03  0.234445550970E-03  0.249208792398E-03  0.264901671331E-03
  0.281582724631E-03  0.299314174792E-03  0.318162161960E-03  0.338196990555E-03  0.359493391413E-03
  0.382130800424E-03  0.406193654700E-03  0.431771707383E-03  0.458960362255E-03  0.487861029408E-03
  0.518581503278E-03  0.551236364467E-03  0.585947406843E-03  0.622844091499E-03  0.662064029264E-03
  0.703753493560E-03  0.748067965509E-03  0.795172713317E-03  0.845243408082E-03  0.898466778316E-03
  0.955041305614E-03  0.101517796404E-02  0.107910100599E-02  0.114704879742E-02  0.121927470557E-02
  0.129604804244E-02  0.137765506751E-02  0.146440005350E-02  0.155660641893E-02  0.165461793189E-02
  0.175879998931E-02  0.186954097650E-02  0.198725371200E-02  0.211237698307E-02  0.224537717744E-02
  0.238675001736E-02  0.253702240230E-02  0.269675436720E-02  0.286654116322E-02  0.304701546893E-02
  0.323884973974E-02  0.344275870446E-02  0.365950201789E-02  0.388988707929E-02  0.413477202690E-02
  0.439506891954E-02  0.467174711673E-02  0.496583686975E-02  0.527843313647E-02  0.561069963399E-02
  0.596387314354E-02  0.633926808328E-02  0.673828136529E-02  0.716239755441E-02  0.761319434717E-02
  0.809234839049E-02  0.860164146082E-02  0.914296702568E-02  0.971833721072E-02  0.103298901970E-01
  0.109798980741E-01  0.116707751775E-01  0.124050869373E-01  0.131855592716E-01  0.140150885547E-01
  0.148967521951E-01  0.158338198599E-01  0.168297653831E-01  0.178882793974E-01  0.190132827337E-01
  0.202089406299E-01  0.214796777987E-01  0.228301944016E-01  0.242654829817E-01  0.257908464095E-01
  0.274119168979E-01  0.291346761474E-01  0.309654766817E-01  0.329110644413E-01  0.349786027006E-01
  0.371756973808E-01  0.395104238323E-01  0.419913551612E-01  0.446275921816E-01  0.474287950734E-01
  0.504052168305E-01  0.535677385870E-01  0.569279069082E-01  0.604979731396E-01  0.642909349028E-01
  0.683205798347E-01  0.726015316603E-01  0.771492986960E-01  0.819803248719E-01  0.871120433679E-01
  0.925629329471E-01  0.983525770741E-01  0.104501725893E+00  0.111032361136E+00  0.117967764028E+00
  0.125332586227E+00  0.133152923850E+00  0.141456394587E+00  0.150272217913E+00  0.159631298361E+00
  0.169566311810E+00  0.180111794687E+00  0.191304235953E+00  0.203182171709E+00  0.215786282170E+00
  0.229159490725E+00  0.243347064714E+00  0.258396717474E+00  0.274358711106E+00  0.291285959305E+00
  0.309234129499E+00  0.328261743349E+00  0.348430274564E+00  0.369804242758E+00  0.392451301893E+00
  0.416442321641E+00  0.441851459689E+00  0.468756222793E+00  0.497237514008E+00  0.527379663195E+00
  0.559270437499E+00  0.593001028044E+00  0.628666008619E+00  0.666363261574E+00  0.706193865567E+00
  0.748261939138E+00  0.792674433406E+00  0.839540866390E+00  0.888972990656E+00  0.941084385064E+00
  0.995989960489E+00  0.105380536834E+01  0.111464629965E+01  0.117862766145E+01  0.124586261600E+01
  0.131646146717E+01  0.139053037740E+01  0.146816989742E+01  0.154947328975E+01  0.163452462653E+01
  0.172339664098E+01  0.181614831193E+01  0.191282216026E+01  0.201344123677E+01  0.211800578182E+01
  0.222648953869E+01  0.233883570542E+01  0.245495251332E+01  0.257470842558E+01  0.269792695618E+01
  0.282438111770E+01  0.295378751787E+01  0.308580013820E+01  0.322000384472E+01  0.335590770130E+01
  0.349293818002E+01  0.363043239213E+01  0.376763149632E+01  0.390367448028E+01  0.403759255536E+01
  0.416830445465E+01  0.429461297972E+01  0.441520320200E+01  0.452864278932E+01  0.463338499497E+01
  0.472777491459E+01  0.481005968023E+01  0.487840331855E+01  0.493090704366E+01  0.496563577825E+01
  0.498065168912E+01  0.497405547243E+01  0.494403601735E+01  0.488892889423E+01  0.480728383811E+01
  0.469794100587E+01  0.456011525306E+01  0.439348697936E+01  0.419829720669E+01  0.397544346205E+01
  0.372657172700E+01  0.345415818855E+01  0.316157280462E+01  0.285311483121E+01  0.253400853738E+01
  0.221034550007E+01  0.188895832936E+01  0.157720971191E+01  0.128268065290E+01  0.101274322140E+01
  0.774006539286E+00  0.571630863939E+00  0.408514120613E+00  0.284368854948E+00  0.194747361572E+00
  0.131687353972E+00  0.878969298237E-01  0.578891466977E-01  0.376050505208E-01  0.240850450603E-01
  0.152027567245E-01  0.945336875532E-02  0.578828890297E-02  0.348832620364E-02  0.206816388365E-02
  0.120571579456E-02  0.690846457071E-03  0.388841118991E-03  0.214875647520E-03  0.116517050159E-03
  0.619632707151E-04  0.322975259184E-04  0.164904971043E-04  0.824250313206E-05  0.403058697483E-05
  0.192697287548E-05  0.900091241875E-06  0.410485221495E-06  0.182639890725E-06  0.792242716096E-07
  0.334774763100E-07  0.137700619677E-07  0.550875937537E-08  0.214161338764E-08  0.808389172263E-09
  0.296007327267E-09  0.105047209884E-09  0.360953111724E-10  0.119969672164E-10  0.385302974212E-11
  0.119449508471E-11  0.357061532784E-12  0.102798855720E-12  0.284717196428E-13  0.757698632475E-14
  0.193507159880E-14  0.473651026669E-15  0.110970240171E-15  0.248512956769E-16  0.531221576853E-17
  0.108232492613E-17  0.209868384496E-18  0.386701998848E-19  0.676018309427E-20  0.111939955651E-20
  0.175277897752E-21  0.259079652323E-22  0.360852459185E-23  0.472736231684E-24  0.581405804574E-25
  0.669983991758E-26  0.721940658852E-27  0.725924142978E-28  0.679683361753E-29  0.591278568799E-30
  0.476829056869E-31  0.355633725492E-32  0.244718079417E-33  0.154979052009E-34  0.900972305673E-36
  0.479550994136E-37  0.233056503359E-38  0.103127060877E-39  0.414298796570E-41
 local pseudopotential core
 -0.165004244424E+03 -0.165003358173E+03 -0.165002498577E+03 -0.165001664832E+03 -0.165000856163E+03
 -0.165000071815E+03 -0.164999311057E+03 -0.164998573180E+03 -0.164997857496E+03 -0.164997163337E+03
 -0.164996490057E+03 -0.164995837028E+03 -0.164995203640E+03 -0.164994589304E+03 -0.164993993447E+03
 -0.164993415513E+03 -0.164992854963E+03 -0.164992311276E+03 -0.164991783943E+03 -0.164991272475E+03
 -0.164990776394E+03 -0.164990295237E+03 -0.164989828556E+03 -0.164989375916E+03 -0.164988936896E+03
 -0.164988511086E+03 -0.164988098090E+03 -0.164987697522E+03 -0.164987309010E+03 -0.164986932191E+03
 -0.164986566715E+03 -0.164986212240E+03 -0.164985868438E+03 -0.164985534987E+03 -0.164985211577E+03
 -0.164984897907E+03 -0.164984593685E+03 -0.164984298628E+03 -0.164984012461E+03 -0.164983734918E+03
 -0.164983465741E+03 -0.164983204679E+03 -0.164982951490E+03 -0.164982705937E+03 -0.164982467794E+03
 -0.164982236838E+03 -0.164982012855E+03 -0.164981795638E+03 -0.164981584984E+03 -0.164981380698E+03
 -0.164981182591E+03 -0.164980990480E+03 -0.164980804185E+03 -0.164980623536E+03 -0.164980448363E+03
 -0.164980278507E+03 -0.164980113810E+03 -0.164979954120E+03 -0.164979799289E+03 -0.164979649176E+03
 -0.164979503643E+03 -0.164979362555E+03 -0.164979225783E+03 -0.164979093202E+03 -0.164978964692E+03
 -0.164978840134E+03 -0.164978719416E+03 -0.164978602428E+03 -0.164978489064E+03 -0.164978379222E+03
 -0.164978272803E+03 -0.164978169711E+03 -0.164978069855E+03 -0.164977973146E+03 -0.164977879498E+03
 -0.164977788828E+03 -0.164977701058E+03 -0.164977616110E+03 -0.164977533913E+03 -0.164977454395E+03
 -0.164977377488E+03 -0.164977303129E+03 -0.164977231255E+03 -0.164977161807E+03 -0.164977094729E+03
 -0.164977029967E+03 -0.164976967471E+03 -0.164976907192E+03 -0.164976849086E+03 -0.164976793108E+03
 -0.164976739220E+03 -0.164976687384E+03 -0.164976637566E+03 -0.164976589734E+03 -0.164976543858E+03
 -0.164976499912E+03 -0.164976457874E+03 -0.164976417723E+03 -0.164976379441E+03 -0.164976343013E+03
 -0.164976308428E+03 -0.164976275679E+03 -0.164976244758E+03 -0.164976215666E+03 -0.164976188403E+03
 -0.164976162975E+03 -0.164976139390E+03 -0.164976117660E+03 -0.164976097803E+03 -0.164976079838E+03
 -0.164976063790E+03 -0.164976049688E+03 -0.164976037567E+03 -0.164976027463E+03 -0.164976019422E+03
 -0.164976013490E+03 -0.164976009724E+03 -0.164976008182E+03 -0.164976008930E+03 -0.164976012042E+03
 -0.164976017596E+03 -0.164976025679E+03 -0.164976036383E+03 -0.164976049812E+03 -0.164976066074E+03
 -0.164976085288E+03 -0.164976107582E+03 -0.164976133094E+03 -0.164976161973E+03 -0.164976194376E+03
 -0.164976230475E+03 -0.164976270452E+03 -0.164976314504E+03 -0.164976362840E+03 -0.164976415685E+03
 -0.164976473278E+03 -0.164976535876E+03 -0.164976603752E+03 -0.164976677199E+03 -0.164976756528E+03
 -0.164976842072E+03 -0.164976934185E+03 -0.164977033246E+03 -0.164977139657E+03 -0.164977253848E+03
 -0.164977376276E+03 -0.164977507428E+03 -0.164977647823E+03 -0.164977798014E+03 -0.164977958588E+03
 -0.164978130171E+03 -0.164978313429E+03 -0.164978509071E+03 -0.164978717852E+03 -0.164978940573E+03
 -0.164979178088E+03 -0.164979431306E+03 -0.164979701192E+03 -0.164979988774E+03 -0.164980295144E+03
 -0.164980621465E+03 -0.164980968972E+03 -0.164981338980E+03 -0.164981732886E+03 -0.164982152177E+03
 -0.164982598431E+03 -0.164983073328E+03 -0.164983578656E+03 -0.164984116312E+03 -0.164984688315E+03
 -0.164985296811E+03 -0.164985944082E+03 -0.164986632553E+03 -0.164987364803E+03 -0.164988143570E+03
 -0.164988971770E+03 -0.164989852499E+03 -0.164990789047E+03 -0.164991784915E+03 -0.164992843820E+03
 -0.164993969716E+03 -0.164995166803E+03 -0.164996439546E+03 -0.164997792692E+03 -0.164999231284E+03
 -0.165000760682E+03 -0.165002386584E+03 -0.165004115043E+03 -0.165005952494E+03 -0.165007905774E+03
 -0.165009982149E+03 -0.165012189341E+03 -0.165014535555E+03 -0.165017029508E+03 -0.165019680465E+03
 -0.165022498270E+03 -0.165025493381E+03 -0.165028676911E+03 -0.165032060666E+03 -0.165035657190E+03
 -0.165039479807E+03 -0.165043542674E+03 -0.165047860829E+03 -0.165052450246E+03 -0.165057327893E+03
 -0.165062511792E+03 -0.165068021084E+03 -0.165073876099E+03 -0.165080098425E+03 -0.165086710987E+03
 -0.165093738129E+03 -0.165101205698E+03 -0.165109141135E+03 -0.165117573573E+03 -0.165126533937E+03
 -0.165136055051E+03 -0.165146171753E+03 -0.165156921015E+03 -0.165168342065E+03 -0.165180476529E+03
 -0.165193368563E+03 -0.165207065005E+03 -0.165221615532E+03 -0.165237072824E+03 -0.165253492732E+03
 -0.165270934468E+03 -0.165289460789E+03 -0.165309138199E+03 -0.165330037159E+03 -0.165352232306E+03
 -0.165375802682E+03 -0.165400831975E+03 -0.165427408767E+03 -0.165455626795E+03 -0.165485585219E+03
 -0.165517388909E+03 -0.165551148725E+03 -0.165586981827E+03 -0.165625011976E+03 -0.165665369855E+03
 -0.165708193392E+03 -0.165753628094E+03 -0.165801827376E+03 -0.165852952907E+03 -0.165907174947E+03
 -0.165964672689E+03 -0.166025634591E+03 -0.166090258708E+03 -0.166158753008E+03 -0.166231335674E+03
 -0.166308235384E+03 -0.166389691567E+03 -0.166475954620E+03 -0.166567286084E+03 -0.166663958775E+03
 -0.166766256840E+03 -0.166874475750E+03 -0.166988922197E+03 -0.167109913891E+03 -0.167237779232E+03
 -0.167372856841E+03 -0.167515494926E+03 -0.167666050455E+03 -0.167824888114E+03 -0.167992379005E+03
 -0.168168899066E+03 -0.168354827150E+03 -0.168550542745E+03 -0.168756423258E+03 -0.168972840824E+03
 -0.169200158580E+03 -0.169438726324E+03 -0.169688875497E+03 -0.169950913398E+03 -0.170225116555E+03
 -0.170511723140E+03 -0.170810924339E+03 -0.171122854555E+03 -0.171447580331E+03 -0.171785087864E+03
 -0.172135268975E+03 -0.172497905401E+03 -0.172872651264E+03 -0.173259013576E+03 -0.173656330632E+03
 -0.174063748161E+03 -0.174480193108E+03 -0.174904344934E+03 -0.175334604340E+03 -0.175769059382E+03
 -0.176205448944E+03 -0.176641123627E+03 -0.177073004160E+03 -0.177497537542E+03 -0.177910651204E+03
 -0.178307705624E+03 -0.178683445942E+03 -0.179031953306E+03 -0.179346596820E+03 -0.179619987192E+03
 -0.179843933349E+03 -0.180009403527E+03 -0.180106492567E+03 -0.180124397383E+03 -0.180051402856E+03
 -0.179874880725E+03 -0.179581304408E+03 -0.179156283190E+03 -0.178584619856E+03 -0.177850396658E+03
 -0.176937095610E+03 -0.175827760477E+03 -0.174505209438E+03 -0.172952309346E+03 -0.171152324490E+03
 -0.169089354646E+03 -0.166748878707E+03 -0.164118420607E+03 -0.161188353137E+03 -0.157952851550E+03
 -0.154411001467E+03 -0.150568053357E+03 -0.146436797076E+03 -0.142039003665E+03 -0.137406846693E+03
 -0.132584172757E+03 -0.127627442925E+03 -0.122606120941E+03 -0.117589907284E+03 -0.112726741148E+03
 -0.108094812155E+03 -0.103777737508E+03 -0.998826617547E+02 -0.965476713691E+02 -0.938102996382E+02
 -0.917157821100E+02 -0.898884371475E+02 -0.871819483159E+02 -0.845601435058E+02 -0.820171752170E+02
 -0.795506968878E+02 -0.771583848845E+02 -0.748380158296E+02 -0.725874265142E+02 -0.704045180368E+02
 -0.682872558192E+02 -0.662336652992E+02 -0.642418314589E+02 -0.623098977547E+02 -0.604360625478E+02
 -0.586185786743E+02 -0.568557515310E+02 -0.551459443917E+02 -0.534875419826E+02 -0.518790192614E+02
 -0.503188691640E+02 -0.488056370908E+02 -0.473379120796E+02 -0.459143256122E+02 -0.445335503413E+02
 -0.431942988167E+02 -0.418953223016E+02 -0.406354097034E+02 -0.394133861703E+02 -0.382281123756E+02
 -0.370784831047E+02 -0.359634264601E+02 -0.348819027684E+02 -0.338329035808E+02 -0.328154508071E+02
 -0.318285957569E+02 -0.308714182678E+02 -0.299430258505E+02 -0.290425528561E+02 -0.281691596662E+02
 -0.273220319126E+02 -0.265003797177E+02 -0.257034369598E+02 -0.249304605550E+02 -0.241807297676E+02
 -0.234535455361E+02 -0.227482298217E+02 -0.220641249765E+02 -0.214005931296E+02 -0.207570155925E+02
 -0.201327922825E+02 -0.195273411631E+02 -0.189400977008E+02 -0.183705143396E+02 -0.178180599897E+02
 -0.172822195327E+02 -0.167624933412E+02 -0.162583968132E+02 -0.157694599197E+02 -0.152952267671E+02
 -0.148352551716E+02 -0.143891162472E+02 -0.139563940057E+02 -0.135366849690E+02
 pspotential valence only
 -0.106303122089E+03 -0.106302235812E+03 -0.106301376189E+03 -0.106300542414E+03 -0.106299733715E+03
 -0.106298949334E+03 -0.106298188542E+03 -0.106297450627E+03 -0.106296734904E+03 -0.106296040703E+03
 -0.106295367378E+03 -0.106294714301E+03 -0.106294080863E+03 -0.106293466474E+03 -0.106292870560E+03
 -0.106292292565E+03 -0.106291731952E+03 -0.106291188196E+03 -0.106290660791E+03 -0.106290149245E+03
 -0.106289653082E+03 -0.106289171838E+03 -0.106288705064E+03 -0.106288252326E+03 -0.106287813201E+03
 -0.106287387280E+03 -0.106286974165E+03 -0.106286573472E+03 -0.106286184826E+03 -0.106285807865E+03
 -0.106285442238E+03 -0.106285087603E+03 -0.106284743629E+03 -0.106284409997E+03 -0.106284086394E+03
 -0.106283772520E+03 -0.106283468080E+03 -0.106283172791E+03 -0.106282886378E+03 -0.106282608573E+03
 -0.106282339117E+03 -0.106282077760E+03 -0.106281824256E+03 -0.106281578369E+03 -0.106281339871E+03
 -0.106281108537E+03 -0.106280884153E+03 -0.106280666509E+03 -0.106280455402E+03 -0.106280250634E+03
 -0.106280052015E+03 -0.106279859358E+03 -0.106279672485E+03 -0.106279491220E+03 -0.106279315393E+03
 -0.106279144842E+03 -0.106278979405E+03 -0.106278818929E+03 -0.106278663264E+03 -0.106278512263E+03
 -0.106278365785E+03 -0.106278223694E+03 -0.106278085856E+03 -0.106277952142E+03 -0.106277822427E+03
 -0.106277696589E+03 -0.106277574509E+03 -0.106277456074E+03 -0.106277341172E+03 -0.106277229695E+03
 -0.106277121537E+03 -0.106277016598E+03 -0.106276914778E+03 -0.106276815981E+03 -0.106276720114E+03
 -0.106276627085E+03 -0.106276536808E+03 -0.106276449196E+03 -0.106276364165E+03 -0.106276281635E+03
 -0.106276201528E+03 -0.106276123766E+03 -0.106276048275E+03 -0.106275974982E+03 -0.106275903818E+03
 -0.106275834712E+03 -0.106275767598E+03 -0.106275702411E+03 -0.106275639087E+03 -0.106275577564E+03
 -0.106275517781E+03 -0.106275459678E+03 -0.106275403199E+03 -0.106275348286E+03 -0.106275294883E+03
 -0.106275242938E+03 -0.106275192395E+03 -0.106275143204E+03 -0.106275095313E+03 -0.106275048671E+03
 -0.106275003229E+03 -0.106274958939E+03 -0.106274915751E+03 -0.106274873618E+03 -0.106274832494E+03
 -0.106274792331E+03 -0.106274753084E+03 -0.106274714706E+03 -0.106274677152E+03 -0.106274640376E+03
 -0.106274604332E+03 -0.106274568976E+03 -0.106274534261E+03 -0.106274500141E+03 -0.106274466571E+03
 -0.106274433504E+03 -0.106274400893E+03 -0.106274368690E+03 -0.106274336846E+03 -0.106274305314E+03
 -0.106274274042E+03 -0.106274242980E+03 -0.106274212075E+03 -0.106274181273E+03 -0.106274150520E+03
 -0.106274119759E+03 -0.106274088930E+03 -0.106274057975E+03 -0.106274026830E+03 -0.106273995430E+03
 -0.106273963707E+03 -0.106273931593E+03 -0.106273899014E+03 -0.106273865893E+03 -0.106273832152E+03
 -0.106273797707E+03 -0.106273762471E+03 -0.106273726353E+03 -0.106273689257E+03 -0.106273651082E+03
 -0.106273611723E+03 -0.106273571069E+03 -0.106273529002E+03 -0.106273485399E+03 -0.106273440130E+03
 -0.106273393057E+03 -0.106273344036E+03 -0.106273292913E+03 -0.106273239525E+03 -0.106273183703E+03
 -0.106273125263E+03 -0.106273064016E+03 -0.106272999758E+03 -0.106272932273E+03 -0.106272861334E+03
 -0.106272786700E+03 -0.106272708114E+03 -0.106272625305E+03 -0.106272537986E+03 -0.106272445851E+03
 -0.106272348577E+03 -0.106272245820E+03 -0.106272137215E+03 -0.106272022376E+03 -0.106271900892E+03
 -0.106271772326E+03 -0.106271636217E+03 -0.106271492071E+03 -0.106271339368E+03 -0.106271177553E+03
 -0.106271006036E+03 -0.106270824193E+03 -0.106270631359E+03 -0.106270426828E+03 -0.106270209850E+03
 -0.106269979630E+03 -0.106269735319E+03 -0.106269476020E+03 -0.106269200776E+03 -0.106268908573E+03
 -0.106268598331E+03 -0.106268268904E+03 -0.106267919074E+03 -0.106267547546E+03 -0.106267152944E+03
 -0.106266733807E+03 -0.106266288580E+03 -0.106265815613E+03 -0.106265313151E+03 -0.106264779328E+03
 -0.106264212162E+03 -0.106263609547E+03 -0.106262969245E+03 -0.106262288875E+03 -0.106261565909E+03
 -0.106260797659E+03 -0.106259981269E+03 -0.106259113703E+03 -0.106258191735E+03 -0.106257211935E+03
 -0.106256170658E+03 -0.106255064031E+03 -0.106253887938E+03 -0.106252638003E+03 -0.106251309576E+03
 -0.106249897715E+03 -0.106248397168E+03 -0.106246802353E+03 -0.106245107338E+03 -0.106243305817E+03
 -0.106241391091E+03 -0.106239356039E+03 -0.106237193094E+03 -0.106234894213E+03 -0.106232450852E+03
 -0.106229853927E+03 -0.106227093789E+03 -0.106224160182E+03 -0.106221042207E+03 -0.106217728286E+03
 -0.106214206111E+03 -0.106210462610E+03 -0.106206483889E+03 -0.106202255186E+03 -0.106197760819E+03
 -0.106192984123E+03 -0.106187907396E+03 -0.106182511830E+03 -0.106176777442E+03 -0.106170683007E+03
 -0.106164205977E+03 -0.106157322400E+03 -0.106150006835E+03 -0.106142232260E+03 -0.106133969974E+03
 -0.106125189497E+03 -0.106115858460E+03 -0.106105942488E+03 -0.106095405084E+03 -0.106084207492E+03
 -0.106072308566E+03 -0.106059664626E+03 -0.106046229303E+03 -0.106031953378E+03 -0.106016784614E+03
 -0.106000667572E+03 -0.105983543427E+03 -0.105965349759E+03 -0.105946020349E+03 -0.105925484953E+03
 -0.105903669064E+03 -0.105880493668E+03 -0.105855874981E+03 -0.105829724173E+03 -0.105801947082E+03
 -0.105772443907E+03 -0.105741108886E+03 -0.105707829967E+03 -0.105672488446E+03 -0.105634958605E+03
 -0.105595107317E+03 -0.105552793638E+03 -0.105507868384E+03 -0.105460173675E+03 -0.105409542468E+03
 -0.105355798061E+03 -0.105298753575E+03 -0.105238211408E+03 -0.105173962662E+03 -0.105105786541E+03
 -0.105033449714E+03 -0.104956705647E+03 -0.104875293897E+03 -0.104788939355E+03 -0.104697351458E+03
 -0.104600223338E+03 -0.104497230918E+03 -0.104388031952E+03 -0.104272264988E+03 -0.104149548263E+03
 -0.104019478514E+03 -0.103881629704E+03 -0.103735551654E+03 -0.103580768588E+03 -0.103416777574E+03
 -0.103243046894E+03 -0.103059014324E+03 -0.102864085376E+03 -0.102657631516E+03 -0.102438988420E+03
 -0.102207454340E+03 -0.101962288667E+03 -0.101702710831E+03 -0.101427899687E+03 -0.101136993587E+03
 -0.100829091375E+03 -0.100503254583E+03 -0.100158511131E+03 -0.997938608607E+02 -0.994082832553E+02
 -0.990007476479E+02 -0.985702261972E+02 -0.981157097973E+02 -0.976362269457E+02 -0.971308653939E+02
 -0.965987961477E+02 -0.960392990882E+02 -0.954517891591E+02 -0.948358417436E+02 -0.941912155722E+02
 -0.935178712915E+02 -0.928159837396E+02 -0.920859460221E+02 -0.913283636965E+02 -0.905440377304E+02
 -0.897339353790E+02 -0.888991486788E+02 -0.880408408430E+02 -0.871601814333E+02 -0.862582717777E+02
 -0.853360627582E+02 -0.843942678785E+02 -0.834332755628E+02 -0.824530660263E+02 -0.814531398594E+02
 -0.804324677250E+02 -0.793894733698E+02 -0.783220659274E+02 -0.772153990766E+02 -0.761215686041E+02
 -0.750147444636E+02 -0.738710469758E+02 -0.726929012451E+02 -0.715239891908E+02 -0.703260079690E+02
 -0.690950451185E+02 -0.678383299575E+02 -0.665830513997E+02 -0.653236791265E+02 -0.640590656940E+02
 -0.627913868676E+02 -0.615227227132E+02 -0.602550215233E+02 -0.589900761191E+02 -0.577295002498E+02
 -0.564747132155E+02 -0.552269326439E+02 -0.539871781594E+02 -0.527562866405E+02 -0.515349396867E+02
 -0.503237019290E+02 -0.491230679775E+02 -0.479335146096E+02 -0.467555482868E+02 -0.455897587322E+02
 -0.444368476562E+02 -0.432976556180E+02 -0.421731693520E+02 -0.410645145245E+02 -0.399729343717E+02
 -0.388997564336E+02 -0.378463502098E+02 -0.368140787624E+02 -0.358042472639E+02 -0.348180513137E+02
 -0.338565277674E+02 -0.329205107111E+02 -0.320105952759E+02 -0.311271118111E+02 -0.302701126510E+02
 -0.294393729592E+02 -0.286344060614E+02 -0.278544923014E+02 -0.270987190485E+02 -0.263660283296E+02
 -0.256552678991E+02 -0.249652415141E+02 -0.242947547304E+02 -0.236426534972E+02 -0.230078539946E+02
 -0.223893632855E+02 -0.217862912838E+02 -0.211978551883E+02 -0.206233778781E+02 -0.200622818571E+02
 -0.195140802427E+02 -0.189783660815E+02 -0.184548010177E+02 -0.179431040713E+02 -0.174430410447E+02
 -0.169544148739E+02 -0.164770570862E+02 -0.160108204113E+02 -0.155555725167E+02 -0.151111907893E+02
 -0.146775580634E+02 -0.142545591814E+02 -0.138420782774E+02 -0.134399966805E+02
 core charge-density (pseudized)
  0.204833760988E-09  0.217732540260E-09  0.231443580678E-09  0.246018031901E-09  0.261510264580E-09
  0.277978073193E-09  0.295482891647E-09  0.314090022461E-09  0.333868880380E-09  0.354893251331E-09
  0.377241567681E-09  0.400997200838E-09  0.426248772265E-09  0.453090484095E-09  0.481622470547E-09
  0.511951171486E-09  0.544189729503E-09  0.578458411994E-09  0.614885059827E-09  0.653605564256E-09
  0.694764373868E-09  0.738515033458E-09  0.785020756831E-09  0.834455035682E-09  0.887002286811E-09
  0.942858540098E-09  0.100223216981E-08  0.106534467192E-08  0.113243149046E-08  0.120374289580E-08
  0.127954491833E-08  0.136012034088E-08  0.144576975365E-08  0.153681267559E-08  0.163358874637E-08
  0.173645899343E-08  0.184580717876E-08  0.196204123062E-08  0.208559476527E-08  0.221692870461E-08
  0.235653299568E-08  0.250492843841E-08  0.266266862850E-08  0.283034202260E-08  0.300857413361E-08
  0.319802986416E-08  0.339941598705E-08  0.361348378188E-08  0.384103183777E-08  0.408290903247E-08
  0.434001769917E-08  0.461331699266E-08  0.490382646750E-08  0.521262988148E-08  0.554087923866E-08
  0.588979908691E-08  0.626069108614E-08  0.665493886417E-08  0.707401317840E-08  0.751947740253E-08
  0.799299335872E-08  0.849632751709E-08  0.903135758556E-08  0.960007951469E-08  0.102046149436E-07
  0.108472191148E-07  0.115302892874E-07  0.122563736802E-07  0.130281809775E-07  0.138485904345E-07
  0.147206626177E-07  0.156476508230E-07  0.166330132116E-07  0.176804257109E-07  0.187937957276E-07
  0.199772767242E-07  0.212352837133E-07  0.225725097281E-07  0.239939433294E-07  0.255048872153E-07
  0.271109780029E-07  0.288182072558E-07  0.306329438348E-07  0.325619576573E-07  0.346124449519E-07
  0.367920551035E-07  0.391089191892E-07  0.415716803106E-07  0.441895258363E-07  0.469722216747E-07
  0.499301487049E-07  0.530743415019E-07  0.564165294994E-07  0.599691807459E-07  0.637455484148E-07
  0.677597202438E-07  0.720266710871E-07  0.765623187774E-07  0.813835835039E-07  0.865084509310E-07
  0.919560392896E-07  0.977466706943E-07  0.103901946950E-06  0.110444830134E-06  0.117399728248E-06
  0.124792586265E-06  0.132650982912E-06  0.141004233544E-06  0.149883499490E-06  0.159321904296E-06
  0.169354657273E-06  0.180019184837E-06  0.191355270105E-06  0.203405201292E-06  0.216213929445E-06
  0.229829236106E-06  0.244301911535E-06  0.259685944153E-06  0.276038721906E-06  0.293421246315E-06
  0.311898359994E-06  0.331538988491E-06  0.352416397360E-06  0.374608465409E-06  0.398197975151E-06
  0.423272921538E-06  0.449926840129E-06  0.478259155915E-06  0.508375554098E-06  0.540388374209E-06
  0.574417029029E-06  0.610588449878E-06  0.649037559928E-06  0.689907777300E-06  0.733351549824E-06
  0.779530923446E-06  0.828618146407E-06  0.880796311432E-06  0.936260038327E-06  0.995216199521E-06
  0.105788469125E-05  0.112449925327E-05  0.119530834010E-05  0.127057604709E-05  0.135058309472E-05
  0.143562787484E-05  0.152602756264E-05  0.162211929855E-05  0.172426144452E-05  0.183283491919E-05
  0.194824461701E-05  0.207092091662E-05  0.220132128390E-05  0.233993197591E-05  0.248726985170E-05
  0.264388429705E-05  0.281035927001E-05  0.298731547486E-05  0.317541267271E-05  0.337535213699E-05
  0.358787926318E-05  0.381378634221E-05  0.405391550799E-05  0.430916186963E-05  0.458047684025E-05
  0.486887167437E-05  0.517542122704E-05  0.550126794846E-05  0.584762612882E-05  0.621578640896E-05
  0.660712057325E-05  0.702308664241E-05  0.746523428485E-05  0.793521056620E-05  0.843476605816E-05
  0.896576132887E-05  0.953017383829E-05  0.101301052639E-04  0.107677892831E-04  0.114455998402E-04
  0.121660599287E-04  0.129318509197E-04  0.137458224702E-04  0.146110030468E-04  0.155306111032E-04
  0.165080669502E-04  0.175470053610E-04  0.186512889571E-04  0.198250224213E-04  0.210725675876E-04
  0.223985594629E-04  0.238079232339E-04  0.253058923208E-04  0.268980275383E-04  0.285902374316E-04
  0.303887998570E-04  0.323003848792E-04  0.343320790649E-04  0.364914112537E-04  0.387863798923E-04
  0.412254820232E-04  0.438177440230E-04  0.465727541920E-04  0.495006972981E-04  0.526123911885E-04
  0.559193255830E-04  0.594337031725E-04  0.631684831470E-04  0.671374272899E-04  0.713551487734E-04
  0.758371638014E-04  0.805999462506E-04  0.856609854638E-04  0.910388473586E-04  0.967532390178E-04
  0.102825076934E-03  0.109276559082E-03  0.116131241011E-03  0.123414116123E-03  0.131151700345E-03
  0.139372121372E-03  0.148105212677E-03  0.157382612478E-03  0.167237867854E-03  0.177706544187E-03
  0.188826340119E-03  0.200637208188E-03  0.213181481307E-03  0.226504005228E-03  0.240652277118E-03
  0.255676590342E-03  0.271630185543E-03  0.288569408038E-03  0.306553871534E-03  0.325646628112E-03
  0.345914344362E-03  0.367427483485E-03  0.390260493098E-03  0.414491998377E-03  0.440205000081E-03
  0.467487076837E-03  0.496430590963E-03  0.527132896897E-03  0.559696551138E-03  0.594229522365E-03
  0.630845400156E-03  0.669663600441E-03  0.710809565511E-03  0.754414956011E-03  0.800617831971E-03
  0.849562819430E-03  0.901401258700E-03  0.956291329738E-03  0.101439814943E-02  0.107589383488E-02
  0.114095752591E-02  0.120977535924E-02  0.128254038567E-02  0.135945242046E-02  0.144071781616E-02
  0.152654914546E-02  0.161716478051E-02  0.171278835332E-02  0.181364808048E-02  0.191997593325E-02
  0.203200663254E-02  0.214997644578E-02  0.227412176103E-02  0.240467741110E-02  0.254187471809E-02
  0.268593922680E-02  0.283708809280E-02  0.299552708882E-02  0.316144719115E-02  0.333502070576E-02
  0.351639689260E-02  0.370569704539E-02  0.390300898425E-02  0.410838091892E-02  0.432181464266E-02
  0.454325801976E-02  0.477259673526E-02  0.500964528281E-02  0.525413717688E-02  0.550571438930E-02
  0.576391602746E-02  0.602816629393E-02  0.629776179504E-02  0.657185829972E-02  0.684945709145E-02
  0.712939110520E-02  0.741031110003E-02  0.769067218600E-02  0.796872110328E-02  0.824248474170E-02
  0.850976049040E-02  0.876810912050E-02  0.901485102661E-02  0.924706678488E-02  0.946160312189E-02
  0.965508552687E-02  0.982393887125E-02  0.996441751700E-02  0.100726464851E-01  0.101446753037E-01
  0.101765461411E-01  0.101643777276E-01  0.101044663549E-01  0.999340487214E-02  0.982822003951E-02
  0.960652780613E-02  0.932670499552E-02  0.898807446839E-02  0.859109903310E-02  0.813757715395E-02
  0.763083084197E-02  0.707587300432E-02  0.647953802170E-02  0.585055551864E-02  0.519954337144E-02
  0.453889224859E-02  0.388251081731E-02  0.324539875667E-02  0.264301465870E-02  0.209040874325E-02
  0.160109723525E-02  0.118566761062E-02  0.850123176431E-03  0.594003070571E-03  0.408395333890E-03
  0.277240370311E-03  0.185775025615E-03  0.122831331298E-03  0.801037316694E-04  0.515043219388E-04
  0.326363886311E-04  0.203724169086E-04  0.125220019327E-04  0.757527515406E-05  0.450830130131E-05
  0.263819761430E-05  0.151727715932E-05  0.857160605918E-06  0.475410303565E-06  0.258729670345E-06
  0.138086057402E-06  0.722314610159E-07  0.370096600223E-07  0.185629494615E-07  0.910845686849E-08
  0.436940952226E-08  0.204779353782E-08  0.936982076507E-09  0.418258591348E-09  0.182013624740E-09
  0.771569668921E-10  0.318357285543E-10  0.127752079609E-10  0.498159427524E-11  0.188598229330E-11
  0.692604025446E-12  0.246494315584E-12  0.849349193704E-13  0.283068968066E-13  0.911548357493E-14
  0.283327531106E-14  0.849071924741E-15  0.245050923468E-15  0.680327475072E-16  0.181470860207E-16
  0.464498000278E-17  0.113944347556E-17  0.267522527865E-18  0.600337636740E-19  0.128584722925E-19
  0.262490886242E-20  0.509945345871E-21  0.941350985564E-22  0.164858752089E-22  0.273462739426E-23
  0.428925577688E-24  0.635057769142E-25  0.885970233932E-26  0.116252745537E-26  0.143200576541E-27
  0.165271484844E-28  0.178357309896E-29  0.179607775786E-30  0.168412510742E-31  0.146718129219E-32
  0.118486592989E-33  0.884944603632E-35  0.609787577708E-36  0.386703975621E-37  0.225115334046E-38
  0.119981026466E-39  0.583876096058E-41  0.258709833632E-42  0.104072434120E-43
 pseudo wavefunction
  0.121052327870E-03  0.124805592280E-03  0.128675227799E-03  0.132664842549E-03  0.136778156521E-03
  0.141019005048E-03  0.145391342378E-03  0.149899245361E-03  0.154546917251E-03  0.159338691626E-03
  0.164279036427E-03  0.169372558125E-03  0.174624006016E-03  0.180038276650E-03  0.185620418396E-03
  0.191375636148E-03  0.197309296180E-03  0.203426931149E-03  0.209734245254E-03  0.216237119553E-03
  0.222941617450E-03  0.229853990345E-03  0.236980683465E-03  0.244328341873E-03  0.251903816665E-03
  0.259714171356E-03  0.267766688468E-03  0.276068876320E-03  0.284628476027E-03  0.293453468722E-03
  0.302552082994E-03  0.311932802561E-03  0.321604374182E-03  0.331575815811E-03  0.341856425009E-03
  0.352455787606E-03  0.363383786647E-03  0.374650611601E-03  0.386266767867E-03  0.398243086564E-03
  0.410590734634E-03  0.423321225254E-03  0.436446428569E-03  0.449978582760E-03  0.463930305459E-03
  0.478314605507E-03  0.493144895092E-03  0.508435002246E-03  0.524199183745E-03  0.540452138399E-03
  0.557209020760E-03  0.574485455247E-03  0.592297550721E-03  0.610661915500E-03  0.629595672848E-03
  0.649116476938E-03  0.669242529316E-03  0.689992595870E-03  0.711386024328E-03  0.733442762299E-03
  0.756183375870E-03  0.779629068785E-03  0.803801702211E-03  0.828723815127E-03  0.854418645336E-03
  0.880910151131E-03  0.908223033637E-03  0.936382759839E-03  0.965415586330E-03  0.995348583791E-03
  0.102620966223E-02  0.105802759702E-02  0.109083205568E-02  0.112465362563E-02  0.115952384259E-02
  0.119547522010E-02  0.123254127975E-02  0.127075658247E-02  0.131015676076E-02  0.135077855189E-02
  0.139265983219E-02  0.143583965232E-02  0.148035827370E-02  0.152625720606E-02  0.157357924612E-02
  0.162236851751E-02  0.167267051191E-02  0.172453213142E-02  0.177800173238E-02  0.183312917035E-02
  0.188996584666E-02  0.194856475632E-02  0.200898053742E-02  0.207126952207E-02  0.213548978892E-02
  0.220170121731E-02  0.226996554310E-02  0.234034641621E-02  0.241290945998E-02  0.248772233235E-02
  0.256485478889E-02  0.264437874790E-02  0.272636835739E-02  0.281090006426E-02  0.289805268553E-02
  0.298790748181E-02  0.308054823308E-02  0.317606131676E-02  0.327453578824E-02  0.337606346392E-02
  0.348073900673E-02  0.358866001443E-02  0.369992711055E-02  0.381464403820E-02  0.393291775672E-02
  0.405485854143E-02  0.418058008637E-02  0.431019961025E-02  0.444383796575E-02  0.458161975207E-02
  0.472367343111E-02  0.487013144713E-02  0.502113035022E-02  0.517681092346E-02  0.533731831417E-02
  0.550280216910E-02  0.567341677388E-02  0.584932119672E-02  0.603067943663E-02  0.621766057616E-02
  0.641043893893E-02  0.660919425193E-02  0.681411181298E-02  0.702538266325E-02  0.724320376516E-02
  0.746777818577E-02  0.769931528587E-02  0.793803091486E-02  0.818414761168E-02  0.843789481194E-02
  0.869950906143E-02  0.896923423628E-02  0.924732176981E-02  0.953403088649E-02  0.982962884302E-02
  0.101343911769E-01  0.104486019627E-01  0.107725540759E-01  0.111065494657E-01  0.114508994350E-01
  0.118059249300E-01  0.121719568383E-01  0.125493362962E-01  0.129384150054E-01  0.133395555595E-01
  0.137531317805E-01  0.141795290656E-01  0.146191447447E-01  0.150723884485E-01  0.155396824885E-01
  0.160214622481E-01  0.165181765857E-01  0.170302882501E-01  0.175582743089E-01  0.181026265896E-01
  0.186638521341E-01  0.192424736672E-01  0.198390300789E-01  0.204540769221E-01  0.210881869244E-01
  0.217419505159E-01  0.224159763731E-01  0.231108919784E-01  0.238273441969E-01  0.245659998709E-01
  0.253275464312E-01  0.261126925272E-01  0.269221686757E-01  0.277567279289E-01  0.286171465622E-01
  0.295042247822E-01  0.304187874551E-01  0.313616848575E-01  0.323337934479E-01  0.333360166616E-01
  0.343692857274E-01  0.354345605092E-01  0.365328303709E-01  0.376651150654E-01  0.388324656502E-01
  0.400359654276E-01  0.412767309116E-01  0.425559128214E-01  0.438746971026E-01  0.452343059760E-01
  0.466359990148E-01  0.480810742511E-01  0.495708693107E-01  0.511067625785E-01  0.526901743944E-01
  0.543225682781E-01  0.560054521868E-01  0.577403798021E-01  0.595289518497E-01  0.613728174499E-01
  0.632736754994E-01  0.652332760851E-01  0.672534219295E-01  0.693359698664E-01  0.714828323486E-01
  0.736959789856E-01  0.759774381107E-01  0.783292983779E-01  0.807537103867E-01  0.832528883333E-01
  0.858291116884E-01  0.884847268978E-01  0.912221491060E-01  0.940438638988E-01  0.969524290636E-01
  0.999504763637E-01  0.103040713324E+00  0.106225925021E+00  0.109508975883E+00  0.112892811477E+00
  0.116380460297E+00  0.119975035535E+00  0.123679736829E+00  0.127497851990E+00  0.131432758681E+00
  0.135487926058E+00  0.139666916348E+00  0.143973386362E+00  0.148411088922E+00  0.152983874192E+00
  0.157695690894E+00  0.162550587400E+00  0.167552712660E+00  0.172706316973E+00  0.178015752551E+00
  0.183485473863E+00  0.189120037733E+00  0.194924103148E+00  0.200902430756E+00  0.207059882003E+00
  0.213401417876E+00  0.219932097209E+00  0.226657074488E+00  0.233581597119E+00  0.240711002088E+00
  0.248050711960E+00  0.255606230125E+00  0.263383135250E+00  0.271387074823E+00  0.279623757716E+00
  0.288098945666E+00  0.296818443580E+00  0.305788088527E+00  0.315013737329E+00  0.324501252591E+00
  0.334256487054E+00  0.344285266096E+00  0.354593368251E+00  0.365186503546E+00  0.376070289494E+00
  0.387250224539E+00  0.398731658753E+00  0.410519761567E+00  0.422619486316E+00  0.435035531346E+00
  0.447772297459E+00  0.460833841416E+00  0.474223825255E+00  0.487945461146E+00  0.502001451520E+00
  0.516393924184E+00  0.531124362185E+00  0.546193528129E+00  0.561601382738E+00  0.577346997402E+00
  0.593428460536E+00  0.609842777569E+00  0.626585764467E+00  0.643651934714E+00  0.661034379768E+00
  0.678724643107E+00  0.696712588051E+00  0.714986259699E+00  0.733531741458E+00  0.752333006798E+00
  0.771371767086E+00  0.790627316531E+00  0.810076375587E+00  0.829692934367E+00  0.849448097982E+00
  0.869309936047E+00  0.889243338920E+00  0.909209883695E+00  0.929167713284E+00  0.949071432400E+00
  0.968872024595E+00  0.988516794899E+00  0.100794934290E+01  0.102710957137E+01  0.104593373563E+01
  0.106435453873E+01  0.108230127751E+01  0.109970004362E+01  0.111647398306E+01  0.113254361616E+01
  0.114782721819E+01  0.116224125794E+01  0.117570088856E+01  0.118812048038E+01  0.119941418045E+01
  0.120949647692E+01  0.121828273910E+01  0.122568969528E+01  0.123163580054E+01  0.123604143621E+01
  0.123882887141E+01  0.123992190545E+01  0.123924509966E+01  0.123672249782E+01  0.123227572920E+01
  0.122582138717E+01  0.121726758367E+01  0.120650959674E+01  0.119342455942E+01  0.117785650663E+01
  0.115980407415E+01  0.113935785798E+01  0.111664160819E+01  0.109179088502E+01  0.106495196316E+01
  0.103628065212E+01  0.100594104689E+01  0.974104222815E+00  0.940946884623E+00  0.906649984072E+00
  0.871397319939E+00  0.835374121422E+00  0.798765638307E+00  0.761755737310E+00  0.724525517943E+00
  0.687251956735E+00  0.650106590034E+00  0.613254247144E+00  0.576851847156E+00  0.541047274872E+00
  0.505978353121E+00  0.471771929957E+00  0.438543099423E+00  0.406394573568E+00  0.375416220430E+00
  0.345684777895E+00  0.317263749229E+00  0.290203477998E+00  0.264541394999E+00  0.240302423582E+00
  0.217499525102E+00  0.196134362947E+00  0.176198061828E+00  0.157672038784E+00  0.140528883444E+00
  0.124733267246E+00  0.110242864211E+00  0.970092692067E-01  0.849789030078E-01  0.740938966625E-01
  0.642929502896E-01  0.555121633424E-01  0.476858343660E-01  0.407472283747E-01  0.346293092883E-01
  0.292654336472E-01  0.245900004226E-01  0.205390504894E-01  0.170508085666E-01  0.140661603432E-01
  0.115290581912E-01  0.938685027015E-02  0.759052980389E-02  0.609490365565E-02  0.485868180901E-02
  0.384449176653E-02  0.301882402021E-02  0.235191649745E-02  0.181758716229E-02  0.139302472135E-02
  0.105854765809E-02  0.797341638674E-03  0.595184763144E-03  0.440169255722E-03  0.322427082540E-03
  0.233865738804E-03  0.167919139971E-03  0.119317253081E-03  0.838768739820E-04
 ae wavefunction
 -0.597520735656E-03 -0.616014833516E-03 -0.635081119710E-03 -0.654737283031E-03 -0.675001558229E-03
 -0.695892742789E-03 -0.717430214272E-03 -0.739633948112E-03 -0.762524536013E-03 -0.786123204893E-03
 -0.810451836374E-03 -0.835532986931E-03 -0.861389908572E-03 -0.888046570224E-03 -0.915527679723E-03
 -0.943858706490E-03 -0.973065904891E-03 -0.100317633831E-02 -0.103421790396E-02 -0.106621935841E-02
 -0.109921034397E-02 -0.113322141574E-02 -0.116828406964E-02 -0.120443077116E-02 -0.124169498502E-02
 -0.128011120577E-02 -0.131971498924E-02 -0.136054298498E-02 -0.140263296969E-02 -0.144602388164E-02
 -0.149075585607E-02 -0.153687026180E-02 -0.158440973876E-02 -0.163341823680E-02 -0.168394105554E-02
 -0.173602488552E-02 -0.178971785052E-02 -0.184506955110E-02 -0.190213110956E-02 -0.196095521618E-02
 -0.202159617672E-02 -0.208410996161E-02 -0.214855425628E-02 -0.221498851321E-02 -0.228347400544E-02
 -0.235407388162E-02 -0.242685322282E-02 -0.250187910081E-02 -0.257922063826E-02 -0.265894907056E-02
 -0.274113780956E-02 -0.282586250905E-02 -0.291320113230E-02 -0.300323402146E-02 -0.309604396902E-02
 -0.319171629130E-02 -0.329033890421E-02 -0.339200240092E-02 -0.349680013216E-02 -0.360482828849E-02
 -0.371618598495E-02 -0.383097534858E-02 -0.394930160766E-02 -0.407127318425E-02 -0.419700178895E-02
 -0.432660251835E-02 -0.446019395534E-02 -0.459789827220E-02 -0.473984133668E-02 -0.488615282074E-02
 -0.503696631265E-02 -0.519241943205E-02 -0.535265394823E-02 -0.551781590145E-02 -0.568805572804E-02
 -0.586352838838E-02 -0.604439349869E-02 -0.623081546636E-02 -0.642296362871E-02 -0.662101239568E-02
 -0.682514139614E-02 -0.703553562825E-02 -0.725238561349E-02 -0.747588755514E-02 -0.770624350027E-02
 -0.794366150648E-02 -0.818835581264E-02 -0.844054701391E-02 -0.870046224119E-02 -0.896833534525E-02
 -0.924440708505E-02 -0.952892532113E-02 -0.982214521332E-02 -0.101243294231E-01 -0.104357483216E-01
 -0.107566802015E-01 -0.110874114939E-01 -0.114282369916E-01 -0.117794600753E-01 -0.121413929463E-01
 -0.125143568642E-01 -0.128986823892E-01 -0.132947096298E-01 -0.137027884960E-01 -0.141232789571E-01
 -0.145565513055E-01 -0.150029864247E-01 -0.154629760632E-01 -0.159369231134E-01 -0.164252418953E-01
 -0.169283584453E-01 -0.174467108106E-01 -0.179807493472E-01 -0.185309370238E-01 -0.190977497300E-01
 -0.196816765884E-01 -0.202832202720E-01 -0.209028973251E-01 -0.215412384881E-01 -0.221987890263E-01
 -0.228761090618E-01 -0.235737739088E-01 -0.242923744114E-01 -0.250325172839E-01 -0.257948254530E-01
 -0.265799384020E-01 -0.273885125151E-01 -0.282212214235E-01 -0.290787563503E-01 -0.299618264551E-01
 -0.308711591773E-01 -0.318075005778E-01 -0.327716156756E-01 -0.337642887841E-01 -0.347863238386E-01
 -0.358385447208E-01 -0.369217955756E-01 -0.380369411190E-01 -0.391848669375E-01 -0.403664797757E-01
 -0.415827078128E-01 -0.428345009239E-01 -0.441228309265E-01 -0.454486918090E-01 -0.468130999400E-01
 -0.482170942559E-01 -0.496617364254E-01 -0.511481109857E-01 -0.526773254533E-01 -0.542505103996E-01
 -0.558688194954E-01 -0.575334295151E-01 -0.592455403026E-01 -0.610063746911E-01 -0.628171783757E-01
 -0.646792197341E-01 -0.665937895912E-01 -0.685622009228E-01 -0.705857884945E-01 -0.726659084303E-01
 -0.748039377061E-01 -0.770012735604E-01 -0.792593328232E-01 -0.815795511431E-01 -0.839633821262E-01
 -0.864122963562E-01 -0.889277803131E-01 -0.915113351615E-01 -0.941644754127E-01 -0.968887274514E-01
 -0.996856279129E-01 -0.102556721905E+00 -0.105503561068E+00 -0.108527701450E+00 -0.111630701213E+00
 -0.114814118121E+00 -0.118079506835E+00 -0.121428415983E+00 -0.124862384991E+00 -0.128382940679E+00
 -0.131991593587E+00 -0.135689834031E+00 -0.139479127873E+00 -0.143360911987E+00 -0.147336589402E+00
 -0.151407524116E+00 -0.155575035559E+00 -0.159840392683E+00 -0.164204807674E+00 -0.168669429259E+00
 -0.173235335590E+00 -0.177903526696E+00 -0.182674916475E+00 -0.187550324209E+00 -0.192530465591E+00
 -0.197615943236E+00 -0.202807236663E+00 -0.208104691727E+00 -0.213508509486E+00 -0.219018734481E+00
 -0.224635242419E+00 -0.230357727232E+00 -0.236185687513E+00 -0.242118412285E+00 -0.248154966137E+00
 -0.254294173660E+00 -0.260534603230E+00 -0.266874550063E+00 -0.273312018617E+00 -0.279844704268E+00
 -0.286469974289E+00 -0.293184848148E+00 -0.299985977106E+00 -0.306869623139E+00 -0.313831637201E+00
 -0.320867436840E+00 -0.327971983207E+00 -0.335139757462E+00 -0.342364736653E+00 -0.349640369077E+00
 -0.356959549196E+00 -0.364314592165E+00 -0.371697208025E+00 -0.379098475673E+00 -0.386508816654E+00
 -0.393917968905E+00 -0.401314960554E+00 -0.408688083878E+00 -0.416024869573E+00 -0.423312061481E+00
 -0.430535591913E+00 -0.437680557768E+00 -0.444731197617E+00 -0.451670869970E+00 -0.458482032932E+00
 -0.465146225483E+00 -0.471644050653E+00 -0.477955160836E+00 -0.484058245525E+00 -0.489931021807E+00
 -0.495550227880E+00 -0.500891619967E+00 -0.505929972970E+00 -0.510639085206E+00 -0.514991787638E+00
 -0.518959957972E+00 -0.522514540044E+00 -0.525625568897E+00 -0.528262201999E+00 -0.530392757028E+00
 -0.531984756669E+00 -0.533004980871E+00 -0.533419527022E+00 -0.533193878477E+00 -0.532292981882E+00
 -0.530681333744E+00 -0.528323076625E+00 -0.525182105402E+00 -0.521222183927E+00 -0.516407072438E+00
 -0.510700666027E+00 -0.504067144395E+00 -0.496471133100E+00 -0.487877876417E+00 -0.478253421844E+00
 -0.467564816227E+00 -0.455780313340E+00 -0.442869592659E+00 -0.428803988939E+00 -0.413556732056E+00
 -0.397103196421E+00 -0.379421159124E+00 -0.360491065758E+00 -0.340296302740E+00 -0.318823474741E+00
 -0.296062685658E+00 -0.272007821446E+00 -0.246656832924E+00 -0.220012016624E+00 -0.192080291620E+00
 -0.162873470240E+00 -0.132408520544E+00 -0.100707818388E+00 -0.677993868968E-01 -0.337171209731E-01
  0.149900576967E-02  0.378027548167E-01  0.751414614252E-01  0.113455903799E+00  0.152680210798E+00
  0.192741819712E+00  0.233561500390E+00  0.275053467797E+00  0.317125610135E+00  0.359679860058E+00
  0.402612723968E+00  0.445815947707E+00  0.489177227908E+00  0.532580787409E+00  0.575907567207E+00
  0.619034825511E+00  0.661835134723E+00  0.704175089366E+00  0.745914316330E+00  0.786905396657E+00
  0.826994972398E+00  0.866025784080E+00  0.903839035595E+00  0.940276533184E+00  0.975182363599E+00
  0.100840416890E+01  0.103979420101E+01  0.106921031291E+01  0.109651698211E+01  0.112158639435E+01
  0.114429957538E+01  0.116454754301E+01  0.118223243730E+01  0.119726859536E+01  0.120958353549E+01
  0.121911882836E+01  0.122583083506E+01  0.122969129806E+01  0.123068778041E+01  0.122882394348E+01
  0.122411966562E+01  0.121661099837E+01  0.120634996724E+01  0.119340421646E+01  0.117785650663E+01
  0.115980407415E+01  0.113935785798E+01  0.111664160819E+01  0.109179088502E+01  0.106495196316E+01
  0.103628065212E+01  0.100594104689E+01  0.974104222815E+00  0.940946884623E+00  0.906649984072E+00
  0.871397319939E+00  0.835374121422E+00  0.798765638307E+00  0.761755737310E+00  0.724525517943E+00
  0.687251956735E+00  0.650106590034E+00  0.613254247144E+00  0.576851847156E+00  0.541047274872E+00
  0.505978353121E+00  0.471771929957E+00  0.438543099423E+00  0.406394573568E+00  0.375416220430E+00
  0.345684777895E+00  0.317263749229E+00  0.290203477998E+00  0.264541394999E+00  0.240302423582E+00
  0.217499525102E+00  0.196134362947E+00  0.176198061828E+00  0.157672038784E+00  0.140528883444E+00
  0.124733267246E+00  0.110242864211E+00  0.970092692067E-01  0.849789030078E-01  0.740938966625E-01
  0.642929502896E-01  0.555121633424E-01  0.476858343660E-01  0.407472283747E-01  0.346293092883E-01
  0.292654336472E-01  0.245900004226E-01  0.205390504894E-01  0.170508085666E-01  0.140661603432E-01
  0.115290581912E-01  0.938685027015E-02  0.759052980389E-02  0.609490365565E-02  0.485868180901E-02
  0.384449176653E-02  0.301882402021E-02  0.235191649745E-02  0.181758716229E-02  0.139302472135E-02
  0.105854765809E-02  0.797341638674E-03  0.595184763144E-03  0.440169255722E-03  0.322427082540E-03
  0.233865738804E-03  0.167919139971E-03  0.119317253081E-03  0.838768739820E-04
 pseudo wavefunction
  0.149287264532E-03  0.153915961780E-03  0.158688173198E-03  0.163608348488E-03  0.168681075314E-03
  0.173911083583E-03  0.179303249855E-03  0.184862601887E-03  0.190594323325E-03  0.196503758534E-03
  0.202596417584E-03  0.208877981386E-03  0.215354306989E-03  0.222031433042E-03  0.228915585423E-03
  0.236013183046E-03  0.243330843847E-03  0.250875390949E-03  0.258653859033E-03  0.266673500887E-03
  0.274941794179E-03  0.283466448421E-03  0.292255412161E-03  0.301316880396E-03  0.310659302208E-03
  0.320291388649E-03  0.330222120856E-03  0.340460758433E-03  0.351016848076E-03  0.361900232483E-03
  0.373121059525E-03  0.384689791712E-03  0.396617215947E-03  0.408914453584E-03  0.421592970797E-03
  0.434664589272E-03  0.448141497230E-03  0.462036260792E-03  0.476361835694E-03  0.491131579368E-03
  0.506359263398E-03  0.522059086358E-03  0.538245687053E-03  0.554934158169E-03  0.572140060344E-03
  0.589879436677E-03  0.608168827689E-03  0.627025286742E-03  0.646466395943E-03  0.666510282537E-03
  0.687175635806E-03  0.708481724502E-03  0.730448414804E-03  0.753096188850E-03  0.776446163831E-03
  0.800520111679E-03  0.825340479372E-03  0.850930409858E-03  0.877313763640E-03  0.904515141018E-03
  0.932559905031E-03  0.961474205102E-03  0.991285001422E-03  0.102202009009E-02  0.105370812901E-02
  0.108637866466E-02  0.112006215959E-02  0.115479002084E-02  0.119059462924E-02  0.122750936958E-02
  0.126556866178E-02  0.130480799290E-02  0.134526395033E-02  0.138697425581E-02  0.142997780067E-02
  0.147431468206E-02  0.152002624034E-02  0.156715509763E-02  0.161574519755E-02  0.166584184616E-02
  0.171749175427E-02  0.177074308093E-02  0.182564547836E-02  0.188225013823E-02  0.194060983941E-02
  0.200077899716E-02  0.206281371386E-02  0.212677183135E-02  0.219271298481E-02  0.226069865839E-02
  0.233079224255E-02  0.240305909312E-02  0.247756659225E-02  0.255438421125E-02  0.263358357532E-02
  0.271523853038E-02  0.279942521185E-02  0.288622211568E-02  0.297571017153E-02  0.306797281818E-02
  0.316309608136E-02  0.326116865390E-02  0.336228197847E-02  0.346653033279E-02  0.357401091750E-02
  0.368482394682E-02  0.379907274193E-02  0.391686382730E-02  0.403830702998E-02  0.416351558199E-02
  0.429260622584E-02  0.442569932337E-02  0.456291896793E-02  0.470439310005E-02  0.485025362665E-02
  0.500063654406E-02  0.515568206466E-02  0.531553474766E-02  0.548034363374E-02  0.565026238400E-02
  0.582544942312E-02  0.600606808699E-02  0.619228677492E-02  0.638427910654E-02  0.658222408359E-02
  0.678630625665E-02  0.699671589712E-02  0.721364917445E-02  0.743730833887E-02  0.766790190983E-02
  0.790564487017E-02  0.815075886637E-02  0.840347241498E-02  0.866402111537E-02  0.893264786919E-02
  0.920960310647E-02  0.949514501878E-02  0.978953979957E-02  0.100930618920E-01  0.104059942442E-01
  0.107286285730E-01  0.110612656346E-01  0.114042155053E-01  0.117577978692E-01  0.121223423159E-01
  0.124981886470E-01  0.128856871918E-01  0.132851991333E-01  0.136970968437E-01  0.141217642303E-01
  0.145595970926E-01  0.150110034893E-01  0.154764041181E-01  0.159562327052E-01  0.164509364089E-01
  0.169609762337E-01  0.174868274583E-01  0.180289800763E-01  0.185879392504E-01  0.191642257800E-01
  0.197583765845E-01  0.203709451995E-01  0.210025022895E-01  0.216536361758E-01  0.223249533801E-01
  0.230170791853E-01  0.237306582125E-01  0.244663550163E-01  0.252248546976E-01  0.260068635351E-01
  0.268131096356E-01  0.276443436041E-01  0.285013392343E-01  0.293848942191E-01  0.302958308829E-01
  0.312349969356E-01  0.322032662490E-01  0.332015396567E-01  0.342307457764E-01  0.352918418582E-01
  0.363858146567E-01  0.375136813289E-01  0.386764903586E-01  0.398753225072E-01  0.411112917930E-01
  0.423855464971E-01  0.436992702002E-01  0.450536828471E-01  0.464500418430E-01  0.478896431795E-01
  0.493738225928E-01  0.509039567541E-01  0.524814644929E-01  0.541078080533E-01  0.557844943854E-01
  0.575130764706E-01  0.592951546825E-01  0.611323781834E-01  0.630264463582E-01  0.649791102833E-01
  0.669921742344E-01  0.690674972310E-01  0.712069946190E-01  0.734126396913E-01  0.756864653468E-01
  0.780305657876E-01  0.804470982541E-01  0.829382847987E-01  0.855064140965E-01  0.881538432937E-01
  0.908829998922E-01  0.936963836702E-01  0.965965686370E-01  0.995862050217E-01  0.102668021293E+00
  0.105844826210E+00  0.109119510899E+00  0.112495050956E+00  0.115974508577E+00  0.119561034692E+00
  0.123257871137E+00  0.127068352813E+00  0.130995909866E+00  0.135044069864E+00  0.139216459963E+00
  0.143516809065E+00  0.147948949948E+00  0.152516821374E+00  0.157224470150E+00  0.162076053138E+00
  0.167075839203E+00  0.172228211081E+00  0.177537667157E+00  0.183008823127E+00  0.188646413536E+00
  0.194455293162E+00  0.200440438234E+00  0.206606947444E+00  0.212960042735E+00  0.219505069837E+00
  0.226247498509E+00  0.233192922453E+00  0.240347058861E+00  0.247715747551E+00  0.255304949640E+00
  0.263120745703E+00  0.271169333359E+00  0.279457024220E+00  0.287990240131E+00  0.296775508635E+00
  0.305819457566E+00  0.315128808687E+00  0.324710370283E+00  0.334571028585E+00  0.344717737927E+00
  0.355157509503E+00  0.365897398589E+00  0.376944490085E+00  0.388305882222E+00  0.399988668265E+00
  0.411999916020E+00  0.424346644969E+00  0.437035800798E+00  0.450074227120E+00  0.463468634134E+00
  0.477225563977E+00  0.491351352496E+00  0.505852087151E+00  0.520733560756E+00  0.536001220738E+00
  0.551660113580E+00  0.567714824115E+00  0.584169409298E+00  0.601027326118E+00  0.618291353241E+00
  0.635963506045E+00  0.654044944641E+00  0.672535874521E+00  0.691435439472E+00  0.710741606410E+00
  0.730451041819E+00  0.750558979520E+00  0.771059079534E+00  0.791943277882E+00  0.813201627221E+00
  0.834822128345E+00  0.856790552660E+00  0.879090255907E+00  0.901701983576E+00  0.924603668626E+00
  0.947770222372E+00  0.971173319653E+00  0.994781179674E+00  0.101855834427E+01  0.104246545568E+01
  0.106645903633E+01  0.109049127353E+01  0.111450981256E+01  0.113845756190E+01  0.116227251507E+01
  0.118588759387E+01  0.120923051836E+01  0.123222370938E+01  0.125478422949E+01  0.127682376876E+01
  0.129824868171E+01  0.131896008123E+01  0.133885399537E+01  0.135782159136E+01  0.137574947023E+01
  0.139252003308E+01  0.140801191769E+01  0.142210050005E+01  0.143465845156E+01  0.144555633627E+01
  0.145466322656E+01  0.146184730715E+01  0.146697642856E+01  0.146991856085E+01  0.147054208773E+01
  0.146871586950E+01  0.146430899267E+01  0.145719011414E+01  0.144722630064E+01  0.143428126144E+01
  0.141821287573E+01  0.139886992933E+01  0.137608800034E+01  0.134968447568E+01  0.131945933684E+01
  0.128534070443E+01  0.124740983238E+01  0.120576700504E+01  0.116052357955E+01  0.111180014787E+01
  0.105972450117E+01  0.100442939748E+01  0.946050130165E+00  0.884721888104E+00  0.820576899290E+00
  0.000000000000E+00  0.000000000000E+00  0.000000000000E+00  0.000000000000E+00  0.000000000000E+00
  0.000000000000E+00  0.000000000000E+00  0.000000000000E+00  0.000000000000E+00  0.000000000000E+00
  0.000000000000E+00  0.000000000000E+00  0.000000000000E+00  0.000000000000E+00  0.000000000000E+00
  0.000000000000E+00  0.000000000000E+00  0.000000000000E+00  0.000000000000E+00  0.000000000000E+00
  0.000000000000E+00  0.000000000000E+00  0.000000000000E+00  0.000000000000E+00  0.000000000000E+00
  0.000000000000E+00  0.000000000000E+00  0.000000000000E+00  0.000000000000E+00  0.000000000000E+00
  0.000000000000E+00  0.000000000000E+00  0.000000000000E+00  0.000000000000E+00  0.000000000000E+00
  0.000000000000E+00  0.000000000000E+00  0.000000000000E+00  0.000000000000E+00  0.000000000000E+00
  0.000000000000E+00  0.000000000000E+00  0.000000000000E+00  0.000000000000E+00  0.000000000000E+00
  0.000000000000E+00  0.000000000000E+00  0.000000000000E+00  0.000000000000E+00  0.000000000000E+00
  0.000000000000E+00  0.000000000000E+00  0.000000000000E+00  0.000000000000E+00  0.000000000000E+00
  0.000000000000E+00  0.000000000000E+00  0.000000000000E+00  0.000000000000E+00
 ae wavefunction
 -0.729083209672E-03 -0.751649349047E-03 -0.774913661521E-03 -0.798897730612E-03 -0.823623806010E-03
 -0.849114824039E-03 -0.875394428824E-03 -0.902486994000E-03 -0.930417645165E-03 -0.959212282990E-03
 -0.988897607008E-03 -0.101950114019E-02 -0.105105125418E-02 -0.108357719540E-02 -0.111710911187E-02
 -0.115167808088E-02 -0.118731613750E-02 -0.122405630395E-02 -0.126193261985E-02 -0.130098017343E-02
 -0.134123513362E-02 -0.138273478321E-02 -0.142551755287E-02 -0.146962305637E-02 -0.151509212672E-02
 -0.156196685348E-02 -0.161029062118E-02 -0.166010814891E-02 -0.171146553104E-02 -0.176441027929E-02
 -0.181899136591E-02 -0.187525926833E-02 -0.193326601494E-02 -0.199306523250E-02 -0.205471219474E-02
 -0.211826387252E-02 -0.218377898553E-02 -0.225131805543E-02 -0.232094346064E-02 -0.239271949281E-02
 -0.246671241477E-02 -0.254299052053E-02 -0.262162419674E-02 -0.270268598615E-02 -0.278625065290E-02
 -0.287239524978E-02 -0.296119918739E-02 -0.305274430542E-02 -0.314711494598E-02 -0.324439802910E-02
 -0.334468313047E-02 -0.344806256137E-02 -0.355463145104E-02 -0.366448783139E-02 -0.377773272419E-02
 -0.389447023074E-02 -0.401480762428E-02 -0.413885544482E-02 -0.426672759708E-02 -0.439854145087E-02
 -0.453441794442E-02 -0.467448169108E-02 -0.481886108836E-02 -0.496768843069E-02 -0.512110002511E-02
 -0.527923631020E-02 -0.544224197844E-02 -0.561026610201E-02 -0.578346226222E-02 -0.596198868220E-02
 -0.614600836369E-02 -0.633568922741E-02 -0.653120425741E-02 -0.673273164906E-02 -0.694045496172E-02
 -0.715456327495E-02 -0.737525134920E-02 -0.760271979106E-02 -0.783717522243E-02 -0.807883045482E-02
 -0.832790466767E-02 -0.858462359194E-02 -0.884921969804E-02 -0.912193238914E-02 -0.940300819892E-02
 -0.969270099491E-02 -0.999127218693E-02 -0.102989909406E-01 -0.106161343962E-01 -0.109429878936E-01
 -0.112798452017E-01 -0.116270087547E-01 -0.119847898932E-01 -0.123535091110E-01 -0.127334963091E-01
 -0.131250910542E-01 -0.135286428434E-01 -0.139445113762E-01 -0.143730668309E-01 -0.148146901489E-01
 -0.152697733236E-01 -0.157387196972E-01 -0.162219442622E-01 -0.167198739708E-01 -0.172329480492E-01
 -0.177616183193E-01 -0.183063495261E-01 -0.188676196719E-01 -0.194459203559E-01 -0.200417571213E-01
 -0.206556498073E-01 -0.212881329077E-01 -0.219397559354E-01 -0.226110837929E-01 -0.233026971479E-01
 -0.240151928150E-01 -0.247491841418E-01 -0.255053014013E-01 -0.262841921881E-01 -0.270865218190E-01
 -0.279129737386E-01 -0.287642499279E-01 -0.296410713168E-01 -0.305441781989E-01 -0.314743306494E-01
 -0.324323089447E-01 -0.334189139825E-01 -0.344349677042E-01 -0.354813135155E-01 -0.365588167066E-01
 -0.376683648719E-01 -0.388108683252E-01 -0.399872605123E-01 -0.411984984191E-01 -0.424455629728E-01
 -0.437294594372E-01 -0.450512177983E-01 -0.464118931412E-01 -0.478125660136E-01 -0.492543427782E-01
 -0.507383559486E-01 -0.522657645086E-01 -0.538377542120E-01 -0.554555378617E-01 -0.571203555650E-01
 -0.588334749612E-01 -0.605961914223E-01 -0.624098282198E-01 -0.642757366573E-01 -0.661952961646E-01
 -0.681699143494E-01 -0.702010270034E-01 -0.722900980589E-01 -0.744386194909E-01 -0.766481111602E-01
 -0.789201205948E-01 -0.812562227004E-01 -0.836580193989E-01 -0.861271391862E-01 -0.886652366046E-01
 -0.912739916234E-01 -0.939551089186E-01 -0.967103170521E-01 -0.995413675274E-01 -0.102450033736E+00
 -0.105438109762E+00 -0.108507409056E+00 -0.111659762960E+00 -0.114897019067E+00 -0.118221039424E+00
 -0.121633698546E+00 -0.125136881245E+00 -0.128732480257E+00 -0.132422393652E+00 -0.136208522016E+00
 -0.140092765397E+00 -0.144077019991E+00 -0.148163174563E+00 -0.152353106573E+00 -0.156648678015E+00
 -0.161051730929E+00 -0.165564082581E+00 -0.170187520290E+00 -0.174923795884E+00 -0.179774619772E+00
 -0.184741654598E+00 -0.189826508473E+00 -0.195030727753E+00 -0.200355789352E+00 -0.205803092555E+00
 -0.211373950326E+00 -0.217069580074E+00 -0.222891093865E+00 -0.228839488046E+00 -0.234915632273E+00
 -0.241120257908E+00 -0.247453945770E+00 -0.253917113206E+00 -0.260510000481E+00 -0.267232656439E+00
 -0.274084923439E+00 -0.281066421524E+00 -0.288176531826E+00 -0.295414379162E+00 -0.302778813841E+00
 -0.310268392619E+00 -0.317881358857E+00 -0.325615621784E+00 -0.333468734958E+00 -0.341437873827E+00
 -0.349519812458E+00 -0.357710899405E+00 -0.366007032731E+00 -0.374403634195E+00 -0.382895622627E+00
 -0.391477386514E+00 -0.400142755825E+00 -0.408884973111E+00 -0.417696663935E+00 -0.426569806678E+00
 -0.435495701786E+00 -0.444464940534E+00 -0.453467373376E+00 -0.462492078017E+00 -0.471527327247E+00
 -0.480560556724E+00 -0.489578332797E+00 -0.498566320532E+00 -0.507509252095E+00 -0.516390895690E+00
 -0.525194025220E+00 -0.533900390901E+00 -0.542490691058E+00 -0.550944545351E+00 -0.559240469687E+00
 -0.567355853129E+00 -0.575266937086E+00 -0.582948797138E+00 -0.590375327807E+00 -0.597519230696E+00
 -0.604352006335E+00 -0.610843950174E+00 -0.616964153158E+00 -0.622680507307E+00 -0.627959716804E+00
 -0.632767315053E+00 -0.637067688231E+00 -0.640824105833E+00 -0.643998758765E+00 -0.646552805515E+00
 -0.648446426958E+00 -0.649638890362E+00 -0.650088623143E+00 -0.649753296946E+00 -0.648589922589E+00
 -0.646554956437E+00 -0.643604418705E+00 -0.639694024230E+00 -0.634779326152E+00 -0.628815872969E+00
 -0.621759379341E+00 -0.613565910987E+00 -0.604192083920E+00 -0.593595278243E+00 -0.581733866539E+00
 -0.568567456902E+00 -0.554057150415E+00 -0.538165812829E+00 -0.520858359985E+00 -0.502102056395E+00
 -0.481866826162E+00 -0.460125575274E+00 -0.436854524052E+00 -0.412033548341E+00 -0.385646527818E+00
 -0.357681699570E+00 -0.328132014912E+00 -0.296995497246E+00 -0.264275598616E+00 -0.229981552527E+00
 -0.194128720504E+00 -0.156738929856E+00 -0.117840800045E+00 -0.774700550017E-01 -0.356698185526E-01
  0.750911024754E-02  0.520080057472E-01  0.977599933650E-01  0.144689863247E+00  0.192713929836E+00
  0.241739951578E+00  0.291667130880E+00  0.342386221450E+00  0.393779776391E+00  0.445722570672E+00
  0.498082216023E+00  0.550719940917E+00  0.603491423401E+00  0.656247453193E+00  0.708834119610E+00
  0.761092270402E+00  0.812856234173E+00  0.863952194816E+00  0.914196945933E+00  0.963397771203E+00
  0.101135378135E+01  0.105785839028E+01  0.110270218821E+01  0.114567553457E+01  0.118657058572E+01
  0.122518283076E+01  0.126131236081E+01  0.129476506425E+01  0.132535386370E+01  0.135290002854E+01
  0.137723454665E+01  0.139819951999E+01  0.141564953178E+01  0.142945294282E+01  0.143949307283E+01
  0.144566923794E+01  0.144789761826E+01  0.144611193653E+01  0.144026393971E+01  0.143032366936E+01
  0.141627952013E+01  0.139813807923E+01  0.137592375061E+01  0.134967815869E+01  0.131945933684E+01
  0.128534070443E+01  0.124740983238E+01  0.120576700504E+01  0.116052357955E+01  0.111180014787E+01
  0.105972450117E+01  0.100442939748E+01  0.946050130165E+00  0.884721888104E+00  0.820576899290E+00
  0.000000000000E+00  0.000000000000E+00  0.000000000000E+00  0.000000000000E+00  0.000000000000E+00
  0.000000000000E+00  0.000000000000E+00  0.000000000000E+00  0.000000000000E+00  0.000000000000E+00
  0.000000000000E+00  0.000000000000E+00  0.000000000000E+00  0.000000000000E+00  0.000000000000E+00
  0.000000000000E+00  0.000000000000E+00  0.000000000000E+00  0.000000000000E+00  0.000000000000E+00
  0.000000000000E+00  0.000000000000E+00  0.000000000000E+00  0.000000000000E+00  0.000000000000E+00
  0.000000000000E+00  0.000000000000E+00  0.000000000000E+00  0.000000000000E+00  0.000000000000E+00
  0.000000000000E+00  0.000000000000E+00  0.000000000000E+00  0.000000000000E+00  0.000000000000E+00
  0.000000000000E+00  0.000000000000E+00  0.000000000000E+00  0.000000000000E+00  0.000000000000E+00
  0.000000000000E+00  0.000000000000E+00  0.000000000000E+00  0.000000000000E+00  0.000000000000E+00
  0.000000000000E+00  0.000000000000E+00  0.000000000000E+00  0.000000000000E+00  0.000000000000E+00
  0.000000000000E+00  0.000000000000E+00  0.000000000000E+00  0.000000000000E+00  0.000000000000E+00
  0.000000000000E+00  0.000000000000E+00  0.000000000000E+00  0.000000000000E+00
 pseudo wavefunction
  0.752962851338E-08  0.800378382909E-08  0.850779762486E-08  0.904355014707E-08  0.961304004488E-08
  0.102183918263E-07  0.108618637836E-07  0.115458564183E-07  0.122729213959E-07  0.130457710654E-07
  0.138672885778E-07  0.147405386413E-07  0.156687789550E-07  0.166554723617E-07  0.177042997658E-07
  0.188191738657E-07  0.200042537499E-07  0.212639604127E-07  0.226029932469E-07  0.240263475753E-07
  0.255393332859E-07  0.271475946404E-07  0.288571313308E-07  0.306743208613E-07  0.326059423397E-07
  0.346592017675E-07  0.368417589220E-07  0.391617559314E-07  0.416278476496E-07  0.442492339433E-07
  0.470356940127E-07  0.499976228729E-07  0.531460701333E-07  0.564927812186E-07  0.600502411854E-07
  0.638317212987E-07  0.678513285403E-07  0.721240582361E-07  0.766658499964E-07  0.814936471796E-07
  0.866254600999E-07  0.920804332158E-07  0.978789165489E-07  0.104042541601E-06  0.110594302052E-06
  0.117558639535E-06  0.124961534824E-06  0.132830604748E-06  0.141195205224E-06  0.150086540765E-06
  0.159537780893E-06  0.169584183878E-06  0.180263228271E-06  0.191614752717E-06  0.203681104579E-06
  0.216507297913E-06  0.230141181394E-06  0.244633616822E-06  0.260038668859E-06  0.276413806721E-06
  0.293820118571E-06  0.312322539407E-06  0.331990093307E-06  0.352896150925E-06  0.375118703202E-06
  0.398740652316E-06  0.423850120948E-06  0.450540781032E-06  0.478912203194E-06  0.509070228209E-06
  0.541127361841E-06  0.575203194548E-06  0.611424847622E-06  0.649927447412E-06  0.690854629421E-06
  0.734359074141E-06  0.780603076629E-06  0.829759151956E-06  0.882010678775E-06  0.937552583418E-06
  0.996592067075E-06  0.105934937876E-05  0.112605863695E-05  0.119696870298E-05  0.127234410940E-05
  0.135246604682E-05  0.143763341293E-05  0.152816392748E-05  0.162439531757E-05  0.172668657755E-05
  0.183541930821E-05  0.195099914035E-05  0.207385724800E-05  0.220445195690E-05  0.234327045426E-05
  0.249083060620E-05  0.264768288965E-05  0.281441244589E-05  0.299164126337E-05  0.318003049803E-05
  0.338028293970E-05  0.359314563383E-05  0.381941266828E-05  0.405992813561E-05  0.431558928194E-05
  0.458734985400E-05  0.487622365701E-05  0.518328833658E-05  0.550968939878E-05  0.585664448326E-05
  0.622544790550E-05  0.661747548514E-05  0.703418967816E-05  0.747714503240E-05  0.794799398652E-05
  0.844849303406E-05  0.898050927570E-05  0.954602738406E-05  0.101471570070E-04  0.107861406373E-04
  0.114653619773E-04  0.121873548308E-04  0.129548125549E-04  0.137705981058E-04  0.146377547190E-04
  0.155595172602E-04  0.165393242918E-04  0.175808308991E-04  0.186879223234E-04  0.198647284542E-04
  0.211156392335E-04  0.224453210296E-04  0.238587340425E-04  0.253611508040E-04  0.269581758435E-04
  0.286557665915E-04  0.304602555983E-04  0.323783741530E-04  0.344172773874E-04  0.365845709617E-04
  0.388883394291E-04  0.413371763863E-04  0.439402165215E-04  0.467071696797E-04  0.496483570721E-04
  0.527747497643E-04  0.560980095870E-04  0.596305326213E-04  0.633854954205E-04  0.673769041407E-04
  0.716196467630E-04  0.761295486016E-04  0.809234313048E-04  0.860191755674E-04  0.914357877897E-04
  0.971934709289E-04  0.103313699808E-03  0.109819301163E-03  0.116734538721E-03  0.124085203634E-03
  0.131898710597E-03  0.140204200010E-03  0.149032646567E-03  0.158416974664E-03  0.168392181075E-03
  0.178995465325E-03  0.190266368270E-03  0.202246919371E-03  0.214981793240E-03  0.228518476005E-03
  0.242907442134E-03  0.258202342363E-03  0.274460203425E-03  0.291741640318E-03  0.310111081902E-03
  0.329637010647E-03  0.350392217433E-03  0.372454072332E-03  0.395904812367E-03  0.420831847325E-03
  0.447328084730E-03  0.475492275189E-03  0.505429379367E-03  0.537250957953E-03  0.571075586029E-03
  0.607029293384E-03  0.645246032361E-03  0.685868174971E-03  0.729047041071E-03  0.774943459544E-03
  0.823728364518E-03  0.875583428796E-03  0.930701736798E-03  0.989288499449E-03  0.105156181360E-02
  0.111775346874E-02  0.118810980387E-02  0.126289261762E-02  0.134238013500E-02  0.142686803396E-02
  0.151667053577E-02  0.161212156280E-02  0.171357596801E-02  0.182141084035E-02  0.193602689077E-02
  0.205784992367E-02  0.218733239885E-02  0.232495508959E-02  0.247122884236E-02  0.262669644437E-02
  0.279193460540E-02  0.296755606047E-02  0.315421180068E-02  0.335259343959E-02  0.356343572315E-02
  0.378751919136E-02  0.402567300056E-02  0.427877791545E-02  0.454776948057E-02  0.483364138134E-02
  0.513744900526E-02  0.546031321451E-02  0.580342434142E-02  0.616804641918E-02  0.655552166023E-02
  0.696727519576E-02  0.740482008993E-02  0.786976264307E-02  0.836380799867E-02  0.888876606936E-02
  0.944655779765E-02  0.100392217675E-01  0.106689211832E-01  0.113379512331E-01  0.120487468535E-01
  0.128038909128E-01  0.136061228308E-01  0.144583476517E-01  0.153636455878E-01  0.163252820509E-01
  0.173467181874E-01  0.184316219323E-01  0.195838795979E-01  0.208076080081E-01  0.221071671919E-01
  0.234871736439E-01  0.249525141583E-01  0.265083602409E-01  0.281601830977E-01  0.299137691953E-01
  0.317752363827E-01  0.337510505586E-01  0.358480428594E-01  0.380734273362E-01  0.404348190776E-01
  0.429402527258E-01  0.455982013193E-01  0.484175953790E-01  0.514078421419E-01  0.545788448223E-01
  0.579410217613E-01  0.615053253010E-01  0.652832601886E-01  0.692869012881E-01  0.735289103389E-01
  0.780225514620E-01  0.827817050708E-01  0.878208797933E-01  0.931552219576E-01  0.988005221340E-01
  0.104773218159E+00  0.111090393991E+00  0.117769773676E+00  0.124829709599E+00  0.132289164118E+00
  0.140167683573E+00  0.148485363532E+00  0.157262804061E+00  0.166521053630E+00  0.176281540194E+00
  0.186565987799E+00  0.197396316976E+00  0.208794527011E+00  0.220782558075E+00  0.233382131038E+00
  0.246614562713E+00  0.260500554136E+00  0.275059949431E+00  0.290311462788E+00  0.306272371026E+00
  0.322958169336E+00  0.340382187887E+00  0.358555167210E+00  0.377484790611E+00  0.397175172321E+00
  0.417626300715E+00  0.438833436755E+00  0.460786468826E+00  0.483469226458E+00  0.506858756987E+00
  0.530924571142E+00  0.555627865829E+00  0.580920735077E+00  0.606745383251E+00  0.633033358197E+00
  0.659704826035E+00  0.686667913813E+00  0.713818151091E+00  0.741038046749E+00  0.768196842684E+00
  0.795150491427E+00  0.821741909815E+00  0.847801565250E+00  0.873148454352E+00  0.897591535317E+00
  0.920931674213E+00  0.942964160922E+00  0.963481841234E+00  0.982278896578E+00  0.999155280437E+00
  0.101392178922E+01  0.102640570369E+01  0.103645688320E+01  0.104395412861E+01  0.104881154868E+01
  0.105098457118E+01  0.105047513348E+01  0.104733547273E+01  0.104166981827E+01  0.103363317739E+01
  0.102342631388E+01  0.101128596374E+01  0.997469337787E+00  0.982232054452E+00  0.965798862161E+00
  0.948326885685E+00  0.929857740007E+00  0.910376756217E+00  0.889931211092E+00  0.868589370191E+00
  0.846422628036E+00  0.823505139034E+00  0.799913440677E+00  0.775726063270E+00  0.751023120951E+00
  0.725885884100E+00  0.700396329094E+00  0.674636663409E+00  0.648688827398E+00  0.622633975262E+00
  0.596551942503E+00  0.570520709495E+00  0.544615874674E+00  0.518910149643E+00  0.493472911778E+00
  0.468369782982E+00  0.443662310964E+00  0.419407716199E+00  0.395658728409E+00  0.372463509394E+00
  0.349865656830E+00  0.327904278897E+00  0.306614125743E+00  0.286025761031E+00  0.266165755436E+00
  0.247056883897E+00  0.228718309732E+00  0.211165741379E+00  0.194411551281E+00  0.178464851218E+00
  0.163331523679E+00  0.149014214350E+00  0.135512295736E+00  0.122821815920E+00  0.110935448851E+00
  0.998424632451E-01  0.895287259382E-01  0.799767528162E-01  0.711658164898E-01  0.630721153715E-01
  0.556690042113E-01  0.489272819610E-01  0.428155293760E-01  0.373004862242E-01  0.323474563917E-01
  0.279207285099E-01  0.239839998444E-01  0.205007919343E-01  0.174348476788E-01  0.147505010870E-01
  0.124130125945E-01  0.103888646037E-01  0.864601362694E-02  0.715409704532E-02  0.588459398879E-02
  0.481094116769E-02  0.390860561887E-02  0.315511726518E-02  0.253006492169E-02
 ae wavefunction
  0.638386639213E-07  0.677120666098E-07  0.717878072451E-07  0.760781595650E-07  0.805960733267E-07
  0.853552170595E-07  0.903700209180E-07  0.956557259439E-07  0.101228432636E-06  0.107105154623E-06
  0.113303874994E-06  0.119843604950E-06  0.126744448329E-06  0.134027667299E-06  0.141715753807E-06
  0.149832504786E-06  0.158403101771E-06  0.167454195758E-06  0.177013996743E-06  0.187112369092E-06
  0.197780932571E-06  0.209053169575E-06  0.220964538952E-06  0.233552596751E-06  0.246857124576E-06
  0.260920265372E-06  0.275786668376E-06  0.291503641820E-06  0.308121317188E-06  0.325692819370E-06
  0.344274454503E-06  0.363925900032E-06  0.384710416104E-06  0.406695062606E-06  0.429950934185E-06
  0.454553407675E-06  0.480582404730E-06  0.508122674102E-06  0.537264086497E-06  0.568101949333E-06
  0.600737346455E-06  0.635277488782E-06  0.671836096954E-06  0.710533799931E-06  0.751498565118E-06
  0.794866149769E-06  0.840780581229E-06  0.889394672333E-06  0.940870563053E-06  0.995380297324E-06
  0.105310643829E-05  0.111424271959E-05  0.117899473638E-05  0.124758068441E-05  0.132023213453E-05
  0.139719487448E-05  0.147872977789E-05  0.156511375485E-05  0.165664073353E-05  0.175362272646E-05
  0.185639095844E-05  0.196529704647E-05  0.208071428133E-05  0.220303897134E-05  0.233269186659E-05
  0.247011968932E-05  0.261579674643E-05  0.277022664920E-05  0.293394412301E-05  0.310751696496E-05
  0.329154809020E-05  0.348667772084E-05  0.369358570339E-05  0.391299399082E-05  0.414566924952E-05
  0.439242565064E-05  0.465412783273E-05  0.493169403578E-05  0.522609944888E-05  0.553837975004E-05
  0.586963488180E-05  0.622103304819E-05  0.659381496692E-05  0.698929839120E-05  0.740888290003E-05
  0.785405501000E-05  0.832639356092E-05  0.882757549223E-05  0.935938194569E-05  0.992370473951E-05
  0.105225532852E-04  0.111580618774E-04  0.118324974816E-04  0.125482680106E-04  0.133079310509E-04
  0.141142032120E-04  0.149699700161E-04  0.158782963774E-04  0.168424377945E-04  0.178658521586E-04
  0.189522123829E-04  0.201054197150E-04  0.213296179680E-04  0.226292085552E-04  0.240088665173E-04
  0.254735574787E-04  0.270285557122E-04  0.286794632690E-04  0.304322303255E-04  0.322931767720E-04
  0.342690151097E-04  0.363668748141E-04  0.385943281325E-04  0.409594175222E-04  0.434706847497E-04
  0.461372017751E-04  0.489686035594E-04  0.519751228551E-04  0.551676271443E-04  0.585576578449E-04
  0.621574719050E-04  0.659800859751E-04  0.700393231841E-04  0.743498629370E-04  0.789272935765E-04
  0.837881683782E-04  0.889500649094E-04  0.944316479659E-04  0.100252736399E-03  0.106434373973E-03
  0.112998904506E-03  0.119970051544E-03  0.127373002932E-03  0.135234500388E-03  0.143582934591E-03
  0.152448445901E-03  0.161863031201E-03  0.171860657139E-03  0.182477380168E-03  0.193751473770E-03
  0.205723563284E-03  0.218436768816E-03  0.231936856629E-03  0.246272399559E-03  0.261494946963E-03
  0.277659204731E-03  0.294823225954E-03  0.313048612853E-03  0.332400730601E-03  0.352948933708E-03
  0.374766805714E-03  0.397932412867E-03  0.422528572659E-03  0.448643137946E-03  0.476369297630E-03
  0.505805894698E-03  0.537057762678E-03  0.570236081455E-03  0.605458753500E-03  0.642850801677E-03
  0.682544789705E-03  0.724681266542E-03  0.769409235969E-03  0.816886652643E-03  0.867280946102E-03
  0.920769574046E-03  0.977540606618E-03  0.103779334296E-02  0.110173896205E-02  0.116960120927E-02
  0.124161712057E-02  0.131803778622E-02  0.139912915586E-02  0.148517288705E-02  0.157646723931E-02
  0.167332801580E-02  0.177608955496E-02  0.188510577427E-02  0.200075126869E-02  0.212342246608E-02
  0.225353884217E-02  0.239154419773E-02  0.253790800048E-02  0.269312679454E-02  0.285772568023E-02
  0.303225986681E-02  0.321731630138E-02  0.341351537651E-02  0.362151271972E-02  0.384200106773E-02
  0.407571222831E-02  0.432341913284E-02  0.458593798242E-02  0.486413049033E-02  0.515890622389E-02
  0.547122504814E-02  0.580209967435E-02  0.615259831549E-02  0.652384745141E-02  0.691703470557E-02
  0.733341183551E-02  0.777429783849E-02  0.824108217425E-02  0.873522810494E-02  0.925827615420E-02
  0.981184768427E-02  0.103976485921E-01  0.110174731224E-01  0.116732077973E-01  0.123668354595E-01
  0.131004394267E-01  0.138762077531E-01  0.146964375933E-01  0.155635396630E-01  0.164800427894E-01
  0.174485985435E-01  0.184719859442E-01  0.195531162243E-01  0.206950376447E-01  0.219009403439E-01
  0.231741612054E-01  0.245181887267E-01  0.259366678676E-01  0.274334048580E-01  0.290123719384E-01
  0.306777120064E-01  0.324337431404E-01  0.342849629649E-01  0.362360528249E-01  0.382918817266E-01
  0.404575100058E-01  0.427381926739E-01  0.451393823953E-01  0.476667320408E-01  0.503260967601E-01
  0.531235355113E-01  0.560653119826E-01  0.591578948356E-01  0.624079571946E-01  0.658223753055E-01
  0.694082262783E-01  0.731727848255E-01  0.771235189069E-01  0.812680841787E-01  0.856143171503E-01
  0.901702269413E-01  0.949439855302E-01  0.999439163813E-01  0.105178481335E+00  0.110656265641E+00
  0.116385961018E+00  0.122376346613E+00  0.128636267742E+00  0.135174612283E+00  0.142000284618E+00
  0.149122176983E+00  0.156549138135E+00  0.164289939223E+00  0.172353236755E+00  0.180747532597E+00
  0.189481130902E+00  0.198562091940E+00  0.207998182760E+00  0.217796824688E+00  0.227965037650E+00
  0.238509381351E+00  0.249435893385E+00  0.260750024335E+00  0.272456570018E+00  0.284559600997E+00
  0.297062389561E+00  0.309967334388E+00  0.323275883101E+00  0.336988453007E+00  0.351104350257E+00
  0.365621687697E+00  0.380537301687E+00  0.395846668118E+00  0.411543817854E+00  0.427621251850E+00
  0.444069856154E+00  0.460878817099E+00  0.478035537116E+00  0.495525551829E+00  0.513332449523E+00
  0.531437794737E+00  0.549821058757E+00  0.568459561218E+00  0.587328429214E+00  0.606400583216E+00
  0.625646762959E+00  0.645035611035E+00  0.664533836135E+00  0.684106478844E+00  0.703717295005E+00
  0.723329245581E+00  0.742905028245E+00  0.762407504096E+00  0.781799788848E+00  0.801044754676E+00
  0.820103805368E+00  0.838935067712E+00  0.857491488133E+00  0.875719531092E+00  0.893559049238E+00
  0.910944425185E+00  0.927806520797E+00  0.944074705985E+00  0.959678418621E+00  0.974548107157E+00
  0.988615705671E+00  0.100181488244E+01  0.101408124227E+01  0.102535258245E+01  0.103556923040E+01
  0.104467445198E+01  0.105261490827E+01  0.105934112745E+01  0.106480796926E+01  0.106897505848E+01
  0.107180717579E+01  0.107327459614E+01  0.107335336887E+01  0.107202554107E+01  0.106927932012E+01
  0.106510918010E+01  0.105951591109E+01  0.105250661755E+01  0.104409466464E+01  0.103429957814E+01
  0.102314690268E+01  0.101066801918E+01  0.996899929019E+00  0.981885007088E+00  0.965670729847E+00
  0.948309381061E+00  0.929857740007E+00  0.910376756217E+00  0.889931211092E+00  0.868589370191E+00
  0.846422628036E+00  0.823505139034E+00  0.799913440677E+00  0.775726063270E+00  0.751023120951E+00
  0.725885884100E+00  0.700396329094E+00  0.674636663409E+00  0.648688827398E+00  0.622633975262E+00
  0.596551942503E+00  0.570520709495E+00  0.544615874674E+00  0.518910149643E+00  0.493472911778E+00
  0.468369782982E+00  0.443662310964E+00  0.419407716199E+00  0.395658728409E+00  0.372463509394E+00
  0.349865656830E+00  0.327904278897E+00  0.306614125743E+00  0.286025761031E+00  0.266165755436E+00
  0.247056883897E+00  0.228718309732E+00  0.211165741379E+00  0.194411551281E+00  0.178464851218E+00
  0.163331523679E+00  0.149014214350E+00  0.135512295736E+00  0.122821815920E+00  0.110935448851E+00
  0.998424632451E-01  0.895287259382E-01  0.799767528162E-01  0.711658164898E-01  0.630721153715E-01
  0.556690042113E-01  0.489272819610E-01  0.428155293760E-01  0.373004862242E-01  0.323474563917E-01
  0.279207285099E-01  0.239839998444E-01  0.205007919343E-01  0.174348476788E-01  0.147505010870E-01
  0.124130125945E-01  0.103888646037E-01  0.864601362694E-02  0.715409704532E-02  0.588459398879E-02
  0.481094116769E-02  0.390860561887E-02  0.315511726518E-02  0.253006492169E-02
 pseudo wavefunction
  0.122159959323E-07  0.129852608960E-07  0.138029679667E-07  0.146721676378E-07  0.155961024983E-07
  0.165782193291E-07  0.176221819618E-07  0.187318849465E-07  0.199114680805E-07  0.211653318523E-07
  0.224981538578E-07  0.239149062500E-07  0.254208742880E-07  0.270216760541E-07  0.287232834119E-07
  0.305320442849E-07  0.324547063376E-07  0.344984421482E-07  0.366708759658E-07  0.389801121532E-07
  0.414347654207E-07  0.440439929637E-07  0.468175286238E-07  0.497657192013E-07  0.528995630546E-07
  0.562307511302E-07  0.597717105759E-07  0.635356511009E-07  0.675366142557E-07  0.717895258138E-07
  0.763102514540E-07  0.811156559473E-07  0.862236660718E-07  0.916533374895E-07  0.974249258342E-07
  0.103559962276E-06  0.110081333844E-06  0.117013368808E-06  0.124381927435E-06  0.132214498465E-06
  0.140540301654E-06  0.149390396783E-06  0.158797799528E-06  0.168797604625E-06  0.179427116792E-06
  0.190725989899E-06  0.202736374894E-06  0.215503077050E-06  0.229073723116E-06  0.243498938988E-06
  0.258832538570E-06  0.275131724531E-06  0.292457301701E-06  0.310873903906E-06  0.330450235085E-06
  0.351259325598E-06  0.373378804661E-06  0.396891189951E-06  0.421884195439E-06  0.448451058609E-06
  0.476690888286E-06  0.506709034362E-06  0.538617480810E-06  0.572535263445E-06  0.608588913986E-06
  0.646912932093E-06  0.687650287116E-06  0.730952951452E-06  0.776982467480E-06  0.825910550196E-06
  0.877919727809E-06  0.933204022660E-06  0.991969675029E-06  0.105443591252E-05  0.112083576790E-05
  0.119141694841E-05  0.126644275988E-05  0.134619308896E-05  0.143096544727E-05  0.152107608124E-05
  0.161686115190E-05  0.171867798891E-05  0.182690642362E-05  0.194195020597E-05  0.206423851074E-05
  0.219422753854E-05  0.233240221772E-05  0.247927801332E-05  0.263540285007E-05  0.280135915640E-05
  0.297776603716E-05  0.316528158320E-05  0.336460532634E-05  0.357648084899E-05  0.380169855802E-05
  0.404109863336E-05  0.429557416229E-05  0.456607447097E-05  0.485360866594E-05  0.515924939849E-05
  0.548413686611E-05  0.582948306592E-05  0.619657631592E-05  0.658678606095E-05  0.700156798128E-05
  0.744246942284E-05  0.791113516942E-05  0.840931357835E-05  0.893886310246E-05  0.950175922282E-05
  0.101001018179E-04  0.107361229967E-04  0.114121954256E-04  0.121308411785E-04  0.128947411453E-04
  0.137067450324E-04  0.145698819923E-04  0.154873719236E-04  0.164626374814E-04  0.174993168448E-04
  0.186012772877E-04  0.197726296042E-04  0.210177434427E-04  0.223412636044E-04  0.237481273695E-04
  0.252435829126E-04  0.268332088787E-04  0.285229351914E-04  0.303190651709E-04  0.322282990445E-04
  0.342577589378E-04  0.364150154380E-04  0.387081158313E-04  0.411456141157E-04  0.437366029054E-04
  0.464907473417E-04  0.494183211397E-04  0.525302449040E-04  0.558381268553E-04  0.593543061216E-04
  0.630918987537E-04  0.670648466372E-04  0.712879694824E-04  0.757770200873E-04  0.805487430773E-04
  0.856209373428E-04  0.910125224049E-04  0.967436089578E-04  0.102835573850E-03  0.109311139784E-03
  0.116194460027E-03  0.123511208460E-03  0.131288675280E-03  0.139555868730E-03  0.148343623228E-03
  0.157684714298E-03  0.167613980720E-03  0.178168454378E-03  0.189387498257E-03  0.201312953131E-03
  0.213989293461E-03  0.227463793104E-03  0.241786701434E-03  0.257011430532E-03  0.273194754140E-03
  0.290397019119E-03  0.308682370189E-03  0.328118988792E-03  0.348779346953E-03  0.370740477085E-03
  0.394084258733E-03  0.418897723326E-03  0.445273378047E-03  0.473309550032E-03  0.503110752160E-03
  0.534788071792E-03  0.568459583879E-03  0.604250789975E-03  0.642295084757E-03  0.682734251781E-03
  0.725718990286E-03  0.771409474978E-03  0.819975950858E-03  0.871599365263E-03  0.926472039429E-03
  0.984798382042E-03  0.104679564737E-02  0.111269474074E-02  0.118274107429E-02  0.125719547615E-02
  0.133633515618E-02  0.142045473205E-02  0.150986731912E-02  0.160490568806E-02  0.170592349462E-02
  0.181329658563E-02  0.192742438613E-02  0.204873137252E-02  0.217766863696E-02  0.231471554855E-02
  0.246038151726E-02  0.261520786666E-02  0.277976982222E-02  0.295467862202E-02  0.314058375718E-02
  0.333817534992E-02  0.354818667728E-02  0.377139684937E-02  0.400863365104E-02  0.426077655678E-02
  0.452875992904E-02  0.481357641049E-02  0.511628052166E-02  0.543799247574E-02  0.577990222302E-02
  0.614327373805E-02  0.652944956331E-02  0.693985562371E-02  0.737600632707E-02  0.783950996638E-02
  0.833207444028E-02  0.885551330903E-02  0.941175220386E-02  0.100028356084E-01  0.106309340313E-01
  0.112983515908E-01  0.120075340312E-01  0.127610771926E-01  0.135617359570E-01  0.144124336921E-01
  0.153162722158E-01  0.162765423064E-01  0.172967347795E-01  0.183805521583E-01  0.195319209585E-01
  0.207550046135E-01  0.220542170616E-01  0.234342370183E-01  0.249000229550E-01  0.264568288041E-01
  0.281102204089E-01  0.298660927343E-01  0.317306878513E-01  0.337106137045E-01  0.358128636693E-01
  0.380448368978E-01  0.404143594481E-01  0.429297061841E-01  0.455996234250E-01  0.484333523121E-01
  0.514406528512E-01  0.546318285750E-01  0.580177517529E-01  0.616098890606E-01  0.654203276001E-01
  0.694618011375E-01  0.737477164010E-01  0.782921792489E-01  0.831100204872E-01  0.882168210746E-01
  0.936289364111E-01  0.993635193567E-01  0.105438541573E+00  0.111872812720E+00  0.118685996964E+00
  0.125898626196E+00  0.133532109242E+00  0.141608736300E+00  0.150151677673E+00  0.159184975828E+00
  0.168733529608E+00  0.178823069353E+00  0.189480121499E+00  0.200731961076E+00  0.212606550354E+00
  0.225132461697E+00  0.238338782499E+00  0.252254999845E+00  0.266910862366E+00  0.282336216478E+00
  0.298560814030E+00  0.315614088098E+00  0.333524893493E+00  0.352321208309E+00  0.372029792642E+00
  0.392675800489E+00  0.414282340660E+00  0.436869982528E+00  0.460456202415E+00  0.485054766544E+00
  0.510675046706E+00  0.537321265177E+00  0.564991665958E+00  0.593677610242E+00  0.623362594997E+00
  0.654021194942E+00  0.685617929901E+00  0.718106061631E+00  0.751426326820E+00  0.785505616075E+00
  0.820255612394E+00  0.855571406957E+00  0.891330115034E+00  0.927389520477E+00  0.963586783565E+00
  0.999737253968E+00  0.103563343802E+01  0.107104417745E+01  0.110571410459E+01  0.113936344714E+01
  0.117168826254E+01  0.120236118802E+01  0.123103279665E+01  0.125733365034E+01  0.128087713836E+01
  0.130126318110E+01  0.131808286432E+01  0.133092404516E+01  0.133937793767E+01  0.134304664057E+01
  0.134155151095E+01  0.133454221566E+01  0.132170620523E+01  0.130277825597E+01  0.127754961625E+01
  0.124587617929E+01  0.120768499456E+01  0.116297833630E+01  0.111183448711E+01  0.105440438882E+01
  0.990903389592E+00  0.921597505581E+00  0.846783953274E+00  0.766766228250E+00  0.681824737259E+00
  0.592184950507E+00  0.497986573192E+00  0.399311932267E+00  0.296297038202E+00  0.189115717116E+00
  0.000000000000E+00  0.000000000000E+00  0.000000000000E+00  0.000000000000E+00  0.000000000000E+00
  0.000000000000E+00  0.000000000000E+00  0.000000000000E+00  0.000000000000E+00  0.000000000000E+00
  0.000000000000E+00  0.000000000000E+00  0.000000000000E+00  0.000000000000E+00  0.000000000000E+00
  0.000000000000E+00  0.000000000000E+00  0.000000000000E+00  0.000000000000E+00  0.000000000000E+00
  0.000000000000E+00  0.000000000000E+00  0.000000000000E+00  0.000000000000E+00  0.000000000000E+00
  0.000000000000E+00  0.000000000000E+00  0.000000000000E+00  0.000000000000E+00  0.000000000000E+00
  0.000000000000E+00  0.000000000000E+00  0.000000000000E+00  0.000000000000E+00  0.000000000000E+00
  0.000000000000E+00  0.000000000000E+00  0.000000000000E+00  0.000000000000E+00  0.000000000000E+00
  0.000000000000E+00  0.000000000000E+00  0.000000000000E+00  0.000000000000E+00  0.000000000000E+00
  0.000000000000E+00  0.000000000000E+00  0.000000000000E+00  0.000000000000E+00  0.000000000000E+00
  0.000000000000E+00  0.000000000000E+00  0.000000000000E+00  0.000000000000E+00  0.000000000000E+00
  0.000000000000E+00  0.000000000000E+00  0.000000000000E+00  0.000000000000E+00
 ae wavefunction
  0.105938862008E-06  0.112366699779E-06  0.119130313309E-06  0.126250070647E-06  0.133747461684E-06
  0.141645169102E-06  0.149967139484E-06  0.158738665069E-06  0.167986464347E-06  0.177738771134E-06
  0.188025428049E-06  0.198877983841E-06  0.210329800478E-06  0.222416162149E-06  0.235174393849E-06
  0.248643986170E-06  0.262866727427E-06  0.277886844486E-06  0.293751151342E-06  0.310509207392E-06
  0.328213485094E-06  0.346919547905E-06  0.366686239167E-06  0.387575882507E-06  0.409654494811E-06
  0.432992011580E-06  0.457662527464E-06  0.483744549670E-06  0.511321270549E-06  0.540480849963E-06
  0.571316726995E-06  0.603927935371E-06  0.638419454243E-06  0.674902568380E-06  0.713495258166E-06
  0.754322610207E-06  0.797517253170E-06  0.843219826211E-06  0.891579468290E-06  0.942754340507E-06
  0.996912189846E-06  0.105423093108E-05  0.111489928177E-05  0.117911742371E-05  0.124709771673E-05
  0.131906544782E-05  0.139525962802E-05  0.147593384777E-05  0.156135717577E-05  0.165181511616E-05
  0.174761062957E-05  0.184906521387E-05  0.195652005094E-05  0.207033723318E-05  0.219090104874E-05
  0.231861937845E-05  0.245392513798E-05  0.259727785526E-05  0.274916529942E-05  0.291010525037E-05
  0.308064737041E-05  0.326137516243E-05  0.345290809660E-05  0.365590384034E-05  0.387106062183E-05
  0.409911976960E-05  0.434086838850E-05  0.459714221356E-05  0.486882861313E-05  0.515686983762E-05
  0.546226641521E-05  0.578608078447E-05  0.612944114001E-05  0.649354555140E-05  0.687966628946E-05
  0.728915445842E-05  0.772344491230E-05  0.818406145589E-05  0.867262240007E-05  0.919084643612E-05
  0.974055890121E-05  0.103236984114E-04  0.109423239180E-04  0.115986222114E-04  0.122949158706E-04
  0.130336717460E-04  0.138175098969E-04  0.146492131773E-04  0.155317373630E-04  0.164682218956E-04
  0.174620013609E-04  0.185166175856E-04  0.196358325618E-04  0.208236421810E-04  0.220842907154E-04
  0.234222863332E-04  0.248424175098E-04  0.263497704187E-04  0.279497475042E-04  0.296480870776E-04
  0.314508842750E-04  0.333646131489E-04  0.353961502845E-04  0.375527997493E-04  0.398423196899E-04
  0.422729504704E-04  0.448534446507E-04  0.475930987318E-04  0.505017869206E-04  0.535899969563E-04
  0.568688681067E-04  0.603502315992E-04  0.640466534300E-04  0.679714798974E-04  0.721388858913E-04
  0.765639261441E-04  0.812625896736E-04  0.862518575166E-04  0.915497640262E-04  0.971754619331E-04
  0.103149291369E-03  0.109492853170E-03  0.116229086497E-03  0.123382351476E-03  0.130978516582E-03
  0.139045051565E-03  0.147611125953E-03  0.156707713487E-03  0.166367703021E-03  0.176626016105E-03
  0.187519731675E-03  0.199088218267E-03  0.211373274356E-03  0.224419277002E-03  0.238273339632E-03
  0.252985479187E-03  0.268608793409E-03  0.285199648761E-03  0.302817879615E-03  0.321526999380E-03
  0.341394424216E-03  0.362491710199E-03  0.384894804514E-03  0.408684311659E-03  0.433945775445E-03
  0.460769977706E-03  0.489253254673E-03  0.519497832062E-03  0.551612179856E-03  0.585711387966E-03
  0.621917563948E-03  0.660360253938E-03  0.701176888225E-03  0.744513252695E-03  0.790523987729E-03
  0.839373115921E-03  0.891234600334E-03  0.946292934868E-03  0.100474376852E-02  0.106679456539E-02
  0.113266530233E-02  0.120258920621E-02  0.127681353303E-02  0.135560039092E-02  0.143922760947E-02
  0.152798965770E-02  0.162219861334E-02  0.172218518571E-02  0.182829979541E-02  0.194091371327E-02
  0.206042026166E-02  0.218723608141E-02  0.232180246721E-02  0.246458677512E-02  0.261608390551E-02
  0.277681786497E-02  0.294734341097E-02  0.312824778296E-02  0.332015252408E-02  0.352371539721E-02
  0.373963239976E-02  0.396863988145E-02  0.421151676937E-02  0.446908690483E-02  0.474222149663E-02
  0.503184169533E-02  0.533892129325E-02  0.566448955497E-02  0.600963418320E-02  0.637550442474E-02
  0.676331432146E-02  0.717434611104E-02  0.760995378246E-02  0.807156679048E-02  0.856069393424E-02
  0.907892740405E-02  0.962794700086E-02  0.102095245322E-01  0.108255283887E-01  0.114779283043E-01
  0.121688003037E-01  0.129003318384E-01  0.136748271161E-01  0.144947126209E-01  0.153625428293E-01
  0.162810061191E-01  0.172529308721E-01  0.182812917671E-01  0.193692162627E-01  0.205199912631E-01
  0.217370699637E-01  0.230240788682E-01  0.243848249691E-01  0.258233030819E-01  0.273437033191E-01
  0.289504186912E-01  0.306480528172E-01  0.324414277249E-01  0.343355917198E-01  0.363358272967E-01
  0.384476590669E-01  0.406768616675E-01  0.430294676191E-01  0.455117750924E-01  0.481303555385E-01
  0.508920611360E-01  0.538040320032E-01  0.568737031138E-01  0.601088108560E-01  0.635173991644E-01
  0.671078251495E-01  0.708887641427E-01  0.748692140698E-01  0.790584990574E-01  0.834662721690E-01
  0.881025171610E-01  0.929775491429E-01  0.981020140134E-01  0.103486886538E+00  0.109143466931E+00
  0.115083375780E+00  0.121318547169E+00  0.127861219812E+00  0.134723926039E+00  0.141919478435E+00
  0.149460953941E+00  0.157361675219E+00  0.165635189062E+00  0.174295241639E+00  0.183355750345E+00
  0.192830772025E+00  0.202734467344E+00  0.213081061052E+00  0.223884797920E+00  0.235159894083E+00
  0.246920483574E+00  0.259180559802E+00  0.271953911741E+00  0.285254054623E+00  0.299094154928E+00
  0.313486949475E+00  0.328444658451E+00  0.343978892248E+00  0.360100551978E+00  0.376819723600E+00
  0.394145565622E+00  0.412086190372E+00  0.430648538896E+00  0.449838249572E+00  0.469659520595E+00
  0.490114966509E+00  0.511205469030E+00  0.532930022426E+00  0.555285573750E+00  0.578266858238E+00
  0.601866230181E+00  0.626073489579E+00  0.650875704849E+00  0.676257031855E+00  0.702198529499E+00
  0.728677972163E+00  0.755669659376E+00  0.783144223321E+00  0.811068435218E+00  0.839405012297E+00
  0.868112428203E+00  0.897144731361E+00  0.926451378146E+00  0.955977091313E+00  0.985661758744E+00
  0.101544039383E+01  0.104524318597E+01  0.107499567619E+01  0.110461909401E+01  0.113403087830E+01
  0.116314536214E+01  0.119187451539E+01  0.122012850798E+01  0.124781572618E+01  0.127484184286E+01
  0.130110773747E+01  0.132650651292E+01  0.135092040451E+01  0.137421869061E+01  0.139625749315E+01
  0.141688159588E+01  0.143592751949E+01  0.145322669541E+01  0.146860788480E+01  0.148189862901E+01
  0.149292598354E+01  0.150151692213E+01  0.150749869569E+01  0.151069930143E+01  0.151094810413E+01
  0.150807659253E+01  0.150191923627E+01  0.149231439502E+01  0.147910524796E+01  0.146214071301E+01
  0.144127634372E+01  0.141637519574E+01  0.138730866226E+01  0.135395728860E+01  0.131621156959E+01
  0.127397274667E+01  0.122715361430E+01  0.117567935591E+01  0.111948842088E+01  0.105853346360E+01
  0.992782364505E+00  0.922219349511E+00  0.846846231605E+00  0.766683792470E+00  0.681773325778E+00
  0.592178359167E+00  0.497986573192E+00  0.399311932267E+00  0.296297038202E+00  0.189115717116E+00
  0.000000000000E+00  0.000000000000E+00  0.000000000000E+00  0.000000000000E+00  0.000000000000E+00
  0.000000000000E+00  0.000000000000E+00  0.000000000000E+00  0.000000000000E+00  0.000000000000E+00
  0.000000000000E+00  0.000000000000E+00  0.000000000000E+00  0.000000000000E+00  0.000000000000E+00
  0.000000000000E+00  0.000000000000E+00  0.000000000000E+00  0.000000000000E+00  0.000000000000E+00
  0.000000000000E+00  0.000000000000E+00  0.000000000000E+00  0.000000000000E+00  0.000000000000E+00
  0.000000000000E+00  0.000000000000E+00  0.000000000000E+00  0.000000000000E+00  0.000000000000E+00
  0.000000000000E+00  0.000000000000E+00  0.000000000000E+00  0.000000000000E+00  0.000000000000E+00
  0.000000000000E+00  0.000000000000E+00  0.000000000000E+00  0.000000000000E+00  0.000000000000E+00
  0.000000000000E+00  0.000000000000E+00  0.000000000000E+00  0.000000000000E+00  0.000000000000E+00
  0.000000000000E+00  0.000000000000E+00  0.000000000000E+00  0.000000000000E+00  0.000000000000E+00
  0.000000000000E+00  0.000000000000E+00  0.000000000000E+00  0.000000000000E+00  0.000000000000E+00
  0.000000000000E+00  0.000000000000E+00  0.000000000000E+00  0.000000000000E+00
 End of Dataset
