<?xml version="1.0" encoding="ISO-8859-1"?>
<modeling>
 <generator>
  <i name="program" type="string">vasp </i>
  <i name="version" type="string">5.4.4.18Apr17-6-g9f103f2a35  </i>
  <i name="subversion" type="string">(build Sep 25 2018 12:01:19) complex            parallel </i>
  <i name="platform" type="string">LinuxIFC </i>
  <i name="date" type="string">2018 10 11 </i>
  <i name="time" type="string">17:58:16 </i>
 </generator>
 <incar>
  <i type="string" name="SYSTEM">  qvasp</i>
  <i type="string" name="PREC">normal</i>
  <i type="int" name="ICHARG">     2</i>
  <i type="int" name="NELMIN">     5</i>
  <i type="int" name="IBRION">     2</i>
  <i name="EDIFF">      0.00001000</i>
  <i name="EDIFFG">     -0.01000000</i>
  <i type="int" name="NSW">   300</i>
  <i type="int" name="ISIF">     3</i>
  <i name="ENCUT">    500.00000000</i>
  <i type="logical" name="LREAL"> F  </i>
  <i type="int" name="ISMEAR">     0</i>
  <i name="SIGMA">      0.20000000</i>
  <i type="logical" name="LWAVE"> F  </i>
  <i type="logical" name="LCHARG"> F  </i>
  <v type="int" name="KPOINT_BSE">    -1     0     0     0</v>
 </incar>
 <structure name="primitive_cell" >
  <crystal>
   <varray name="basis" >
    <v>       6.66205439       0.00000000       0.00000000 </v>
    <v>       0.00000000       6.66501912       0.00000000 </v>
    <v>       0.00000000       0.00000000      11.94044634 </v>
   </varray>
   <i name="volume">    530.18829461 </i>
   <varray name="rec_basis" >
    <v>       0.15010385       0.00000000       0.00000000 </v>
    <v>       0.00000000       0.15003708       0.00000000 </v>
    <v>       0.00000000       0.00000000       0.08374896 </v>
   </varray>
  </crystal>
  <varray name="positions" >
   <v>       0.24954804       0.00000000       0.37494240 </v>
   <v>       0.24930843       0.00000000       0.18948792 </v>
   <v>       0.25033024       0.00000000      -0.43944093 </v>
   <v>      -0.41056134       0.00000000       0.37376823 </v>
   <v>      -0.09043593       0.00000000       0.37352889 </v>
   <v>       0.24925355      -0.34000091       0.37629435 </v>
   <v>       0.24925355       0.34000091       0.37629435 </v>
   <v>      -0.34900252       0.00000000       0.26789760 </v>
   <v>       0.24933514      -0.40178461       0.48211305 </v>
   <v>       0.24933514       0.40178461       0.48211305 </v>
   <v>      -0.15249037       0.00000000       0.26774412 </v>
   <v>       0.24925355      -0.15999909       0.12370565 </v>
   <v>       0.24925355       0.15999909       0.12370565 </v>
   <v>       0.09043593       0.00000000      -0.37352889 </v>
   <v>       0.41056134       0.00000000      -0.37376823 </v>
   <v>      -0.25033024       0.00000000       0.43944093 </v>
   <v>       0.24930843      -0.50000000       0.31051208 </v>
   <v>       0.24933514      -0.09821539       0.01788695 </v>
   <v>       0.24933514       0.09821539       0.01788695 </v>
   <v>       0.15249037       0.00000000      -0.26774412 </v>
   <v>       0.34900252       0.00000000      -0.26789760 </v>
   <v>      -0.24954804       0.00000000      -0.37494240 </v>
   <v>       0.24954804      -0.50000000       0.12505760 </v>
   <v>      -0.24933514      -0.40178461      -0.48211305 </v>
   <v>      -0.24933514       0.40178461      -0.48211305 </v>
   <v>      -0.34900252      -0.50000000       0.23210240 </v>
   <v>      -0.15249037      -0.50000000       0.23225588 </v>
   <v>      -0.24925355      -0.34000091      -0.37629435 </v>
   <v>      -0.24925355       0.34000091      -0.37629435 </v>
   <v>      -0.09043593      -0.50000000       0.12647111 </v>
   <v>      -0.41056134      -0.50000000       0.12623177 </v>
   <v>      -0.24933514      -0.09821539      -0.01788695 </v>
   <v>      -0.24933514       0.09821539      -0.01788695 </v>
   <v>       0.15249037      -0.50000000      -0.23225588 </v>
   <v>       0.34900252      -0.50000000      -0.23210240 </v>
   <v>      -0.24930843      -0.50000000      -0.31051208 </v>
   <v>      -0.25033024      -0.50000000       0.06055907 </v>
   <v>      -0.24930843       0.00000000      -0.18948792 </v>
   <v>       0.25033024      -0.50000000      -0.06055907 </v>
   <v>      -0.24925355      -0.15999909      -0.12370565 </v>
   <v>      -0.24925355       0.15999909      -0.12370565 </v>
   <v>       0.09043593      -0.50000000      -0.12647111 </v>
   <v>       0.41056134      -0.50000000      -0.12623177 </v>
   <v>      -0.24954804      -0.50000000      -0.12505760 </v>
  </varray>
 </structure>
 <varray name="primitive_index" >
  <v type="int" >        1 </v>
  <v type="int" >       35 </v>
  <v type="int" >        9 </v>
  <v type="int" >       18 </v>
  <v type="int" >       15 </v>
  <v type="int" >       31 </v>
  <v type="int" >       34 </v>
  <v type="int" >       17 </v>
  <v type="int" >       32 </v>
  <v type="int" >       33 </v>
  <v type="int" >       16 </v>
  <v type="int" >       36 </v>
  <v type="int" >       39 </v>
  <v type="int" >        5 </v>
  <v type="int" >        8 </v>
  <v type="int" >       19 </v>
  <v type="int" >       30 </v>
  <v type="int" >       37 </v>
  <v type="int" >       38 </v>
  <v type="int" >        6 </v>
  <v type="int" >        7 </v>
  <v type="int" >        3 </v>
  <v type="int" >        4 </v>
  <v type="int" >       42 </v>
  <v type="int" >       43 </v>
  <v type="int" >       12 </v>
  <v type="int" >       11 </v>
  <v type="int" >       41 </v>
  <v type="int" >       44 </v>
  <v type="int" >       10 </v>
  <v type="int" >       13 </v>
  <v type="int" >       27 </v>
  <v type="int" >       28 </v>
  <v type="int" >       21 </v>
  <v type="int" >       22 </v>
  <v type="int" >       40 </v>
  <v type="int" >       14 </v>
  <v type="int" >       25 </v>
  <v type="int" >       24 </v>
  <v type="int" >       26 </v>
  <v type="int" >       29 </v>
  <v type="int" >       20 </v>
  <v type="int" >       23 </v>
  <v type="int" >        2 </v>
 </varray>
 <kpoints>
  <generation param="Gamma">
   <v type="int" name="divisions">       2        2        2 </v>
   <v name="usershift">      0.00000000       0.00000000       0.00000000 </v>
   <v name="genvec1">      0.50000000       0.00000000       0.00000000 </v>
   <v name="genvec2">      0.00000000       0.50000000       0.00000000 </v>
   <v name="genvec3">      0.00000000       0.00000000       0.50000000 </v>
   <v name="shift">      0.00000000       0.00000000       0.00000000 </v>
  </generation>
  <varray name="kpointlist" >
   <v>       0.00000000       0.00000000       0.00000000 </v>
   <v>       0.50000000       0.00000000       0.00000000 </v>
   <v>       0.00000000       0.50000000       0.00000000 </v>
   <v>       0.50000000       0.50000000       0.00000000 </v>
   <v>       0.00000000       0.00000000       0.50000000 </v>
   <v>       0.50000000       0.00000000       0.50000000 </v>
   <v>       0.00000000       0.50000000       0.50000000 </v>
   <v>       0.50000000       0.50000000       0.50000000 </v>
  </varray>
  <varray name="weights" >
   <v>       0.12500000 </v>
   <v>       0.12500000 </v>
   <v>       0.12500000 </v>
   <v>       0.12500000 </v>
   <v>       0.12500000 </v>
   <v>       0.12500000 </v>
   <v>       0.12500000 </v>
   <v>       0.12500000 </v>
  </varray>
 </kpoints>
 <parameters>
  <separator name="general" >
   <i type="string" name="SYSTEM">qvasp</i>
   <i type="logical" name="LCOMPAT"> F  </i>
  </separator>
  <separator name="electronic" >
   <i type="string" name="PREC">normal</i>
   <i name="ENMAX">    500.00000000</i>
   <i name="ENAUG">    627.11200000</i>
   <i name="EDIFF">      0.00001000</i>
   <i type="int" name="IALGO">    38</i>
   <i type="int" name="IWAVPR">    11</i>
   <i type="int" name="NBANDS">   128</i>
   <i name="NELECT">    208.00000000</i>
   <i type="int" name="TURBO">     0</i>
   <i type="int" name="IRESTART">     0</i>
   <i type="int" name="NREBOOT">     0</i>
   <i type="int" name="NMIN">     0</i>
   <i name="EREF">      0.00000000</i>
   <separator name="electronic smearing" >
    <i type="int" name="ISMEAR">     0</i>
    <i name="SIGMA">      0.20000000</i>
    <i name="KSPACING">      0.50000000</i>
    <i type="logical" name="KGAMMA"> T  </i>
   </separator>
   <separator name="electronic projectors" >
    <i type="logical" name="LREAL"> F  </i>
    <v name="ROPT">      0.00000000      0.00000000</v>
    <i type="int" name="LMAXPAW">  -100</i>
    <i type="int" name="LMAXMIX">     2</i>
    <i type="logical" name="NLSPLINE"> F  </i>
   </separator>
   <separator name="electronic startup" >
    <i type="int" name="ISTART">     0</i>
    <i type="int" name="ICHARG">     2</i>
    <i type="int" name="INIWAV">     1</i>
   </separator>
   <separator name="electronic spin" >
    <i type="int" name="ISPIN">     1</i>
    <i type="logical" name="LNONCOLLINEAR"> F  </i>
    <v name="MAGMOM">      1.00000000      1.00000000      1.00000000      1.00000000      1.00000000      1.00000000      1.00000000      1.00000000      1.00000000      1.00000000      1.00000000      1.00000000      1.00000000      1.00000000      1.00000000      1.00000000      1.00000000      1.00000000      1.00000000      1.00000000
      1.00000000      1.00000000      1.00000000      1.00000000      1.00000000      1.00000000      1.00000000      1.00000000      1.00000000      1.00000000      1.00000000      1.00000000      1.00000000      1.00000000      1.00000000      1.00000000      1.00000000      1.00000000      1.00000000      1.00000000
      1.00000000      1.00000000      1.00000000      1.00000000</v>
    <i name="NUPDOWN">     -1.00000000</i>
    <i type="logical" name="LSORBIT"> F  </i>
    <v name="SAXIS">      0.00000000      0.00000000      1.00000000</v>
    <i type="logical" name="LSPIRAL"> F  </i>
    <v name="QSPIRAL">      0.00000000      0.00000000      0.00000000</v>
    <i type="logical" name="LZEROZ"> F  </i>
   </separator>
   <separator name="electronic exchange-correlation" >
    <i type="logical" name="LASPH"> F  </i>
    <i type="logical" name="LMETAGGA"> F  </i>
   </separator>
   <separator name="electronic convergence" >
    <i type="int" name="NELM">    60</i>
    <i type="int" name="NELMDL">     0</i>
    <i type="int" name="NELMIN">     5</i>
    <i name="ENINI">    500.00000000</i>
    <separator name="electronic convergence detail" >
     <i type="logical" name="LDIAG"> T  </i>
     <i type="logical" name="LSUBROT"> F  </i>
     <i name="WEIMIN">      0.00100000</i>
     <i name="EBREAK">      0.00000002</i>
     <i name="DEPER">      0.30000000</i>
     <i type="int" name="NRMM">     4</i>
     <i name="TIME">      0.40000000</i>
    </separator>
   </separator>
   <separator name="electronic mixer" >
    <i name="AMIX">      0.40000000</i>
    <i name="BMIX">      1.00000000</i>
    <i name="AMIN">      0.10000000</i>
    <i name="AMIX_MAG">      1.60000000</i>
    <i name="BMIX_MAG">      1.00000000</i>
    <separator name="electronic mixer details" >
     <i type="int" name="IMIX">     4</i>
     <i type="logical" name="MIXFIRST"> F  </i>
     <i type="int" name="MAXMIX">   -45</i>
     <i name="WC">    100.00000000</i>
     <i type="int" name="INIMIX">     1</i>
     <i type="int" name="MIXPRE">     1</i>
     <i type="int" name="MREMOVE">     5</i>
    </separator>
   </separator>
   <separator name="electronic dipolcorrection" >
    <i type="logical" name="LDIPOL"> F  </i>
    <i type="logical" name="LMONO"> F  </i>
    <i type="int" name="IDIPOL">     0</i>
    <i name="EPSILON">      1.00000000</i>
    <v name="DIPOL">   -100.00000000   -100.00000000   -100.00000000</v>
    <i name="EFIELD">      0.00000000</i>
   </separator>
  </separator>
  <separator name="grids" >
   <i type="int" name="NGX">    36</i>
   <i type="int" name="NGY">    36</i>
   <i type="int" name="NGZ">    70</i>
   <i type="int" name="NGXF">    72</i>
   <i type="int" name="NGYF">    72</i>
   <i type="int" name="NGZF">   140</i>
   <i type="logical" name="ADDGRID"> F  </i>
  </separator>
  <separator name="ionic" >
   <i type="int" name="NSW">   300</i>
   <i type="int" name="IBRION">     2</i>
   <i type="int" name="MDALGO">     0</i>
   <i type="int" name="ISIF">     3</i>
   <i name="PSTRESS">      0.00000000</i>
   <i name="EDIFFG">     -0.01000000</i>
   <i type="int" name="NFREE">     1</i>
   <i name="POTIM">      0.50000000</i>
   <i name="SMASS">     -3.00000000</i>
   <i name="SCALEE">      1.00000000</i>
  </separator>
  <separator name="ionic md" >
   <i name="TEBEG">      0.00010000</i>
   <i name="TEEND">      0.00010000</i>
   <i type="int" name="NBLOCK">     1</i>
   <i type="int" name="KBLOCK">   300</i>
   <i type="int" name="NPACO">   256</i>
   <i name="APACO">     16.00000000</i>
  </separator>
  <separator name="symmetry" >
   <i type="int" name="ISYM">     2</i>
   <i name="SYMPREC">      0.00001000</i>
  </separator>
  <separator name="dos" >
   <i type="int" name="LORBIT">     0</i>
   <v name="RWIGS">     -1.00000000     -1.00000000</v>
   <i type="int" name="NEDOS">   301</i>
   <i name="EMIN">     10.00000000</i>
   <i name="EMAX">    -10.00000000</i>
   <i name="EFERMI">      0.00000000</i>
  </separator>
  <separator name="writing" >
   <i type="int" name="NWRITE">     2</i>
   <i type="logical" name="LWAVE"> F  </i>
   <i type="logical" name="LDOWNSAMPLE"> F  </i>
   <i type="logical" name="LCHARG"> F  </i>
   <i type="logical" name="LPARD"> F  </i>
   <i type="logical" name="LVTOT"> F  </i>
   <i type="logical" name="LVHAR"> F  </i>
   <i type="logical" name="LELF"> F  </i>
   <i type="logical" name="LOPTICS"> F  </i>
   <v name="STM">      0.00000000      0.00000000      0.00000000      0.00000000      0.00000000      0.00000000      0.00000000</v>
  </separator>
  <separator name="performance" >
   <i type="int" name="NPAR">     2</i>
   <i type="int" name="NSIM">     4</i>
   <i type="int" name="NBLK">    -1</i>
   <i type="logical" name="LPLANE"> T  </i>
   <i type="logical" name="LSCALAPACK"> T  </i>
   <i type="logical" name="LSCAAWARE"> F  </i>
   <i type="logical" name="LSCALU"> F  </i>
   <i type="logical" name="LASYNC"> F  </i>
   <i type="logical" name="LORBITALREAL"> F  </i>
  </separator>
  <separator name="miscellaneous" >
   <i type="int" name="IDIOT">     3</i>
   <i type="int" name="ISPECIAL">     0</i>
   <i type="logical" name="LMUSIC"> F  </i>
   <v name="POMASS">     24.30500000     14.00100000</v>
   <v name="DARWINR">      0.00000000      0.00000000</v>
   <v name="DARWINV">      1.00000000      1.00000000</v>
   <i type="logical" name="LCORR"> T  </i>
  </separator>
  <i type="logical" name="GGA_COMPAT"> T  </i>
  <i type="logical" name="LBERRY"> F  </i>
  <i type="int" name="ICORELEVEL">     0</i>
  <i type="logical" name="LDAU"> F  </i>
  <i type="int" name="I_CONSTRAINED_M">     0</i>
  <separator name="electronic exchange-correlation" >
   <i type="string" name="GGA">--</i>
   <i type="int" name="VOSKOWN">     0</i>
   <i type="logical" name="LHFCALC"> F  </i>
   <i type="string" name="PRECFOCK"></i>
   <i type="logical" name="LSYMGRAD"> F  </i>
   <i type="logical" name="LHFONE"> F  </i>
   <i type="logical" name="LRHFCALC"> F  </i>
   <i type="logical" name="LTHOMAS"> F  </i>
   <i type="logical" name="LMODELHF"> F  </i>
   <i name="ENCUT4O">     -1.00000000</i>
   <i type="int" name="EXXOEP">     0</i>
   <i type="int" name="FOURORBIT">     0</i>
   <i name="AEXX">      0.00000000</i>
   <i name="HFALPHA">      0.00000000</i>
   <i name="MCALPHA">      0.00000000</i>
   <i name="ALDAX">      1.00000000</i>
   <i name="AGGAX">      1.00000000</i>
   <i name="ALDAC">      1.00000000</i>
   <i name="AGGAC">      1.00000000</i>
   <i type="int" name="NKREDX">     1</i>
   <i type="int" name="NKREDY">     1</i>
   <i type="int" name="NKREDZ">     1</i>
   <i type="logical" name="SHIFTRED"> F  </i>
   <i type="logical" name="ODDONLY"> F  </i>
   <i type="logical" name="EVENONLY"> F  </i>
   <i type="int" name="LMAXFOCK">     0</i>
   <i type="int" name="NMAXFOCKAE">     0</i>
   <i type="logical" name="LFOCKAEDFT"> F  </i>
   <i name="HFSCREEN">      0.00000000</i>
   <i name="HFSCREENC">      0.00000000</i>
   <i type="int" name="NBANDSGWLOW">     0</i>
  </separator>
  <separator name="vdW DFT" >
   <i type="logical" name="LUSE_VDW"> F  </i>
   <i name="Zab_VDW">     -0.84910000</i>
   <i name="PARAM1">      0.12340000</i>
   <i name="PARAM2">      1.00000000</i>
   <i name="PARAM3">      0.00000000</i>
  </separator>
  <separator name="model GW" >
   <i type="int" name="MODEL_GW">     0</i>
   <i name="MODEL_EPS0">      7.22984038</i>
   <i name="MODEL_ALPHA">      1.00000000</i>
  </separator>
  <separator name="linear response parameters" >
   <i type="logical" name="LEPSILON"> F  </i>
   <i type="logical" name="LRPA"> F  </i>
   <i type="logical" name="LNABLA"> F  </i>
   <i type="logical" name="LVEL"> F  </i>
   <i type="int" name="KINTER">     0</i>
   <i name="CSHIFT">      0.10000000</i>
   <i name="OMEGAMAX">     -1.00000000</i>
   <i name="DEG_THRESHOLD">      0.00200000</i>
   <i name="RTIME">     -0.10000000</i>
   <i name="WPLASMAI">      0.00000000</i>
   <v name="DFIELD">      0.00000000      0.00000000      0.00000000</v>
   <v name="WPLASMA">      0.00000000      0.00000000      0.00000000      0.00000000      0.00000000      0.00000000      0.00000000      0.00000000      0.00000000</v>
  </separator>
  <separator name="orbital magnetization" >
   <i type="logical" name="NUCIND"> F  </i>
   <v name="MAGPOS">      0.00000000      0.00000000      0.00000000</v>
   <i type="logical" name="LNICSALL"> T  </i>
   <i type="logical" name="ORBITALMAG"> F  </i>
   <i type="logical" name="LMAGBLOCH"> F  </i>
   <i type="logical" name="LCHIMAG"> F  </i>
   <i type="logical" name="LGAUGE"> T  </i>
   <i type="int" name="MAGATOM">     0</i>
   <v name="MAGDIPOL">      0.00000000      0.00000000      0.00000000</v>
   <v name="AVECCONST">      0.00000000      0.00000000      0.00000000</v>
  </separator>
  <separator name="response functions" >
   <i type="logical" name="LADDER"> F  </i>
   <i type="logical" name="LRPAFORCE"> F  </i>
   <i type="logical" name="LFXC"> F  </i>
   <i type="logical" name="LHARTREE"> T  </i>
   <i type="int" name="IBSE">     0</i>
   <v type="int" name="KPOINT">    -1     0     0     0</v>
   <i type="logical" name="LTCTE"> F  </i>
   <i type="logical" name="LTETE"> F  </i>
   <i type="logical" name="LTRIPLET"> F  </i>
   <i type="logical" name="LFXCEPS"> F  </i>
   <i type="logical" name="LFXHEG"> F  </i>
   <i type="int" name="NATURALO">     2</i>
   <i type="logical" name="L2ORDER"> F  </i>
   <i type="logical" name="LMP2LT"> F  </i>
   <i type="logical" name="LUSEW"> F  </i>
   <i name="ENCUTGW">     -2.00000000</i>
   <i name="ENCUTGWSOFT">     -2.00000000</i>
   <i name="ENCUTLF">     -1.00000000</i>
   <i type="int" name="LMAXMP2">    -1</i>
   <i name="SCISSOR">      0.00000000</i>
   <i type="int" name="NOMEGA">     0</i>
   <i type="int" name="NOMEGAR">     0</i>
   <i type="int" name="NBANDSGW">    -1</i>
   <i type="int" name="NBANDSO">    -1</i>
   <i type="int" name="NBANDSV">    -1</i>
   <i type="int" name="NELM">     1</i>
   <i type="int" name="NELMHF">     1</i>
   <i type="int" name="DIM">     3</i>
   <i type="int" name="ANTIRES">     0</i>
   <i name="OMEGAMAX">    -30.00000000</i>
   <i name="OMEGAMIN">    -30.00000000</i>
   <i name="OMEGATL">   -200.00000000</i>
   <i type="int" name="OMEGAGRID">   140</i>
   <i name="CSHIFT">     -0.10000000</i>
   <i type="logical" name="SELFENERGY"> F  </i>
   <i type="logical" name="LSPECTRAL"> F  </i>
   <i type="logical" name="LSPECTRALGW"> F  </i>
   <i type="logical" name="LSINGLES"> F  </i>
   <i type="logical" name="LFERMIGW"> F  </i>
   <i type="logical" name="ODDONLYGW"> F  </i>
   <i type="logical" name="EVENONLYGW"> F  </i>
   <i type="int" name="NKREDLFX">     1</i>
   <i type="int" name="NKREDLFY">     1</i>
   <i type="int" name="NKREDLFZ">     1</i>
   <i type="int" name="MAXMEM">  2800</i>
   <i type="int" name="TELESCOPE">     0</i>
   <i type="int" name="TAUPAR">     1</i>
   <i type="int" name="OMEGAPAR">    -1</i>
   <i name="LAMBDA">      1.00000000</i>
  </separator>
  <separator name="External order field" >
   <i name="OFIELD_KAPPA">      0.00000000</i>
   <v name="OFIELD_K">      0.00000000      0.00000000      0.00000000</v>
   <i name="OFIELD_Q6_NEAR">      0.00000000</i>
   <i name="OFIELD_Q6_FAR">      0.00000000</i>
   <i name="OFIELD_A">      0.00000000</i>
  </separator>
 </parameters>
 <atominfo>
  <atoms>      44 </atoms>
  <types>       2 </types>
  <array name="atoms" >
   <dimension dim="1">ion</dimension>
   <field type="string">element</field>
   <field type="int">atomtype</field>
   <set>
    <rc><c>Mg</c><c>   1</c></rc>
    <rc><c>Mg</c><c>   1</c></rc>
    <rc><c>Mg</c><c>   1</c></rc>
    <rc><c>Mg</c><c>   1</c></rc>
    <rc><c>N </c><c>   2</c></rc>
    <rc><c>N </c><c>   2</c></rc>
    <rc><c>N </c><c>   2</c></rc>
    <rc><c>N </c><c>   2</c></rc>
    <rc><c>N </c><c>   2</c></rc>
    <rc><c>N </c><c>   2</c></rc>
    <rc><c>N </c><c>   2</c></rc>
    <rc><c>N </c><c>   2</c></rc>
    <rc><c>N </c><c>   2</c></rc>
    <rc><c>N </c><c>   2</c></rc>
    <rc><c>N </c><c>   2</c></rc>
    <rc><c>N </c><c>   2</c></rc>
    <rc><c>N </c><c>   2</c></rc>
    <rc><c>N </c><c>   2</c></rc>
    <rc><c>N </c><c>   2</c></rc>
    <rc><c>N </c><c>   2</c></rc>
    <rc><c>N </c><c>   2</c></rc>
    <rc><c>N </c><c>   2</c></rc>
    <rc><c>N </c><c>   2</c></rc>
    <rc><c>N </c><c>   2</c></rc>
    <rc><c>N </c><c>   2</c></rc>
    <rc><c>N </c><c>   2</c></rc>
    <rc><c>N </c><c>   2</c></rc>
    <rc><c>N </c><c>   2</c></rc>
    <rc><c>N </c><c>   2</c></rc>
    <rc><c>N </c><c>   2</c></rc>
    <rc><c>N </c><c>   2</c></rc>
    <rc><c>N </c><c>   2</c></rc>
    <rc><c>N </c><c>   2</c></rc>
    <rc><c>N </c><c>   2</c></rc>
    <rc><c>N </c><c>   2</c></rc>
    <rc><c>N </c><c>   2</c></rc>
    <rc><c>N </c><c>   2</c></rc>
    <rc><c>N </c><c>   2</c></rc>
    <rc><c>N </c><c>   2</c></rc>
    <rc><c>N </c><c>   2</c></rc>
    <rc><c>N </c><c>   2</c></rc>
    <rc><c>N </c><c>   2</c></rc>
    <rc><c>N </c><c>   2</c></rc>
    <rc><c>N </c><c>   2</c></rc>
   </set>
  </array>
  <array name="atomtypes" >
   <dimension dim="1">type</dimension>
   <field type="int">atomspertype</field>
   <field type="string">element</field>
   <field>mass</field>
   <field>valence</field>
   <field type="string">pseudopotential</field>
   <set>
    <rc><c>   4</c><c>Mg</c><c>     24.30500000</c><c>      2.00000000</c><c>  PAW_PBE Mg 13Apr2007                  </c></rc>
    <rc><c>  40</c><c>N </c><c>     14.00100000</c><c>      5.00000000</c><c>  PAW_PBE N 08Apr2002                   </c></rc>
   </set>
  </array>
 </atominfo>
 <structure name="initialpos" >
  <crystal>
   <varray name="basis" >
    <v>       6.66205439       0.00000000       0.00000000 </v>
    <v>       0.00000000       6.66501912       0.00000000 </v>
    <v>       0.00000000       0.00000000      11.94044634 </v>
   </varray>
   <i name="volume">    530.18829461 </i>
   <varray name="rec_basis" >
    <v>       0.15010385       0.00000000       0.00000000 </v>
    <v>       0.00000000       0.15003708       0.00000000 </v>
    <v>       0.00000000       0.00000000       0.08374896 </v>
   </varray>
  </crystal>
  <varray name="positions" >
   <v>       0.24954804       0.00000000       0.37494240 </v>
   <v>       0.75045196       0.50000000       0.87494240 </v>
   <v>       0.75045196       0.00000000       0.62505760 </v>
   <v>       0.24954804       0.50000000       0.12505760 </v>
   <v>       0.09043593       0.00000000       0.62647111 </v>
   <v>       0.15249037       0.00000000       0.73225588 </v>
   <v>       0.34900252       0.00000000       0.73210240 </v>
   <v>       0.41056134       0.00000000       0.62623177 </v>
   <v>       0.25033024       0.00000000       0.56055907 </v>
   <v>       0.90956407       0.50000000       0.12647111 </v>
   <v>       0.84750963       0.50000000       0.23225588 </v>
   <v>       0.65099748       0.50000000       0.23210240 </v>
   <v>       0.58943866       0.50000000       0.12623177 </v>
   <v>       0.74966976       0.50000000       0.06055907 </v>
   <v>       0.90956407       0.00000000       0.37352889 </v>
   <v>       0.84750963       0.00000000       0.26774412 </v>
   <v>       0.65099748       0.00000000       0.26789760 </v>
   <v>       0.58943866       0.00000000       0.37376823 </v>
   <v>       0.74966976       0.00000000       0.43944093 </v>
   <v>       0.09043593       0.50000000       0.87352889 </v>
   <v>       0.15249037       0.50000000       0.76774412 </v>
   <v>       0.34900252       0.50000000       0.76789760 </v>
   <v>       0.41056134       0.50000000       0.87376823 </v>
   <v>       0.25033024       0.50000000       0.93944093 </v>
   <v>       0.75069157       0.00000000       0.81051208 </v>
   <v>       0.75074645       0.84000091       0.87629435 </v>
   <v>       0.75066486       0.90178461       0.98211305 </v>
   <v>       0.75066486       0.09821539       0.98211305 </v>
   <v>       0.75074645       0.15999909       0.87629435 </v>
   <v>       0.24930843       0.50000000       0.31051208 </v>
   <v>       0.24925355       0.65999909       0.37629435 </v>
   <v>       0.24933514       0.59821539       0.48211305 </v>
   <v>       0.24933514       0.40178461       0.48211305 </v>
   <v>       0.24925355       0.34000091       0.37629435 </v>
   <v>       0.24930843       0.00000000       0.18948792 </v>
   <v>       0.24925355       0.84000091       0.12370565 </v>
   <v>       0.24933514       0.90178461       0.01788695 </v>
   <v>       0.24933514       0.09821539       0.01788695 </v>
   <v>       0.24925355       0.15999909       0.12370565 </v>
   <v>       0.75069157       0.50000000       0.68948792 </v>
   <v>       0.75074645       0.65999909       0.62370565 </v>
   <v>       0.75066486       0.59821539       0.51788695 </v>
   <v>       0.75066486       0.40178461       0.51788695 </v>
   <v>       0.75074645       0.34000091       0.62370565 </v>
  </varray>
 </structure>
 <calculation>
  <scstep>
   <time name="dav">    1.52    1.53</time>
   <time name="total">    1.54    1.55</time>
   <energy>
    <i name="alphaZ">    373.47426960 </i>
    <i name="ewald">  -5796.59993743 </i>
    <i name="hartreedc">  -4403.93969822 </i>
    <i name="XCdc">    598.17184603 </i>
    <i name="pawpsdc">   8458.53604555 </i>
    <i name="pawaedc">  -8298.72446309 </i>
    <i name="eentropy">     -0.12696882 </i>
    <i name="bandstr">   -188.71350873 </i>
    <i name="atom">  10673.54141234 </i>
    <i name="e_fr_energy">   1415.61899723 </i>
    <i name="e_wo_entrp">   1415.74596605 </i>
    <i name="e_0_energy">   1415.68248164 </i>
   </energy>
  </scstep>
  <scstep>
   <time name="dav">    1.84    1.85</time>
   <time name="total">    1.84    1.85</time>
   <energy>
    <i name="e_fr_energy">   -217.39122806 </i>
    <i name="e_wo_entrp">   -217.39122806 </i>
    <i name="e_0_energy">   -217.39122806 </i>
   </energy>
  </scstep>
  <scstep>
   <time name="dav">    1.67    1.68</time>
   <time name="total">    1.67    1.68</time>
   <energy>
    <i name="e_fr_energy">   -342.27033758 </i>
    <i name="e_wo_entrp">   -342.27033758 </i>
    <i name="e_0_energy">   -342.27033758 </i>
   </energy>
  </scstep>
  <scstep>
   <time name="dav">    1.70    1.71</time>
   <time name="total">    1.70    1.71</time>
   <energy>
    <i name="e_fr_energy">   -344.99512596 </i>
    <i name="e_wo_entrp">   -344.99512596 </i>
    <i name="e_0_energy">   -344.99512596 </i>
   </energy>
  </scstep>
  <scstep>
   <time name="dav">    1.68    1.68</time>
   <time name="total">    1.73    1.74</time>
   <energy>
    <i name="e_fr_energy">   -345.08729917 </i>
    <i name="e_wo_entrp">   -345.08729917 </i>
    <i name="e_0_energy">   -345.08729917 </i>
   </energy>
  </scstep>
  <scstep>
   <time name="dav">    1.60    1.60</time>
   <time name="total">    1.67    1.67</time>
   <energy>
    <i name="e_fr_energy">   -333.89037428 </i>
    <i name="e_wo_entrp">   -333.89037428 </i>
    <i name="e_0_energy">   -333.89037428 </i>
   </energy>
  </scstep>
  <scstep>
   <time name="dav">    1.64    1.64</time>
   <time name="total">    1.70    1.71</time>
   <energy>
    <i name="e_fr_energy">   -331.76392865 </i>
    <i name="e_wo_entrp">   -331.76392865 </i>
    <i name="e_0_energy">   -331.76392865 </i>
   </energy>
  </scstep>
  <scstep>
   <time name="dav">    1.54    1.55</time>
   <time name="total">    1.61    1.62</time>
   <energy>
    <i name="e_fr_energy">   -331.77754398 </i>
    <i name="e_wo_entrp">   -331.77754398 </i>
    <i name="e_0_energy">   -331.77754398 </i>
   </energy>
  </scstep>
  <scstep>
   <time name="dav">    1.56    1.57</time>
   <time name="total">    1.63    1.64</time>
   <energy>
    <i name="e_fr_energy">   -331.77782078 </i>
    <i name="e_wo_entrp">   -331.77782078 </i>
    <i name="e_0_energy">   -331.77782078 </i>
   </energy>
  </scstep>
  <scstep>
   <time name="dav">    1.66    1.67</time>
   <time name="total">    1.73    1.74</time>
   <energy>
    <i name="e_fr_energy">   -331.77923433 </i>
    <i name="e_wo_entrp">   -331.77923433 </i>
    <i name="e_0_energy">   -331.77923433 </i>
   </energy>
  </scstep>
  <scstep>
   <time name="dav">    1.62    1.63</time>
   <time name="total">    1.69    1.70</time>
   <energy>
    <i name="e_fr_energy">   -331.77961469 </i>
    <i name="e_wo_entrp">   -331.77961469 </i>
    <i name="e_0_energy">   -331.77961469 </i>
   </energy>
  </scstep>
  <scstep>
   <time name="dav">    1.49    1.49</time>
   <time name="total">    1.55    1.56</time>
   <energy>
    <i name="e_fr_energy">   -331.77966532 </i>
    <i name="e_wo_entrp">   -331.77966532 </i>
    <i name="e_0_energy">   -331.77966532 </i>
   </energy>
  </scstep>
  <scstep>
   <time name="dav">    1.45    1.45</time>
   <time name="total">    1.52    1.55</time>
   <energy>
    <i name="e_fr_energy">   -331.77969116 </i>
    <i name="e_wo_entrp">   -331.77969116 </i>
    <i name="e_0_energy">   -331.77969116 </i>
   </energy>
  </scstep>
  <scstep>
   <time name="dav">    1.05    1.05</time>
   <time name="total">    1.06    1.07</time>
   <energy>
    <i name="alphaZ">    373.47426960 </i>
    <i name="ewald">  -5796.59993743 </i>
    <i name="hartreedc">  -4693.96815567 </i>
    <i name="XCdc">    620.56290983 </i>
    <i name="pawpsdc">  20703.68894996 </i>
    <i name="pawaedc"> -20549.66949565 </i>
    <i name="eentropy">     -0.00000000 </i>
    <i name="bandstr">  -1662.80964609 </i>
    <i name="atom">  10673.54141234 </i>
    <i name="e_fr_energy">   -331.77969311 </i>
    <i name="e_wo_entrp">   -331.77969311 </i>
    <i name="e_0_energy">   -331.77969311 </i>
   </energy>
  </scstep>
  <structure>
   <crystal>
    <varray name="basis" >
     <v>       6.66205439       0.00000000       0.00000000 </v>
     <v>       0.00000000       6.66501912       0.00000000 </v>
     <v>       0.00000000       0.00000000      11.94044634 </v>
    </varray>
    <i name="volume">    530.18829461 </i>
    <varray name="rec_basis" >
     <v>       0.15010385       0.00000000       0.00000000 </v>
     <v>       0.00000000       0.15003708       0.00000000 </v>
     <v>       0.00000000       0.00000000       0.08374896 </v>
    </varray>
   </crystal>
   <varray name="positions" >
    <v>       0.24954804       0.00000000       0.37494240 </v>
    <v>       0.75045196       0.50000000       0.87494240 </v>
    <v>       0.75045196       0.00000000       0.62505760 </v>
    <v>       0.24954804       0.50000000       0.12505760 </v>
    <v>       0.09043593       0.00000000       0.62647111 </v>
    <v>       0.15249037       0.00000000       0.73225588 </v>
    <v>       0.34900252       0.00000000       0.73210240 </v>
    <v>       0.41056134       0.00000000       0.62623177 </v>
    <v>       0.25033024       0.00000000       0.56055907 </v>
    <v>       0.90956407       0.50000000       0.12647111 </v>
    <v>       0.84750963       0.50000000       0.23225588 </v>
    <v>       0.65099748       0.50000000       0.23210240 </v>
    <v>       0.58943866       0.50000000       0.12623177 </v>
    <v>       0.74966976       0.50000000       0.06055907 </v>
    <v>       0.90956407       0.00000000       0.37352889 </v>
    <v>       0.84750963       0.00000000       0.26774412 </v>
    <v>       0.65099748       0.00000000       0.26789760 </v>
    <v>       0.58943866       0.00000000       0.37376823 </v>
    <v>       0.74966976       0.00000000       0.43944093 </v>
    <v>       0.09043593       0.50000000       0.87352889 </v>
    <v>       0.15249037       0.50000000       0.76774412 </v>
    <v>       0.34900252       0.50000000       0.76789760 </v>
    <v>       0.41056134       0.50000000       0.87376823 </v>
    <v>       0.25033024       0.50000000       0.93944093 </v>
    <v>       0.75069157       0.00000000       0.81051208 </v>
    <v>       0.75074645       0.84000091       0.87629435 </v>
    <v>       0.75066486       0.90178461       0.98211305 </v>
    <v>       0.75066486       0.09821539       0.98211305 </v>
    <v>       0.75074645       0.15999909       0.87629435 </v>
    <v>       0.24930843       0.50000000       0.31051208 </v>
    <v>       0.24925355       0.65999909       0.37629435 </v>
    <v>       0.24933514       0.59821539       0.48211305 </v>
    <v>       0.24933514       0.40178461       0.48211305 </v>
    <v>       0.24925355       0.34000091       0.37629435 </v>
    <v>       0.24930843       0.00000000       0.18948792 </v>
    <v>       0.24925355       0.84000091       0.12370565 </v>
    <v>       0.24933514       0.90178461       0.01788695 </v>
    <v>       0.24933514       0.09821539       0.01788695 </v>
    <v>       0.24925355       0.15999909       0.12370565 </v>
    <v>       0.75069157       0.50000000       0.68948792 </v>
    <v>       0.75074645       0.65999909       0.62370565 </v>
    <v>       0.75066486       0.59821539       0.51788695 </v>
    <v>       0.75066486       0.40178461       0.51788695 </v>
    <v>       0.75074645       0.34000091       0.62370565 </v>
   </varray>
  </structure>
  <varray name="forces" >
   <v>      -0.00143638       0.00000000       0.00629018 </v>
   <v>       0.00143638      -0.00000000       0.00629018 </v>
   <v>       0.00143638       0.00000000      -0.00629018 </v>
   <v>      -0.00143638      -0.00000000      -0.00629018 </v>
   <v>       0.00014539       0.00000000      -0.00252140 </v>
   <v>      -0.00275172       0.00000000      -0.00255462 </v>
   <v>      -0.00322920       0.00000000      -0.00238018 </v>
   <v>      -0.00318326      -0.00000000      -0.00110533 </v>
   <v>      -0.00097051      -0.00000000      -0.00165379 </v>
   <v>      -0.00014539      -0.00000000      -0.00252140 </v>
   <v>       0.00275172      -0.00000000      -0.00255462 </v>
   <v>       0.00322920      -0.00000000      -0.00238018 </v>
   <v>       0.00318326      -0.00000000      -0.00110533 </v>
   <v>       0.00097051       0.00000000      -0.00165379 </v>
   <v>      -0.00014539      -0.00000000       0.00252140 </v>
   <v>       0.00275172      -0.00000000       0.00255462 </v>
   <v>       0.00322920       0.00000000       0.00238018 </v>
   <v>       0.00318326       0.00000000       0.00110533 </v>
   <v>       0.00097051      -0.00000000       0.00165379 </v>
   <v>       0.00014539       0.00000000       0.00252140 </v>
   <v>      -0.00275172       0.00000000       0.00255462 </v>
   <v>      -0.00322920       0.00000000       0.00238018 </v>
   <v>      -0.00318326      -0.00000000       0.00110533 </v>
   <v>      -0.00097051      -0.00000000       0.00165379 </v>
   <v>       0.00718491      -0.00000000      -0.00209162 </v>
   <v>      -0.00824771      -0.00107913      -0.00189798 </v>
   <v>       0.00102997      -0.00182599       0.00129110 </v>
   <v>       0.00102997       0.00182599       0.00129110 </v>
   <v>      -0.00824771       0.00107913      -0.00189798 </v>
   <v>      -0.00718491       0.00000000      -0.00209162 </v>
   <v>       0.00824771       0.00107913      -0.00189798 </v>
   <v>      -0.00102997       0.00182599       0.00129110 </v>
   <v>      -0.00102997      -0.00182599       0.00129110 </v>
   <v>       0.00824771      -0.00107913      -0.00189798 </v>
   <v>      -0.00718491      -0.00000000       0.00209162 </v>
   <v>       0.00824771      -0.00107913       0.00189798 </v>
   <v>      -0.00102997      -0.00182599      -0.00129110 </v>
   <v>      -0.00102997       0.00182599      -0.00129110 </v>
   <v>       0.00824771       0.00107913       0.00189798 </v>
   <v>       0.00718491       0.00000000       0.00209162 </v>
   <v>      -0.00824771       0.00107913       0.00189798 </v>
   <v>       0.00102997       0.00182599      -0.00129110 </v>
   <v>       0.00102997      -0.00182599      -0.00129110 </v>
   <v>      -0.00824771      -0.00107913       0.00189798 </v>
  </varray>
  <varray name="stress" >
   <v>       0.00893609       0.00000000      -0.00000000 </v>
   <v>       0.00000000      -0.33575051       0.00000000 </v>
   <v>      -0.00000000       0.00000000      -0.53195498 </v>
  </varray>
  <energy>
   <i name="e_fr_energy">   -331.77969311 </i>
   <i name="e_wo_entrp">   -331.77969311 </i>
   <i name="e_0_energy">     -0.00000000 </i>
  </energy>
  <time name="totalsc">   24.62   24.76</time>
  <eigenvalues>
   <array>
    <dimension dim="1">band</dimension>
    <dimension dim="2">kpoint</dimension>
    <dimension dim="3">spin</dimension>
    <field>eigene</field>
    <field>occ</field>
    <set>
     <set comment="spin 1">
      <set comment="kpoint 1">
       <r>  -23.4580    1.0000 </r>
       <r>  -23.3993    1.0000 </r>
       <r>  -23.3989    1.0000 </r>
       <r>  -23.3843    1.0000 </r>
       <r>  -23.3779    1.0000 </r>
       <r>  -23.3774    1.0000 </r>
       <r>  -23.3658    1.0000 </r>
       <r>  -23.3433    1.0000 </r>
       <r>  -17.6683    1.0000 </r>
       <r>  -17.5823    1.0000 </r>
       <r>  -17.5746    1.0000 </r>
       <r>  -17.5737    1.0000 </r>
       <r>  -17.5429    1.0000 </r>
       <r>  -17.5367    1.0000 </r>
       <r>  -17.5360    1.0000 </r>
       <r>  -17.4586    1.0000 </r>
       <r>  -17.4582    1.0000 </r>
       <r>  -17.4341    1.0000 </r>
       <r>  -17.4337    1.0000 </r>
       <r>  -17.4279    1.0000 </r>
       <r>  -17.4087    1.0000 </r>
       <r>  -17.4083    1.0000 </r>
       <r>  -17.3840    1.0000 </r>
       <r>  -17.3836    1.0000 </r>
       <r>  -10.9558    1.0000 </r>
       <r>  -10.7863    1.0000 </r>
       <r>  -10.7853    1.0000 </r>
       <r>  -10.7616    1.0000 </r>
       <r>  -10.7610    1.0000 </r>
       <r>  -10.7602    1.0000 </r>
       <r>  -10.7600    1.0000 </r>
       <r>  -10.6815    1.0000 </r>
       <r>  -10.6117    1.0000 </r>
       <r>  -10.6108    1.0000 </r>
       <r>  -10.5917    1.0000 </r>
       <r>  -10.5706    1.0000 </r>
       <r>  -10.5697    1.0000 </r>
       <r>  -10.5400    1.0000 </r>
       <r>  -10.5389    1.0000 </r>
       <r>  -10.4569    1.0000 </r>
       <r>   -7.2969    1.0000 </r>
       <r>   -6.5714    1.0000 </r>
       <r>   -6.5713    1.0000 </r>
       <r>   -6.5488    1.0000 </r>
       <r>   -6.5480    1.0000 </r>
       <r>   -6.4576    1.0000 </r>
       <r>   -6.4568    1.0000 </r>
       <r>   -6.1583    1.0000 </r>
       <r>   -6.1572    1.0000 </r>
       <r>   -6.0754    1.0000 </r>
       <r>   -6.0743    1.0000 </r>
       <r>   -5.9083    1.0000 </r>
       <r>   -5.7197    1.0000 </r>
       <r>   -5.7193    1.0000 </r>
       <r>   -5.6771    1.0000 </r>
       <r>   -5.6002    1.0000 </r>
       <r>   -3.4566    1.0000 </r>
       <r>   -3.2133    1.0000 </r>
       <r>   -3.2118    1.0000 </r>
       <r>   -2.9029    1.0000 </r>
       <r>   -2.6865    1.0000 </r>
       <r>   -2.6396    1.0000 </r>
       <r>   -2.6374    1.0000 </r>
       <r>   -2.6355    1.0000 </r>
       <r>   -2.6336    1.0000 </r>
       <r>   -2.6054    1.0000 </r>
       <r>   -2.5632    1.0000 </r>
       <r>   -2.5602    1.0000 </r>
       <r>   -2.5421    1.0000 </r>
       <r>   -2.5393    1.0000 </r>
       <r>   -2.4789    1.0000 </r>
       <r>   -2.4787    1.0000 </r>
       <r>   -2.4265    1.0000 </r>
       <r>   -2.3926    1.0000 </r>
       <r>   -2.3916    1.0000 </r>
       <r>   -2.2773    1.0000 </r>
       <r>   -2.2768    1.0000 </r>
       <r>   -2.2326    1.0000 </r>
       <r>   -2.2321    1.0000 </r>
       <r>   -2.0485    1.0000 </r>
       <r>   -2.0478    1.0000 </r>
       <r>   -2.0387    1.0000 </r>
       <r>   -1.9093    1.0000 </r>
       <r>   -1.9089    1.0000 </r>
       <r>   -1.7177    1.0000 </r>
       <r>   -1.6721    1.0000 </r>
       <r>   -1.6260    1.0000 </r>
       <r>   -1.6160    1.0000 </r>
       <r>   -1.6115    1.0000 </r>
       <r>   -1.6093    1.0000 </r>
       <r>   -1.5991    1.0000 </r>
       <r>   -1.5980    1.0000 </r>
       <r>   -1.5905    1.0000 </r>
       <r>   -1.1952    1.0000 </r>
       <r>   -1.1936    1.0000 </r>
       <r>   -1.0115    1.0000 </r>
       <r>   -1.0113    1.0000 </r>
       <r>   -0.8798    1.0000 </r>
       <r>   -0.8793    1.0000 </r>
       <r>   -0.7725    1.0000 </r>
       <r>   -0.6950    1.0000 </r>
       <r>   -0.6942    1.0000 </r>
       <r>   -0.6424    1.0000 </r>
       <r>   -0.6421    1.0000 </r>
       <r>    4.3026    0.0000 </r>
       <r>    4.3049    0.0000 </r>
       <r>    4.3414    0.0000 </r>
       <r>    4.3435    0.0000 </r>
       <r>    4.3568    0.0000 </r>
       <r>    4.4532    0.0000 </r>
       <r>    4.4549    0.0000 </r>
       <r>    4.4919    0.0000 </r>
       <r>    4.4935    0.0000 </r>
       <r>    4.8090    0.0000 </r>
       <r>    4.8109    0.0000 </r>
       <r>    4.9888    0.0000 </r>
       <r>    4.9985    0.0000 </r>
       <r>    5.1610    0.0000 </r>
       <r>    5.1641    0.0000 </r>
       <r>    5.6030    0.0000 </r>
       <r>    7.6839    0.0000 </r>
       <r>    7.7618    0.0000 </r>
       <r>    7.9371    0.0000 </r>
       <r>    7.9381    0.0000 </r>
       <r>    8.7623    0.0000 </r>
       <r>    8.8213    0.0000 </r>
       <r>    8.8241    0.0000 </r>
       <r>    8.9581    0.0000 </r>
      </set>
      <set comment="kpoint 2">
       <r>  -23.4184    1.0000 </r>
       <r>  -23.4181    1.0000 </r>
       <r>  -23.3911    1.0000 </r>
       <r>  -23.3908    1.0000 </r>
       <r>  -23.3816    1.0000 </r>
       <r>  -23.3814    1.0000 </r>
       <r>  -23.3605    1.0000 </r>
       <r>  -23.3604    1.0000 </r>
       <r>  -17.6184    1.0000 </r>
       <r>  -17.6180    1.0000 </r>
       <r>  -17.6002    1.0000 </r>
       <r>  -17.5994    1.0000 </r>
       <r>  -17.5840    1.0000 </r>
       <r>  -17.5838    1.0000 </r>
       <r>  -17.4878    1.0000 </r>
       <r>  -17.4875    1.0000 </r>
       <r>  -17.4464    1.0000 </r>
       <r>  -17.4458    1.0000 </r>
       <r>  -17.3984    1.0000 </r>
       <r>  -17.3977    1.0000 </r>
       <r>  -17.3963    1.0000 </r>
       <r>  -17.3957    1.0000 </r>
       <r>  -17.3905    1.0000 </r>
       <r>  -17.3898    1.0000 </r>
       <r>  -10.7916    1.0000 </r>
       <r>  -10.7916    1.0000 </r>
       <r>  -10.7730    1.0000 </r>
       <r>  -10.7723    1.0000 </r>
       <r>  -10.7646    1.0000 </r>
       <r>  -10.7643    1.0000 </r>
       <r>  -10.6630    1.0000 </r>
       <r>  -10.6609    1.0000 </r>
       <r>  -10.6601    1.0000 </r>
       <r>  -10.6594    1.0000 </r>
       <r>  -10.5687    1.0000 </r>
       <r>  -10.5675    1.0000 </r>
       <r>  -10.5548    1.0000 </r>
       <r>  -10.5542    1.0000 </r>
       <r>  -10.5521    1.0000 </r>
       <r>  -10.5506    1.0000 </r>
       <r>   -6.9026    1.0000 </r>
       <r>   -6.9024    1.0000 </r>
       <r>   -6.5093    1.0000 </r>
       <r>   -6.5086    1.0000 </r>
       <r>   -6.3957    1.0000 </r>
       <r>   -6.3929    1.0000 </r>
       <r>   -6.3098    1.0000 </r>
       <r>   -6.3044    1.0000 </r>
       <r>   -6.1741    1.0000 </r>
       <r>   -6.1700    1.0000 </r>
       <r>   -6.1149    1.0000 </r>
       <r>   -6.1140    1.0000 </r>
       <r>   -5.7407    1.0000 </r>
       <r>   -5.7387    1.0000 </r>
       <r>   -5.6164    1.0000 </r>
       <r>   -5.6163    1.0000 </r>
       <r>   -3.7779    1.0000 </r>
       <r>   -3.7774    1.0000 </r>
       <r>   -3.0033    1.0000 </r>
       <r>   -2.9991    1.0000 </r>
       <r>   -2.8801    1.0000 </r>
       <r>   -2.8791    1.0000 </r>
       <r>   -2.8333    1.0000 </r>
       <r>   -2.8264    1.0000 </r>
       <r>   -2.7167    1.0000 </r>
       <r>   -2.7167    1.0000 </r>
       <r>   -2.5621    1.0000 </r>
       <r>   -2.5584    1.0000 </r>
       <r>   -2.4753    1.0000 </r>
       <r>   -2.4753    1.0000 </r>
       <r>   -2.2715    1.0000 </r>
       <r>   -2.2697    1.0000 </r>
       <r>   -2.2494    1.0000 </r>
       <r>   -2.2455    1.0000 </r>
       <r>   -2.2069    1.0000 </r>
       <r>   -2.2058    1.0000 </r>
       <r>   -2.1577    1.0000 </r>
       <r>   -2.1576    1.0000 </r>
       <r>   -2.1053    1.0000 </r>
       <r>   -2.0986    1.0000 </r>
       <r>   -2.0711    1.0000 </r>
       <r>   -2.0671    1.0000 </r>
       <r>   -1.8272    1.0000 </r>
       <r>   -1.8268    1.0000 </r>
       <r>   -1.7980    1.0000 </r>
       <r>   -1.7941    1.0000 </r>
       <r>   -1.6501    1.0000 </r>
       <r>   -1.6501    1.0000 </r>
       <r>   -1.5794    1.0000 </r>
       <r>   -1.5788    1.0000 </r>
       <r>   -1.4483    1.0000 </r>
       <r>   -1.4482    1.0000 </r>
       <r>   -1.2069    1.0000 </r>
       <r>   -1.2069    1.0000 </r>
       <r>   -1.0080    1.0000 </r>
       <r>   -1.0075    1.0000 </r>
       <r>   -0.9197    1.0000 </r>
       <r>   -0.9182    1.0000 </r>
       <r>   -0.8954    1.0000 </r>
       <r>   -0.8933    1.0000 </r>
       <r>   -0.8740    1.0000 </r>
       <r>   -0.8709    1.0000 </r>
       <r>   -0.6656    1.0000 </r>
       <r>   -0.6639    1.0000 </r>
       <r>    4.2194    0.0000 </r>
       <r>    4.2196    0.0000 </r>
       <r>    4.3124    0.0000 </r>
       <r>    4.3140    0.0000 </r>
       <r>    4.3234    0.0000 </r>
       <r>    4.3248    0.0000 </r>
       <r>    4.5012    0.0000 </r>
       <r>    4.5013    0.0000 </r>
       <r>    4.7028    0.0000 </r>
       <r>    4.7038    0.0000 </r>
       <r>    4.9451    0.0000 </r>
       <r>    4.9478    0.0000 </r>
       <r>    4.9800    0.0000 </r>
       <r>    4.9883    0.0000 </r>
       <r>    5.3450    0.0000 </r>
       <r>    5.3485    0.0000 </r>
       <r>    8.2405    0.0000 </r>
       <r>    8.2557    0.0000 </r>
       <r>    8.3427    0.0000 </r>
       <r>    8.3488    0.0000 </r>
       <r>    8.8980    0.0000 </r>
       <r>    8.8996    0.0000 </r>
       <r>    9.2197    0.0000 </r>
       <r>    9.2443    0.0000 </r>
      </set>
      <set comment="kpoint 3">
       <r>  -23.4183    1.0000 </r>
       <r>  -23.4183    1.0000 </r>
       <r>  -23.3911    1.0000 </r>
       <r>  -23.3911    1.0000 </r>
       <r>  -23.3815    1.0000 </r>
       <r>  -23.3815    1.0000 </r>
       <r>  -23.3602    1.0000 </r>
       <r>  -23.3602    1.0000 </r>
       <r>  -17.6196    1.0000 </r>
       <r>  -17.6196    1.0000 </r>
       <r>  -17.5997    1.0000 </r>
       <r>  -17.5997    1.0000 </r>
       <r>  -17.5821    1.0000 </r>
       <r>  -17.5821    1.0000 </r>
       <r>  -17.4870    1.0000 </r>
       <r>  -17.4870    1.0000 </r>
       <r>  -17.4464    1.0000 </r>
       <r>  -17.4464    1.0000 </r>
       <r>  -17.3982    1.0000 </r>
       <r>  -17.3982    1.0000 </r>
       <r>  -17.3964    1.0000 </r>
       <r>  -17.3964    1.0000 </r>
       <r>  -17.3903    1.0000 </r>
       <r>  -17.3903    1.0000 </r>
       <r>  -10.7925    1.0000 </r>
       <r>  -10.7925    1.0000 </r>
       <r>  -10.7736    1.0000 </r>
       <r>  -10.7736    1.0000 </r>
       <r>  -10.7644    1.0000 </r>
       <r>  -10.7644    1.0000 </r>
       <r>  -10.6607    1.0000 </r>
       <r>  -10.6607    1.0000 </r>
       <r>  -10.6583    1.0000 </r>
       <r>  -10.6583    1.0000 </r>
       <r>  -10.5674    1.0000 </r>
       <r>  -10.5674    1.0000 </r>
       <r>  -10.5555    1.0000 </r>
       <r>  -10.5555    1.0000 </r>
       <r>  -10.5522    1.0000 </r>
       <r>  -10.5522    1.0000 </r>
       <r>   -6.9031    1.0000 </r>
       <r>   -6.9031    1.0000 </r>
       <r>   -6.5082    1.0000 </r>
       <r>   -6.5082    1.0000 </r>
       <r>   -6.3947    1.0000 </r>
       <r>   -6.3947    1.0000 </r>
       <r>   -6.3075    1.0000 </r>
       <r>   -6.3075    1.0000 </r>
       <r>   -6.1726    1.0000 </r>
       <r>   -6.1726    1.0000 </r>
       <r>   -6.1133    1.0000 </r>
       <r>   -6.1133    1.0000 </r>
       <r>   -5.7398    1.0000 </r>
       <r>   -5.7398    1.0000 </r>
       <r>   -5.6166    1.0000 </r>
       <r>   -5.6166    1.0000 </r>
       <r>   -3.7760    1.0000 </r>
       <r>   -3.7760    1.0000 </r>
       <r>   -2.9994    1.0000 </r>
       <r>   -2.9994    1.0000 </r>
       <r>   -2.8802    1.0000 </r>
       <r>   -2.8802    1.0000 </r>
       <r>   -2.8298    1.0000 </r>
       <r>   -2.8298    1.0000 </r>
       <r>   -2.7184    1.0000 </r>
       <r>   -2.7184    1.0000 </r>
       <r>   -2.5589    1.0000 </r>
       <r>   -2.5589    1.0000 </r>
       <r>   -2.4752    1.0000 </r>
       <r>   -2.4752    1.0000 </r>
       <r>   -2.2709    1.0000 </r>
       <r>   -2.2709    1.0000 </r>
       <r>   -2.2473    1.0000 </r>
       <r>   -2.2473    1.0000 </r>
       <r>   -2.2049    1.0000 </r>
       <r>   -2.2049    1.0000 </r>
       <r>   -2.1576    1.0000 </r>
       <r>   -2.1576    1.0000 </r>
       <r>   -2.1018    1.0000 </r>
       <r>   -2.1018    1.0000 </r>
       <r>   -2.0704    1.0000 </r>
       <r>   -2.0704    1.0000 </r>
       <r>   -1.8275    1.0000 </r>
       <r>   -1.8275    1.0000 </r>
       <r>   -1.7969    1.0000 </r>
       <r>   -1.7969    1.0000 </r>
       <r>   -1.6498    1.0000 </r>
       <r>   -1.6498    1.0000 </r>
       <r>   -1.5800    1.0000 </r>
       <r>   -1.5800    1.0000 </r>
       <r>   -1.4493    1.0000 </r>
       <r>   -1.4493    1.0000 </r>
       <r>   -1.2076    1.0000 </r>
       <r>   -1.2076    1.0000 </r>
       <r>   -1.0072    1.0000 </r>
       <r>   -1.0072    1.0000 </r>
       <r>   -0.9192    1.0000 </r>
       <r>   -0.9192    1.0000 </r>
       <r>   -0.8950    1.0000 </r>
       <r>   -0.8950    1.0000 </r>
       <r>   -0.8710    1.0000 </r>
       <r>   -0.8710    1.0000 </r>
       <r>   -0.6642    1.0000 </r>
       <r>   -0.6642    1.0000 </r>
       <r>    4.2172    0.0000 </r>
       <r>    4.2172    0.0000 </r>
       <r>    4.3151    0.0000 </r>
       <r>    4.3151    0.0000 </r>
       <r>    4.3256    0.0000 </r>
       <r>    4.3256    0.0000 </r>
       <r>    4.4996    0.0000 </r>
       <r>    4.4996    0.0000 </r>
       <r>    4.7040    0.0000 </r>
       <r>    4.7040    0.0000 </r>
       <r>    4.9458    0.0000 </r>
       <r>    4.9458    0.0000 </r>
       <r>    4.9833    0.0000 </r>
       <r>    4.9833    0.0000 </r>
       <r>    5.3484    0.0000 </r>
       <r>    5.3484    0.0000 </r>
       <r>    8.2499    0.0000 </r>
       <r>    8.2499    0.0000 </r>
       <r>    8.3471    0.0000 </r>
       <r>    8.3471    0.0000 </r>
       <r>    8.8975    0.0000 </r>
       <r>    8.8982    0.0000 </r>
       <r>    9.2025    0.0000 </r>
       <r>    9.2156    0.0000 </r>
      </set>
      <set comment="kpoint 4">
       <r>  -23.3892    1.0000 </r>
       <r>  -23.3892    1.0000 </r>
       <r>  -23.3890    1.0000 </r>
       <r>  -23.3890    1.0000 </r>
       <r>  -23.3857    1.0000 </r>
       <r>  -23.3857    1.0000 </r>
       <r>  -23.3855    1.0000 </r>
       <r>  -23.3855    1.0000 </r>
       <r>  -17.6332    1.0000 </r>
       <r>  -17.6332    1.0000 </r>
       <r>  -17.6323    1.0000 </r>
       <r>  -17.6323    1.0000 </r>
       <r>  -17.5510    1.0000 </r>
       <r>  -17.5510    1.0000 </r>
       <r>  -17.5509    1.0000 </r>
       <r>  -17.5509    1.0000 </r>
       <r>  -17.4181    1.0000 </r>
       <r>  -17.4181    1.0000 </r>
       <r>  -17.4176    1.0000 </r>
       <r>  -17.4176    1.0000 </r>
       <r>  -17.3639    1.0000 </r>
       <r>  -17.3639    1.0000 </r>
       <r>  -17.3639    1.0000 </r>
       <r>  -17.3639    1.0000 </r>
       <r>  -10.7475    1.0000 </r>
       <r>  -10.7475    1.0000 </r>
       <r>  -10.7473    1.0000 </r>
       <r>  -10.7473    1.0000 </r>
       <r>  -10.7116    1.0000 </r>
       <r>  -10.7116    1.0000 </r>
       <r>  -10.7114    1.0000 </r>
       <r>  -10.7114    1.0000 </r>
       <r>  -10.5996    1.0000 </r>
       <r>  -10.5996    1.0000 </r>
       <r>  -10.5981    1.0000 </r>
       <r>  -10.5981    1.0000 </r>
       <r>  -10.5843    1.0000 </r>
       <r>  -10.5843    1.0000 </r>
       <r>  -10.5835    1.0000 </r>
       <r>  -10.5835    1.0000 </r>
       <r>   -6.6968    1.0000 </r>
       <r>   -6.6968    1.0000 </r>
       <r>   -6.6965    1.0000 </r>
       <r>   -6.6965    1.0000 </r>
       <r>   -6.2317    1.0000 </r>
       <r>   -6.2317    1.0000 </r>
       <r>   -6.2297    1.0000 </r>
       <r>   -6.2297    1.0000 </r>
       <r>   -5.9941    1.0000 </r>
       <r>   -5.9941    1.0000 </r>
       <r>   -5.9940    1.0000 </r>
       <r>   -5.9940    1.0000 </r>
       <r>   -5.9354    1.0000 </r>
       <r>   -5.9354    1.0000 </r>
       <r>   -5.9342    1.0000 </r>
       <r>   -5.9342    1.0000 </r>
       <r>   -3.8248    1.0000 </r>
       <r>   -3.8248    1.0000 </r>
       <r>   -3.8248    1.0000 </r>
       <r>   -3.8248    1.0000 </r>
       <r>   -2.8693    1.0000 </r>
       <r>   -2.8693    1.0000 </r>
       <r>   -2.8644    1.0000 </r>
       <r>   -2.8644    1.0000 </r>
       <r>   -2.5178    1.0000 </r>
       <r>   -2.5178    1.0000 </r>
       <r>   -2.5153    1.0000 </r>
       <r>   -2.5153    1.0000 </r>
       <r>   -2.2629    1.0000 </r>
       <r>   -2.2629    1.0000 </r>
       <r>   -2.2628    1.0000 </r>
       <r>   -2.2628    1.0000 </r>
       <r>   -2.1572    1.0000 </r>
       <r>   -2.1572    1.0000 </r>
       <r>   -2.1550    1.0000 </r>
       <r>   -2.1550    1.0000 </r>
       <r>   -2.0264    1.0000 </r>
       <r>   -2.0264    1.0000 </r>
       <r>   -2.0261    1.0000 </r>
       <r>   -2.0261    1.0000 </r>
       <r>   -1.9035    1.0000 </r>
       <r>   -1.9035    1.0000 </r>
       <r>   -1.9002    1.0000 </r>
       <r>   -1.9002    1.0000 </r>
       <r>   -1.8833    1.0000 </r>
       <r>   -1.8833    1.0000 </r>
       <r>   -1.8827    1.0000 </r>
       <r>   -1.8827    1.0000 </r>
       <r>   -1.3564    1.0000 </r>
       <r>   -1.3564    1.0000 </r>
       <r>   -1.3550    1.0000 </r>
       <r>   -1.3550    1.0000 </r>
       <r>   -0.9819    1.0000 </r>
       <r>   -0.9819    1.0000 </r>
       <r>   -0.9805    1.0000 </r>
       <r>   -0.9805    1.0000 </r>
       <r>   -0.9273    1.0000 </r>
       <r>   -0.9273    1.0000 </r>
       <r>   -0.9257    1.0000 </r>
       <r>   -0.9257    1.0000 </r>
       <r>   -0.8976    1.0000 </r>
       <r>   -0.8976    1.0000 </r>
       <r>   -0.8963    1.0000 </r>
       <r>   -0.8963    1.0000 </r>
       <r>    3.9787    0.0000 </r>
       <r>    3.9787    0.0000 </r>
       <r>    3.9810    0.0000 </r>
       <r>    3.9810    0.0000 </r>
       <r>    4.7321    0.0000 </r>
       <r>    4.7321    0.0000 </r>
       <r>    4.7326    0.0000 </r>
       <r>    4.7326    0.0000 </r>
       <r>    4.8796    0.0000 </r>
       <r>    4.8796    0.0000 </r>
       <r>    4.8822    0.0000 </r>
       <r>    4.8822    0.0000 </r>
       <r>    4.9811    0.0000 </r>
       <r>    4.9811    0.0000 </r>
       <r>    4.9839    0.0000 </r>
       <r>    4.9839    0.0000 </r>
       <r>    8.8679    0.0000 </r>
       <r>    8.8679    0.0000 </r>
       <r>    8.8806    0.0000 </r>
       <r>    8.8806    0.0000 </r>
       <r>    9.0890    0.0000 </r>
       <r>    9.0895    0.0000 </r>
       <r>    9.1022    0.0000 </r>
       <r>    9.1024    0.0000 </r>
      </set>
      <set comment="kpoint 5">
       <r>  -23.4404    1.0000 </r>
       <r>  -23.4404    1.0000 </r>
       <r>  -23.3830    1.0000 </r>
       <r>  -23.3830    1.0000 </r>
       <r>  -23.3705    1.0000 </r>
       <r>  -23.3705    1.0000 </r>
       <r>  -23.3586    1.0000 </r>
       <r>  -23.3586    1.0000 </r>
       <r>  -17.6471    1.0000 </r>
       <r>  -17.6471    1.0000 </r>
       <r>  -17.5623    1.0000 </r>
       <r>  -17.5623    1.0000 </r>
       <r>  -17.5370    1.0000 </r>
       <r>  -17.5370    1.0000 </r>
       <r>  -17.4751    1.0000 </r>
       <r>  -17.4751    1.0000 </r>
       <r>  -17.4492    1.0000 </r>
       <r>  -17.4492    1.0000 </r>
       <r>  -17.4489    1.0000 </r>
       <r>  -17.4489    1.0000 </r>
       <r>  -17.3935    1.0000 </r>
       <r>  -17.3935    1.0000 </r>
       <r>  -17.3931    1.0000 </r>
       <r>  -17.3931    1.0000 </r>
       <r>  -10.8858    1.0000 </r>
       <r>  -10.8858    1.0000 </r>
       <r>  -10.7745    1.0000 </r>
       <r>  -10.7745    1.0000 </r>
       <r>  -10.7735    1.0000 </r>
       <r>  -10.7735    1.0000 </r>
       <r>  -10.6800    1.0000 </r>
       <r>  -10.6800    1.0000 </r>
       <r>  -10.6512    1.0000 </r>
       <r>  -10.6512    1.0000 </r>
       <r>  -10.5547    1.0000 </r>
       <r>  -10.5547    1.0000 </r>
       <r>  -10.5537    1.0000 </r>
       <r>  -10.5537    1.0000 </r>
       <r>  -10.4978    1.0000 </r>
       <r>  -10.4978    1.0000 </r>
       <r>   -7.0744    1.0000 </r>
       <r>   -7.0744    1.0000 </r>
       <r>   -6.5068    1.0000 </r>
       <r>   -6.5068    1.0000 </r>
       <r>   -6.5060    1.0000 </r>
       <r>   -6.5060    1.0000 </r>
       <r>   -6.1136    1.0000 </r>
       <r>   -6.1136    1.0000 </r>
       <r>   -6.1126    1.0000 </r>
       <r>   -6.1126    1.0000 </r>
       <r>   -6.0888    1.0000 </r>
       <r>   -6.0888    1.0000 </r>
       <r>   -5.8844    1.0000 </r>
       <r>   -5.8844    1.0000 </r>
       <r>   -5.4643    1.0000 </r>
       <r>   -5.4643    1.0000 </r>
       <r>   -3.3896    1.0000 </r>
       <r>   -3.3896    1.0000 </r>
       <r>   -3.0219    1.0000 </r>
       <r>   -3.0219    1.0000 </r>
       <r>   -2.6044    1.0000 </r>
       <r>   -2.6044    1.0000 </r>
       <r>   -2.6036    1.0000 </r>
       <r>   -2.6036    1.0000 </r>
       <r>   -2.6011    1.0000 </r>
       <r>   -2.6011    1.0000 </r>
       <r>   -2.5696    1.0000 </r>
       <r>   -2.5696    1.0000 </r>
       <r>   -2.5669    1.0000 </r>
       <r>   -2.5669    1.0000 </r>
       <r>   -2.5482    1.0000 </r>
       <r>   -2.5482    1.0000 </r>
       <r>   -2.4641    1.0000 </r>
       <r>   -2.4641    1.0000 </r>
       <r>   -2.2893    1.0000 </r>
       <r>   -2.2893    1.0000 </r>
       <r>   -2.2890    1.0000 </r>
       <r>   -2.2890    1.0000 </r>
       <r>   -2.1523    1.0000 </r>
       <r>   -2.1523    1.0000 </r>
       <r>   -1.9773    1.0000 </r>
       <r>   -1.9773    1.0000 </r>
       <r>   -1.9770    1.0000 </r>
       <r>   -1.9770    1.0000 </r>
       <r>   -1.8704    1.0000 </r>
       <r>   -1.8704    1.0000 </r>
       <r>   -1.6126    1.0000 </r>
       <r>   -1.6126    1.0000 </r>
       <r>   -1.5925    1.0000 </r>
       <r>   -1.5925    1.0000 </r>
       <r>   -1.5146    1.0000 </r>
       <r>   -1.5146    1.0000 </r>
       <r>   -1.2593    1.0000 </r>
       <r>   -1.2593    1.0000 </r>
       <r>   -1.0367    1.0000 </r>
       <r>   -1.0367    1.0000 </r>
       <r>   -0.8422    1.0000 </r>
       <r>   -0.8422    1.0000 </r>
       <r>   -0.8416    1.0000 </r>
       <r>   -0.8416    1.0000 </r>
       <r>   -0.7576    1.0000 </r>
       <r>   -0.7576    1.0000 </r>
       <r>   -0.7575    1.0000 </r>
       <r>   -0.7575    1.0000 </r>
       <r>    4.3181    0.0000 </r>
       <r>    4.3181    0.0000 </r>
       <r>    4.3203    0.0000 </r>
       <r>    4.3203    0.0000 </r>
       <r>    4.4796    0.0000 </r>
       <r>    4.4796    0.0000 </r>
       <r>    4.4812    0.0000 </r>
       <r>    4.4812    0.0000 </r>
       <r>    4.4974    0.0000 </r>
       <r>    4.4974    0.0000 </r>
       <r>    4.9766    0.0000 </r>
       <r>    4.9766    0.0000 </r>
       <r>    5.0349    0.0000 </r>
       <r>    5.0349    0.0000 </r>
       <r>    5.4359    0.0000 </r>
       <r>    5.4359    0.0000 </r>
       <r>    7.8792    0.0000 </r>
       <r>    7.8792    0.0000 </r>
       <r>    7.9085    0.0000 </r>
       <r>    7.9085    0.0000 </r>
       <r>    8.5664    0.0000 </r>
       <r>    8.5664    0.0000 </r>
       <r>    9.0740    0.0000 </r>
       <r>    9.0929    0.0000 </r>
      </set>
      <set comment="kpoint 6">
       <r>  -23.4112    1.0000 </r>
       <r>  -23.4112    1.0000 </r>
       <r>  -23.4057    1.0000 </r>
       <r>  -23.4057    1.0000 </r>
       <r>  -23.3682    1.0000 </r>
       <r>  -23.3682    1.0000 </r>
       <r>  -23.3660    1.0000 </r>
       <r>  -23.3660    1.0000 </r>
       <r>  -17.6249    1.0000 </r>
       <r>  -17.6249    1.0000 </r>
       <r>  -17.6052    1.0000 </r>
       <r>  -17.6052    1.0000 </r>
       <r>  -17.5437    1.0000 </r>
       <r>  -17.5437    1.0000 </r>
       <r>  -17.5240    1.0000 </r>
       <r>  -17.5240    1.0000 </r>
       <r>  -17.4460    1.0000 </r>
       <r>  -17.4460    1.0000 </r>
       <r>  -17.3960    1.0000 </r>
       <r>  -17.3960    1.0000 </r>
       <r>  -17.3910    1.0000 </r>
       <r>  -17.3910    1.0000 </r>
       <r>  -17.3888    1.0000 </r>
       <r>  -17.3888    1.0000 </r>
       <r>  -10.7880    1.0000 </r>
       <r>  -10.7880    1.0000 </r>
       <r>  -10.7724    1.0000 </r>
       <r>  -10.7724    1.0000 </r>
       <r>  -10.7567    1.0000 </r>
       <r>  -10.7567    1.0000 </r>
       <r>  -10.6707    1.0000 </r>
       <r>  -10.6707    1.0000 </r>
       <r>  -10.6544    1.0000 </r>
       <r>  -10.6544    1.0000 </r>
       <r>  -10.6051    1.0000 </r>
       <r>  -10.6051    1.0000 </r>
       <r>  -10.5547    1.0000 </r>
       <r>  -10.5547    1.0000 </r>
       <r>  -10.5219    1.0000 </r>
       <r>  -10.5219    1.0000 </r>
       <r>   -6.7363    1.0000 </r>
       <r>   -6.7363    1.0000 </r>
       <r>   -6.7078    1.0000 </r>
       <r>   -6.7078    1.0000 </r>
       <r>   -6.5074    1.0000 </r>
       <r>   -6.5074    1.0000 </r>
       <r>   -6.3013    1.0000 </r>
       <r>   -6.3013    1.0000 </r>
       <r>   -6.1163    1.0000 </r>
       <r>   -6.1163    1.0000 </r>
       <r>   -5.9146    1.0000 </r>
       <r>   -5.9146    1.0000 </r>
       <r>   -5.9097    1.0000 </r>
       <r>   -5.9097    1.0000 </r>
       <r>   -5.5581    1.0000 </r>
       <r>   -5.5581    1.0000 </r>
       <r>   -3.7661    1.0000 </r>
       <r>   -3.7661    1.0000 </r>
       <r>   -2.9799    1.0000 </r>
       <r>   -2.9799    1.0000 </r>
       <r>   -2.8597    1.0000 </r>
       <r>   -2.8597    1.0000 </r>
       <r>   -2.8499    1.0000 </r>
       <r>   -2.8499    1.0000 </r>
       <r>   -2.7320    1.0000 </r>
       <r>   -2.7320    1.0000 </r>
       <r>   -2.5630    1.0000 </r>
       <r>   -2.5630    1.0000 </r>
       <r>   -2.4728    1.0000 </r>
       <r>   -2.4728    1.0000 </r>
       <r>   -2.3387    1.0000 </r>
       <r>   -2.3387    1.0000 </r>
       <r>   -2.2930    1.0000 </r>
       <r>   -2.2930    1.0000 </r>
       <r>   -2.1512    1.0000 </r>
       <r>   -2.1512    1.0000 </r>
       <r>   -2.1162    1.0000 </r>
       <r>   -2.1162    1.0000 </r>
       <r>   -2.0890    1.0000 </r>
       <r>   -2.0890    1.0000 </r>
       <r>   -2.0531    1.0000 </r>
       <r>   -2.0531    1.0000 </r>
       <r>   -1.8627    1.0000 </r>
       <r>   -1.8627    1.0000 </r>
       <r>   -1.7723    1.0000 </r>
       <r>   -1.7723    1.0000 </r>
       <r>   -1.6652    1.0000 </r>
       <r>   -1.6652    1.0000 </r>
       <r>   -1.6538    1.0000 </r>
       <r>   -1.6538    1.0000 </r>
       <r>   -1.2842    1.0000 </r>
       <r>   -1.2842    1.0000 </r>
       <r>   -1.2425    1.0000 </r>
       <r>   -1.2425    1.0000 </r>
       <r>   -1.2150    1.0000 </r>
       <r>   -1.2150    1.0000 </r>
       <r>   -0.8215    1.0000 </r>
       <r>   -0.8215    1.0000 </r>
       <r>   -0.8096    1.0000 </r>
       <r>   -0.8096    1.0000 </r>
       <r>   -0.7900    1.0000 </r>
       <r>   -0.7900    1.0000 </r>
       <r>   -0.7836    1.0000 </r>
       <r>   -0.7836    1.0000 </r>
       <r>    4.2168    0.0000 </r>
       <r>    4.2168    0.0000 </r>
       <r>    4.3048    0.0000 </r>
       <r>    4.3048    0.0000 </r>
       <r>    4.3371    0.0000 </r>
       <r>    4.3371    0.0000 </r>
       <r>    4.5047    0.0000 </r>
       <r>    4.5047    0.0000 </r>
       <r>    4.7114    0.0000 </r>
       <r>    4.7114    0.0000 </r>
       <r>    4.8482    0.0000 </r>
       <r>    4.8482    0.0000 </r>
       <r>    5.1226    0.0000 </r>
       <r>    5.1226    0.0000 </r>
       <r>    5.2964    0.0000 </r>
       <r>    5.2964    0.0000 </r>
       <r>    8.2428    0.0000 </r>
       <r>    8.2428    0.0000 </r>
       <r>    8.4903    0.0000 </r>
       <r>    8.4903    0.0000 </r>
       <r>    8.8309    0.0000 </r>
       <r>    8.8311    0.0000 </r>
       <r>    9.0148    0.0000 </r>
       <r>    9.0181    0.0000 </r>
      </set>
      <set comment="kpoint 7">
       <r>  -23.4110    1.0000 </r>
       <r>  -23.4110    1.0000 </r>
       <r>  -23.4061    1.0000 </r>
       <r>  -23.4061    1.0000 </r>
       <r>  -23.3685    1.0000 </r>
       <r>  -23.3685    1.0000 </r>
       <r>  -23.3655    1.0000 </r>
       <r>  -23.3655    1.0000 </r>
       <r>  -17.6262    1.0000 </r>
       <r>  -17.6262    1.0000 </r>
       <r>  -17.6044    1.0000 </r>
       <r>  -17.6044    1.0000 </r>
       <r>  -17.5420    1.0000 </r>
       <r>  -17.5420    1.0000 </r>
       <r>  -17.5243    1.0000 </r>
       <r>  -17.5243    1.0000 </r>
       <r>  -17.4464    1.0000 </r>
       <r>  -17.4464    1.0000 </r>
       <r>  -17.3964    1.0000 </r>
       <r>  -17.3964    1.0000 </r>
       <r>  -17.3908    1.0000 </r>
       <r>  -17.3908    1.0000 </r>
       <r>  -17.3891    1.0000 </r>
       <r>  -17.3891    1.0000 </r>
       <r>  -10.7880    1.0000 </r>
       <r>  -10.7880    1.0000 </r>
       <r>  -10.7735    1.0000 </r>
       <r>  -10.7735    1.0000 </r>
       <r>  -10.7578    1.0000 </r>
       <r>  -10.7578    1.0000 </r>
       <r>  -10.6692    1.0000 </r>
       <r>  -10.6692    1.0000 </r>
       <r>  -10.6533    1.0000 </r>
       <r>  -10.6533    1.0000 </r>
       <r>  -10.6046    1.0000 </r>
       <r>  -10.6046    1.0000 </r>
       <r>  -10.5557    1.0000 </r>
       <r>  -10.5557    1.0000 </r>
       <r>  -10.5223    1.0000 </r>
       <r>  -10.5223    1.0000 </r>
       <r>   -6.7376    1.0000 </r>
       <r>   -6.7376    1.0000 </r>
       <r>   -6.7077    1.0000 </r>
       <r>   -6.7077    1.0000 </r>
       <r>   -6.5066    1.0000 </r>
       <r>   -6.5066    1.0000 </r>
       <r>   -6.3013    1.0000 </r>
       <r>   -6.3013    1.0000 </r>
       <r>   -6.1152    1.0000 </r>
       <r>   -6.1152    1.0000 </r>
       <r>   -5.9142    1.0000 </r>
       <r>   -5.9142    1.0000 </r>
       <r>   -5.9115    1.0000 </r>
       <r>   -5.9115    1.0000 </r>
       <r>   -5.5578    1.0000 </r>
       <r>   -5.5578    1.0000 </r>
       <r>   -3.7645    1.0000 </r>
       <r>   -3.7645    1.0000 </r>
       <r>   -2.9781    1.0000 </r>
       <r>   -2.9781    1.0000 </r>
       <r>   -2.8602    1.0000 </r>
       <r>   -2.8602    1.0000 </r>
       <r>   -2.8498    1.0000 </r>
       <r>   -2.8498    1.0000 </r>
       <r>   -2.7337    1.0000 </r>
       <r>   -2.7337    1.0000 </r>
       <r>   -2.5616    1.0000 </r>
       <r>   -2.5616    1.0000 </r>
       <r>   -2.4726    1.0000 </r>
       <r>   -2.4726    1.0000 </r>
       <r>   -2.3379    1.0000 </r>
       <r>   -2.3379    1.0000 </r>
       <r>   -2.2933    1.0000 </r>
       <r>   -2.2933    1.0000 </r>
       <r>   -2.1514    1.0000 </r>
       <r>   -2.1514    1.0000 </r>
       <r>   -2.1163    1.0000 </r>
       <r>   -2.1163    1.0000 </r>
       <r>   -2.0883    1.0000 </r>
       <r>   -2.0883    1.0000 </r>
       <r>   -2.0543    1.0000 </r>
       <r>   -2.0543    1.0000 </r>
       <r>   -1.8628    1.0000 </r>
       <r>   -1.8628    1.0000 </r>
       <r>   -1.7735    1.0000 </r>
       <r>   -1.7735    1.0000 </r>
       <r>   -1.6665    1.0000 </r>
       <r>   -1.6665    1.0000 </r>
       <r>   -1.6535    1.0000 </r>
       <r>   -1.6535    1.0000 </r>
       <r>   -1.2844    1.0000 </r>
       <r>   -1.2844    1.0000 </r>
       <r>   -1.2416    1.0000 </r>
       <r>   -1.2416    1.0000 </r>
       <r>   -1.2165    1.0000 </r>
       <r>   -1.2165    1.0000 </r>
       <r>   -0.8201    1.0000 </r>
       <r>   -0.8201    1.0000 </r>
       <r>   -0.8102    1.0000 </r>
       <r>   -0.8102    1.0000 </r>
       <r>   -0.7892    1.0000 </r>
       <r>   -0.7892    1.0000 </r>
       <r>   -0.7840    1.0000 </r>
       <r>   -0.7840    1.0000 </r>
       <r>    4.2144    0.0000 </r>
       <r>    4.2144    0.0000 </r>
       <r>    4.3067    0.0000 </r>
       <r>    4.3067    0.0000 </r>
       <r>    4.3387    0.0000 </r>
       <r>    4.3387    0.0000 </r>
       <r>    4.5031    0.0000 </r>
       <r>    4.5031    0.0000 </r>
       <r>    4.7124    0.0000 </r>
       <r>    4.7124    0.0000 </r>
       <r>    4.8471    0.0000 </r>
       <r>    4.8471    0.0000 </r>
       <r>    5.1211    0.0000 </r>
       <r>    5.1211    0.0000 </r>
       <r>    5.2987    0.0000 </r>
       <r>    5.2987    0.0000 </r>
       <r>    8.2450    0.0000 </r>
       <r>    8.2450    0.0000 </r>
       <r>    8.4919    0.0000 </r>
       <r>    8.4919    0.0000 </r>
       <r>    8.8308    0.0000 </r>
       <r>    8.8310    0.0000 </r>
       <r>    9.0101    0.0000 </r>
       <r>    9.0120    0.0000 </r>
      </set>
      <set comment="kpoint 8">
       <r>  -23.3888    1.0000 </r>
       <r>  -23.3888    1.0000 </r>
       <r>  -23.3883    1.0000 </r>
       <r>  -23.3883    1.0000 </r>
       <r>  -23.3864    1.0000 </r>
       <r>  -23.3864    1.0000 </r>
       <r>  -23.3860    1.0000 </r>
       <r>  -23.3860    1.0000 </r>
       <r>  -17.6200    1.0000 </r>
       <r>  -17.6200    1.0000 </r>
       <r>  -17.6196    1.0000 </r>
       <r>  -17.6196    1.0000 </r>
       <r>  -17.5706    1.0000 </r>
       <r>  -17.5706    1.0000 </r>
       <r>  -17.5696    1.0000 </r>
       <r>  -17.5696    1.0000 </r>
       <r>  -17.4115    1.0000 </r>
       <r>  -17.4115    1.0000 </r>
       <r>  -17.4106    1.0000 </r>
       <r>  -17.4106    1.0000 </r>
       <r>  -17.3645    1.0000 </r>
       <r>  -17.3645    1.0000 </r>
       <r>  -17.3644    1.0000 </r>
       <r>  -17.3644    1.0000 </r>
       <r>  -10.7641    1.0000 </r>
       <r>  -10.7641    1.0000 </r>
       <r>  -10.7641    1.0000 </r>
       <r>  -10.7641    1.0000 </r>
       <r>  -10.6845    1.0000 </r>
       <r>  -10.6845    1.0000 </r>
       <r>  -10.6842    1.0000 </r>
       <r>  -10.6842    1.0000 </r>
       <r>  -10.6102    1.0000 </r>
       <r>  -10.6102    1.0000 </r>
       <r>  -10.6093    1.0000 </r>
       <r>  -10.6093    1.0000 </r>
       <r>  -10.5841    1.0000 </r>
       <r>  -10.5841    1.0000 </r>
       <r>  -10.5828    1.0000 </r>
       <r>  -10.5828    1.0000 </r>
       <r>   -6.6654    1.0000 </r>
       <r>   -6.6654    1.0000 </r>
       <r>   -6.6637    1.0000 </r>
       <r>   -6.6637    1.0000 </r>
       <r>   -6.2971    1.0000 </r>
       <r>   -6.2971    1.0000 </r>
       <r>   -6.2936    1.0000 </r>
       <r>   -6.2936    1.0000 </r>
       <r>   -6.0286    1.0000 </r>
       <r>   -6.0286    1.0000 </r>
       <r>   -6.0256    1.0000 </r>
       <r>   -6.0256    1.0000 </r>
       <r>   -5.8767    1.0000 </r>
       <r>   -5.8767    1.0000 </r>
       <r>   -5.8725    1.0000 </r>
       <r>   -5.8725    1.0000 </r>
       <r>   -3.7996    1.0000 </r>
       <r>   -3.7996    1.0000 </r>
       <r>   -3.7990    1.0000 </r>
       <r>   -3.7990    1.0000 </r>
       <r>   -2.8901    1.0000 </r>
       <r>   -2.8901    1.0000 </r>
       <r>   -2.8850    1.0000 </r>
       <r>   -2.8850    1.0000 </r>
       <r>   -2.5273    1.0000 </r>
       <r>   -2.5273    1.0000 </r>
       <r>   -2.5251    1.0000 </r>
       <r>   -2.5251    1.0000 </r>
       <r>   -2.2001    1.0000 </r>
       <r>   -2.2001    1.0000 </r>
       <r>   -2.2000    1.0000 </r>
       <r>   -2.2000    1.0000 </r>
       <r>   -2.1967    1.0000 </r>
       <r>   -2.1967    1.0000 </r>
       <r>   -2.1945    1.0000 </r>
       <r>   -2.1945    1.0000 </r>
       <r>   -1.9902    1.0000 </r>
       <r>   -1.9902    1.0000 </r>
       <r>   -1.9877    1.0000 </r>
       <r>   -1.9877    1.0000 </r>
       <r>   -1.9406    1.0000 </r>
       <r>   -1.9406    1.0000 </r>
       <r>   -1.9403    1.0000 </r>
       <r>   -1.9403    1.0000 </r>
       <r>   -1.8767    1.0000 </r>
       <r>   -1.8767    1.0000 </r>
       <r>   -1.8766    1.0000 </r>
       <r>   -1.8766    1.0000 </r>
       <r>   -1.3426    1.0000 </r>
       <r>   -1.3426    1.0000 </r>
       <r>   -1.3396    1.0000 </r>
       <r>   -1.3396    1.0000 </r>
       <r>   -1.1601    1.0000 </r>
       <r>   -1.1601    1.0000 </r>
       <r>   -1.1578    1.0000 </r>
       <r>   -1.1578    1.0000 </r>
       <r>   -0.9376    1.0000 </r>
       <r>   -0.9376    1.0000 </r>
       <r>   -0.9375    1.0000 </r>
       <r>   -0.9375    1.0000 </r>
       <r>   -0.7418    1.0000 </r>
       <r>   -0.7418    1.0000 </r>
       <r>   -0.7392    1.0000 </r>
       <r>   -0.7392    1.0000 </r>
       <r>    3.9790    0.0000 </r>
       <r>    3.9790    0.0000 </r>
       <r>    3.9812    0.0000 </r>
       <r>    3.9812    0.0000 </r>
       <r>    4.7316    0.0000 </r>
       <r>    4.7316    0.0000 </r>
       <r>    4.7322    0.0000 </r>
       <r>    4.7322    0.0000 </r>
       <r>    4.8921    0.0000 </r>
       <r>    4.8921    0.0000 </r>
       <r>    4.8961    0.0000 </r>
       <r>    4.8961    0.0000 </r>
       <r>    4.9670    0.0000 </r>
       <r>    4.9670    0.0000 </r>
       <r>    4.9711    0.0000 </r>
       <r>    4.9711    0.0000 </r>
       <r>    8.9045    0.0000 </r>
       <r>    8.9045    0.0000 </r>
       <r>    8.9191    0.0000 </r>
       <r>    8.9192    0.0000 </r>
       <r>    8.9935    0.0000 </r>
       <r>    8.9935    0.0000 </r>
       <r>    9.0090    0.0000 </r>
       <r>    9.0091    0.0000 </r>
      </set>
     </set>
    </set>
   </array>
  </eigenvalues>
  <separator name="orbital magnetization" >
   <v name="MAGDIPOLOUT">      0.00000000      0.00000000      0.00000000</v>
  </separator>
  <dos>
   <i name="efermi">      0.35692485 </i>
   <total>
    <array>
     <dimension dim="1">gridpoints</dimension>
     <dimension dim="2">spin</dimension>
     <field>energy</field>
     <field>total</field>
     <field>integrated</field>
     <set>
      <set comment="spin 1">
       <r>   -25.4580     0.0000     0.0000 </r>
       <r>   -25.3357     0.0000     0.0000 </r>
       <r>   -25.2134     0.0000     0.0000 </r>
       <r>   -25.0910     0.0000     0.0000 </r>
       <r>   -24.9687     0.0000     0.0000 </r>
       <r>   -24.8463     0.0000     0.0000 </r>
       <r>   -24.7240     0.0000     0.0000 </r>
       <r>   -24.6017     0.0000     0.0000 </r>
       <r>   -24.4793     0.0000     0.0000 </r>
       <r>   -24.3570     0.0000     0.0000 </r>
       <r>   -24.2346     0.0000     0.0000 </r>
       <r>   -24.1123     0.0000     0.0000 </r>
       <r>   -23.9899     0.0017     0.0002 </r>
       <r>   -23.8676     0.0513     0.0065 </r>
       <r>   -23.7453     0.7670     0.1003 </r>
       <r>   -23.6229     5.7424     0.8029 </r>
       <r>   -23.5006    21.5676     3.4415 </r>
       <r>   -23.3782    40.7074     8.4217 </r>
       <r>   -23.2559    38.6222    13.1468 </r>
       <r>   -23.1336    18.3912    15.3968 </r>
       <r>   -23.0112     4.3802    15.9326 </r>
       <r>   -22.8889     0.5192    15.9962 </r>
       <r>   -22.7665     0.0305    15.9999 </r>
       <r>   -22.6442     0.0009    16.0000 </r>
       <r>   -22.5219     0.0000    16.0000 </r>
       <r>   -22.3995     0.0000    16.0000 </r>
       <r>   -22.2772     0.0000    16.0000 </r>
       <r>   -22.1548     0.0000    16.0000 </r>
       <r>   -22.0325     0.0000    16.0000 </r>
       <r>   -21.9101     0.0000    16.0000 </r>
       <r>   -21.7878     0.0000    16.0000 </r>
       <r>   -21.6655     0.0000    16.0000 </r>
       <r>   -21.5431     0.0000    16.0000 </r>
       <r>   -21.4208     0.0000    16.0000 </r>
       <r>   -21.2984     0.0000    16.0000 </r>
       <r>   -21.1761     0.0000    16.0000 </r>
       <r>   -21.0538     0.0000    16.0000 </r>
       <r>   -20.9314     0.0000    16.0000 </r>
       <r>   -20.8091     0.0000    16.0000 </r>
       <r>   -20.6867     0.0000    16.0000 </r>
       <r>   -20.5644     0.0000    16.0000 </r>
       <r>   -20.4421     0.0000    16.0000 </r>
       <r>   -20.3197     0.0000    16.0000 </r>
       <r>   -20.1974     0.0000    16.0000 </r>
       <r>   -20.0750     0.0000    16.0000 </r>
       <r>   -19.9527     0.0000    16.0000 </r>
       <r>   -19.8303     0.0000    16.0000 </r>
       <r>   -19.7080     0.0000    16.0000 </r>
       <r>   -19.5857     0.0000    16.0000 </r>
       <r>   -19.4633     0.0000    16.0000 </r>
       <r>   -19.3410     0.0000    16.0000 </r>
       <r>   -19.2186     0.0000    16.0000 </r>
       <r>   -19.0963     0.0000    16.0000 </r>
       <r>   -18.9740     0.0000    16.0000 </r>
       <r>   -18.8516     0.0000    16.0000 </r>
       <r>   -18.7293     0.0000    16.0000 </r>
       <r>   -18.6069     0.0000    16.0000 </r>
       <r>   -18.4846     0.0000    16.0000 </r>
       <r>   -18.3622     0.0000    16.0000 </r>
       <r>   -18.2399     0.0004    16.0001 </r>
       <r>   -18.1176     0.0156    16.0020 </r>
       <r>   -17.9952     0.2877    16.0372 </r>
       <r>   -17.8729     2.7216    16.3701 </r>
       <r>   -17.7505    13.6611    18.0415 </r>
       <r>   -17.6282    38.4013    22.7395 </r>
       <r>   -17.5059    65.1720    30.7128 </r>
       <r>   -17.3835    70.5288    39.3413 </r>
       <r>   -17.2612    47.6774    45.1742 </r>
       <r>   -17.1388    18.6798    47.4596 </r>
       <r>   -17.0165     3.9582    47.9438 </r>
       <r>   -16.8942     0.4345    47.9970 </r>
       <r>   -16.7718     0.0241    47.9999 </r>
       <r>   -16.6495     0.0007    48.0000 </r>
       <r>   -16.5271     0.0000    48.0000 </r>
       <r>   -16.4048     0.0000    48.0000 </r>
       <r>   -16.2824     0.0000    48.0000 </r>
       <r>   -16.1601     0.0000    48.0000 </r>
       <r>   -16.0378     0.0000    48.0000 </r>
       <r>   -15.9154     0.0000    48.0000 </r>
       <r>   -15.7931     0.0000    48.0000 </r>
       <r>   -15.6707     0.0000    48.0000 </r>
       <r>   -15.5484     0.0000    48.0000 </r>
       <r>   -15.4261     0.0000    48.0000 </r>
       <r>   -15.3037     0.0000    48.0000 </r>
       <r>   -15.1814     0.0000    48.0000 </r>
       <r>   -15.0590     0.0000    48.0000 </r>
       <r>   -14.9367     0.0000    48.0000 </r>
       <r>   -14.8144     0.0000    48.0000 </r>
       <r>   -14.6920     0.0000    48.0000 </r>
       <r>   -14.5697     0.0000    48.0000 </r>
       <r>   -14.4473     0.0000    48.0000 </r>
       <r>   -14.3250     0.0000    48.0000 </r>
       <r>   -14.2026     0.0000    48.0000 </r>
       <r>   -14.0803     0.0000    48.0000 </r>
       <r>   -13.9580     0.0000    48.0000 </r>
       <r>   -13.8356     0.0000    48.0000 </r>
       <r>   -13.7133     0.0000    48.0000 </r>
       <r>   -13.5909     0.0000    48.0000 </r>
       <r>   -13.4686     0.0000    48.0000 </r>
       <r>   -13.3463     0.0000    48.0000 </r>
       <r>   -13.2239     0.0000    48.0000 </r>
       <r>   -13.1016     0.0000    48.0000 </r>
       <r>   -12.9792     0.0000    48.0000 </r>
       <r>   -12.8569     0.0000    48.0000 </r>
       <r>   -12.7345     0.0000    48.0000 </r>
       <r>   -12.6122     0.0000    48.0000 </r>
       <r>   -12.4899     0.0000    48.0000 </r>
       <r>   -12.3675     0.0000    48.0000 </r>
       <r>   -12.2452     0.0000    48.0000 </r>
       <r>   -12.1228     0.0000    48.0000 </r>
       <r>   -12.0005     0.0000    48.0000 </r>
       <r>   -11.8782     0.0000    48.0000 </r>
       <r>   -11.7558     0.0000    48.0000 </r>
       <r>   -11.6335     0.0000    48.0000 </r>
       <r>   -11.5111     0.0001    48.0000 </r>
       <r>   -11.3888     0.0035    48.0004 </r>
       <r>   -11.2665     0.0610    48.0079 </r>
       <r>   -11.1441     0.6563    48.0882 </r>
       <r>   -11.0218     4.4238    48.6294 </r>
       <r>   -10.8994    18.1656    50.8518 </r>
       <r>   -10.7771    44.8475    56.3385 </r>
       <r>   -10.6547    68.4525    64.7131 </r>
       <r>   -10.5324    66.5970    72.8606 </r>
       <r>   -10.4101    40.5430    77.8207 </r>
       <r>   -10.2877    14.5607    79.6021 </r>
       <r>   -10.1654     2.9182    79.9591 </r>
       <r>   -10.0430     0.3155    79.9977 </r>
       <r>    -9.9207     0.0181    79.9999 </r>
       <r>    -9.7984     0.0005    80.0000 </r>
       <r>    -9.6760     0.0000    80.0000 </r>
       <r>    -9.5537     0.0000    80.0000 </r>
       <r>    -9.4313     0.0000    80.0000 </r>
       <r>    -9.3090     0.0000    80.0000 </r>
       <r>    -9.1867     0.0000    80.0000 </r>
       <r>    -9.0643     0.0000    80.0000 </r>
       <r>    -8.9420     0.0000    80.0000 </r>
       <r>    -8.8196     0.0000    80.0000 </r>
       <r>    -8.6973     0.0000    80.0000 </r>
       <r>    -8.5749     0.0000    80.0000 </r>
       <r>    -8.4526     0.0000    80.0000 </r>
       <r>    -8.3303     0.0000    80.0000 </r>
       <r>    -8.2079     0.0000    80.0000 </r>
       <r>    -8.0856     0.0000    80.0000 </r>
       <r>    -7.9632     0.0000    80.0000 </r>
       <r>    -7.8409     0.0001    80.0000 </r>
       <r>    -7.7186     0.0028    80.0004 </r>
       <r>    -7.5962     0.0326    80.0043 </r>
       <r>    -7.4739     0.1897    80.0276 </r>
       <r>    -7.3515     0.5977    80.1007 </r>
       <r>    -7.2292     1.2239    80.2504 </r>
       <r>    -7.1068     2.1750    80.5165 </r>
       <r>    -6.9845     3.9322    80.9976 </r>
       <r>    -6.8622     7.3210    81.8932 </r>
       <r>    -6.7398    12.9271    83.4748 </r>
       <r>    -6.6175    18.7668    85.7707 </r>
       <r>    -6.4951    22.1066    88.4753 </r>
       <r>    -6.3728    23.4606    91.3455 </r>
       <r>    -6.2505    25.5540    94.4718 </r>
       <r>    -6.1281    28.8829    98.0053 </r>
       <r>    -6.0058    30.2987   101.7121 </r>
       <r>    -5.8834    27.3022   105.0523 </r>
       <r>    -5.7611    20.9757   107.6185 </r>
       <r>    -5.6388    15.2840   109.4884 </r>
       <r>    -5.5164    11.0662   110.8422 </r>
       <r>    -5.3941     6.4133   111.6268 </r>
       <r>    -5.2717     2.4283   111.9239 </r>
       <r>    -5.1494     0.5474   111.9909 </r>
       <r>    -5.0270     0.0697   111.9994 </r>
       <r>    -4.9047     0.0048   112.0000 </r>
       <r>    -4.7824     0.0002   112.0000 </r>
       <r>    -4.6600     0.0000   112.0000 </r>
       <r>    -4.5377     0.0000   112.0000 </r>
       <r>    -4.4153     0.0002   112.0000 </r>
       <r>    -4.2930     0.0074   112.0009 </r>
       <r>    -4.1707     0.1256   112.0163 </r>
       <r>    -4.0483     1.0621   112.1462 </r>
       <r>    -3.9260     4.4952   112.6962 </r>
       <r>    -3.8036     9.5761   113.8677 </r>
       <r>    -3.6813    10.4062   115.1408 </r>
       <r>    -3.5590     6.2983   115.9114 </r>
       <r>    -3.4366     3.4097   116.3285 </r>
       <r>    -3.3143     3.1613   116.7153 </r>
       <r>    -3.1919     4.4579   117.2607 </r>
       <r>    -3.0696     9.3928   118.4098 </r>
       <r>    -2.9472    19.0433   120.7396 </r>
       <r>    -2.8249    28.0051   124.1658 </r>
       <r>    -2.7026    33.0553   128.2098 </r>
       <r>    -2.5802    38.6830   132.9423 </r>
       <r>    -2.4579    42.6494   138.1601 </r>
       <r>    -2.3355    44.0345   143.5474 </r>
       <r>    -2.2132    49.7444   149.6331 </r>
       <r>    -2.0909    54.5591   156.3080 </r>
       <r>    -1.9685    51.5444   162.6140 </r>
       <r>    -1.8462    44.5335   168.0623 </r>
       <r>    -1.7238    37.8474   172.6926 </r>
       <r>    -1.6015    32.3999   176.6564 </r>
       <r>    -1.4792    26.6201   179.9131 </r>
       <r>    -1.3568    23.2816   182.7614 </r>
       <r>    -1.2345    24.6111   185.7724 </r>
       <r>    -1.1121    26.7464   189.0446 </r>
       <r>    -0.9898    32.1089   192.9728 </r>
       <r>    -0.8674    40.7823   197.9622 </r>
       <r>    -0.7451    40.3744   202.9016 </r>
       <r>    -0.6228    26.8166   206.1824 </r>
       <r>    -0.5004    11.3970   207.5768 </r>
       <r>    -0.3781     2.9706   207.9402 </r>
       <r>    -0.2557     0.4498   207.9952 </r>
       <r>    -0.1334     0.0375   207.9998 </r>
       <r>    -0.0111     0.0016   208.0000 </r>
       <r>     0.1113     0.0000   208.0000 </r>
       <r>     0.2336     0.0000   208.0000 </r>
       <r>     0.3560     0.0000   208.0000 </r>
       <r>     0.4783     0.0000   208.0000 </r>
       <r>     0.6007     0.0000   208.0000 </r>
       <r>     0.7230     0.0000   208.0000 </r>
       <r>     0.8453     0.0000   208.0000 </r>
       <r>     0.9677     0.0000   208.0000 </r>
       <r>     1.0900     0.0000   208.0000 </r>
       <r>     1.2124     0.0000   208.0000 </r>
       <r>     1.3347     0.0000   208.0000 </r>
       <r>     1.4570     0.0000   208.0000 </r>
       <r>     1.5794     0.0000   208.0000 </r>
       <r>     1.7017     0.0000   208.0000 </r>
       <r>     1.8241     0.0000   208.0000 </r>
       <r>     1.9464     0.0000   208.0000 </r>
       <r>     2.0687     0.0000   208.0000 </r>
       <r>     2.1911     0.0000   208.0000 </r>
       <r>     2.3134     0.0000   208.0000 </r>
       <r>     2.4358     0.0000   208.0000 </r>
       <r>     2.5581     0.0000   208.0000 </r>
       <r>     2.6805     0.0000   208.0000 </r>
       <r>     2.8028     0.0000   208.0000 </r>
       <r>     2.9251     0.0000   208.0000 </r>
       <r>     3.0475     0.0000   208.0000 </r>
       <r>     3.1698     0.0000   208.0000 </r>
       <r>     3.2922     0.0000   208.0000 </r>
       <r>     3.4145     0.0005   208.0001 </r>
       <r>     3.5368     0.0136   208.0017 </r>
       <r>     3.6592     0.1771   208.0234 </r>
       <r>     3.7815     1.1415   208.1630 </r>
       <r>     3.9039     3.7959   208.6274 </r>
       <r>     4.0262     7.5612   209.5525 </r>
       <r>     4.1485    12.8522   211.1248 </r>
       <r>     4.2709    21.7078   213.7806 </r>
       <r>     4.3932    28.4550   217.2618 </r>
       <r>     4.5156    27.0266   220.5683 </r>
       <r>     4.6379    22.8807   223.3676 </r>
       <r>     4.7603    23.4303   226.2341 </r>
       <r>     4.8826    27.4297   229.5898 </r>
       <r>     5.0049    28.0694   233.0239 </r>
       <r>     5.1273    21.8142   235.6926 </r>
       <r>     5.2496    14.0914   237.4166 </r>
       <r>     5.3720     9.7045   238.6039 </r>
       <r>     5.4943     6.4555   239.3936 </r>
       <r>     5.6166     3.2655   239.7932 </r>
       <r>     5.7390     1.2511   239.9462 </r>
       <r>     5.8613     0.3637   239.9907 </r>
       <r>     5.9837     0.0685   239.9991 </r>
       <r>     6.1060     0.0071   240.0000 </r>
       <r>     6.2284     0.0004   240.0000 </r>
       <r>     6.3507     0.0000   240.0000 </r>
       <r>     6.4730     0.0000   240.0000 </r>
       <r>     6.5954     0.0000   240.0000 </r>
       <r>     6.7177     0.0000   240.0000 </r>
       <r>     6.8401     0.0000   240.0000 </r>
       <r>     6.9624     0.0000   240.0000 </r>
       <r>     7.0847     0.0000   240.0000 </r>
       <r>     7.2071     0.0008   240.0001 </r>
       <r>     7.3294     0.0142   240.0018 </r>
       <r>     7.4518     0.1256   240.0172 </r>
       <r>     7.5741     0.6156   240.0925 </r>
       <r>     7.6964     1.8506   240.3189 </r>
       <r>     7.8188     3.7124   240.7731 </r>
       <r>     7.9411     4.9934   241.3840 </r>
       <r>     8.0635     5.0770   242.0051 </r>
       <r>     8.1858     6.2786   242.7733 </r>
       <r>     8.3082     8.7335   243.8417 </r>
       <r>     8.4305     9.1105   244.9563 </r>
       <r>     8.5528     7.5463   245.8795 </r>
       <r>     8.6752     7.2703   246.7690 </r>
       <r>     8.7975    11.4615   248.1712 </r>
       <r>     8.9199    17.8497   250.3550 </r>
       <r>     9.0422    19.3295   252.7198 </r>
       <r>     9.1645    14.5914   254.5049 </r>
       <r>     9.2869     8.0713   255.4924 </r>
       <r>     9.4092     3.1982   255.8836 </r>
       <r>     9.5316     0.8200   255.9839 </r>
       <r>     9.6539     0.1213   255.9988 </r>
       <r>     9.7762     0.0096   256.0000 </r>
       <r>     9.8986     0.0004   256.0000 </r>
       <r>    10.0209     0.0000   256.0000 </r>
       <r>    10.1433     0.0000   256.0000 </r>
       <r>    10.2656     0.0000   256.0000 </r>
       <r>    10.3880     0.0000   256.0000 </r>
       <r>    10.5103     0.0000   256.0000 </r>
       <r>    10.6326     0.0000   256.0000 </r>
       <r>    10.7550     0.0000   256.0000 </r>
       <r>    10.8773     0.0000   256.0000 </r>
       <r>    10.9997     0.0000   256.0000 </r>
       <r>    11.1220     0.0000   256.0000 </r>
       <r>    11.2443     0.0000   256.0000 </r>
      </set>
     </set>
    </array>
   </total>
  </dos>
 </calculation>
 <structure name="finalpos" >
  <crystal>
   <varray name="basis" >
    <v>       6.66205439       0.00000000       0.00000000 </v>
    <v>       0.00000000       6.66501912       0.00000000 </v>
    <v>       0.00000000       0.00000000      11.94044634 </v>
   </varray>
   <i name="volume">    530.18829461 </i>
   <varray name="rec_basis" >
    <v>       0.15010385       0.00000000       0.00000000 </v>
    <v>       0.00000000       0.15003708       0.00000000 </v>
    <v>       0.00000000       0.00000000       0.08374896 </v>
   </varray>
  </crystal>
  <varray name="positions" >
   <v>       0.24954804       0.00000000       0.37494240 </v>
   <v>       0.75045196       0.50000000       0.87494240 </v>
   <v>       0.75045196       0.00000000       0.62505760 </v>
   <v>       0.24954804       0.50000000       0.12505760 </v>
   <v>       0.09043593       0.00000000       0.62647111 </v>
   <v>       0.15249037       0.00000000       0.73225588 </v>
   <v>       0.34900252       0.00000000       0.73210240 </v>
   <v>       0.41056134       0.00000000       0.62623177 </v>
   <v>       0.25033024       0.00000000       0.56055907 </v>
   <v>       0.90956407       0.50000000       0.12647111 </v>
   <v>       0.84750963       0.50000000       0.23225588 </v>
   <v>       0.65099748       0.50000000       0.23210240 </v>
   <v>       0.58943866       0.50000000       0.12623177 </v>
   <v>       0.74966976       0.50000000       0.06055907 </v>
   <v>       0.90956407       0.00000000       0.37352889 </v>
   <v>       0.84750963       0.00000000       0.26774412 </v>
   <v>       0.65099748       0.00000000       0.26789760 </v>
   <v>       0.58943866       0.00000000       0.37376823 </v>
   <v>       0.74966976       0.00000000       0.43944093 </v>
   <v>       0.09043593       0.50000000       0.87352889 </v>
   <v>       0.15249037       0.50000000       0.76774412 </v>
   <v>       0.34900252       0.50000000       0.76789760 </v>
   <v>       0.41056134       0.50000000       0.87376823 </v>
   <v>       0.25033024       0.50000000       0.93944093 </v>
   <v>       0.75069157       0.00000000       0.81051208 </v>
   <v>       0.75074645       0.84000091       0.87629435 </v>
   <v>       0.75066486       0.90178461       0.98211305 </v>
   <v>       0.75066486       0.09821539       0.98211305 </v>
   <v>       0.75074645       0.15999909       0.87629435 </v>
   <v>       0.24930843       0.50000000       0.31051208 </v>
   <v>       0.24925355       0.65999909       0.37629435 </v>
   <v>       0.24933514       0.59821539       0.48211305 </v>
   <v>       0.24933514       0.40178461       0.48211305 </v>
   <v>       0.24925355       0.34000091       0.37629435 </v>
   <v>       0.24930843       0.00000000       0.18948792 </v>
   <v>       0.24925355       0.84000091       0.12370565 </v>
   <v>       0.24933514       0.90178461       0.01788695 </v>
   <v>       0.24933514       0.09821539       0.01788695 </v>
   <v>       0.24925355       0.15999909       0.12370565 </v>
   <v>       0.75069157       0.50000000       0.68948792 </v>
   <v>       0.75074645       0.65999909       0.62370565 </v>
   <v>       0.75066486       0.59821539       0.51788695 </v>
   <v>       0.75066486       0.40178461       0.51788695 </v>
   <v>       0.75074645       0.34000091       0.62370565 </v>
  </varray>
 </structure>
</modeling>
