qvasp                                   
           1
     6.662054    0.000000    0.000000
     0.000000    6.665019    0.000000
     0.000000    0.000000   11.940446
   Mg   N 
   4  40
Direct configuration=     1
   0.24954804  0.00000000  0.37494240
   0.75045196  0.50000000  0.87494240
   0.75045196  0.00000000  0.62505760
   0.24954804  0.50000000  0.12505760
   0.09043593  0.00000000  0.62647111
   0.15249037  0.00000000  0.73225588
   0.34900252  0.00000000  0.73210240
   0.41056134  0.00000000  0.62623177
   0.25033024  0.00000000  0.56055907
   0.90956407  0.50000000  0.12647111
   0.84750963  0.50000000  0.23225588
   0.65099748  0.50000000  0.23210240
   0.58943866  0.50000000  0.12623177
   0.74966976  0.50000000  0.06055907
   0.90956407  0.00000000  0.37352889
   0.84750963  0.00000000  0.26774412
   0.65099748  0.00000000  0.26789760
   0.58943866  0.00000000  0.37376823
   0.74966976  0.00000000  0.43944093
   0.09043593  0.50000000  0.87352889
   0.15249037  0.50000000  0.76774412
   0.34900252  0.50000000  0.76789760
   0.41056134  0.50000000  0.87376823
   0.25033024  0.50000000  0.93944093
   0.75069157  0.00000000  0.81051208
   0.75074645  0.84000091  0.87629435
   0.75066486  0.90178461  0.98211305
   0.75066486  0.09821539  0.98211305
   0.75074645  0.15999909  0.87629435
   0.24930843  0.50000000  0.31051208
   0.24925355  0.65999909  0.37629435
   0.24933514  0.59821539  0.48211305
   0.24933514  0.40178461  0.48211305
   0.24925355  0.34000091  0.37629435
   0.24930843  0.00000000  0.18948792
   0.24925355  0.84000091  0.12370565
   0.24933514  0.90178461  0.01788695
   0.24933514  0.09821539  0.01788695
   0.24925355  0.15999909  0.12370565
   0.75069157  0.50000000  0.68948792
   0.75074645  0.65999909  0.62370565
   0.75066486  0.59821539  0.51788695
   0.75066486  0.40178461  0.51788695
   0.75074645  0.34000091  0.62370565
