Cu   C    O    H 
   1.00000000000000     
   5.1119999886000000   0.0000000000000000   0.0000000000000000
  -0.0000088492000000   5.1119999885000000   0.0000000000000000
  -0.0000266965000000  -0.0000266965000000  15.4221000671000006
Cu   C    O    H 
16  1  1  1  
Selective dynamics
Direct
  0.0000300000000024  0.0013300000000029  0.1797900050000010 F F F
  0.0005141887399489  0.0044603644959338  0.4137566638324440 T T T
  0.2500000000000000  0.2500000000000000  0.0648399960000035 F F F
  0.2531803022340710  0.2503430915549170  0.2966205744696570 T T T
  0.5000100139999970  0.0004199999999983  0.1793099940000000 F F F
  0.4979777908089180  0.0001279084347701  0.4238781956911880 T T T
  0.7500000000000000  0.2500000000000000  0.0648399960000035 F F F
  0.7406519919875050  0.2505892833428830  0.3007573163437340 T T T
  0.0000199999999992  0.4999800029999970  0.1809100059999980 F F F
  0.0004150450910885  0.4962164940345840  0.4148854601151440 T T T
  0.2500000000000000  0.7500000000000000  0.0648399960000035 F F F
  0.2515824039945830  0.7499256859495490  0.2980033450401720 T T T
  0.5000200269999980  0.5008000139999990  0.1798200010000030 F F F
  0.4984433355580930  0.5000017343565940  0.4261568694288440 T T T
  0.7500000000000000  0.7500000000000000  0.0648399960000035 F F F
  0.7498007731452671  0.7503089804308020  0.3003879154652220 T T T
  0.5115526293083690  0.7341413866276770  0.5271868171038530 T T T
  0.5148484559441540  0.7802967176969630  0.5942042496118560 T T T
  0.2838463135468030  0.2857245024214590  0.4751403151079150 T T T
