  44  44   0   0
  0.1357257E+02  0.7778088E-09  0.8366855E-09  0.9176581E-09  0.5000000E-15
  1.000000000000000E-004
  CAR 
 qvasp                                   
     10.24315302    -26.23959149  301     -0.45750197      1.00000000
    -26.240  0.0000E+00  0.0000E+00
    -26.118  0.0000E+00  0.0000E+00
    -25.996  0.0000E+00  0.0000E+00
    -25.875  0.0000E+00  0.0000E+00
    -25.753  0.0000E+00  0.0000E+00
    -25.632  0.0000E+00  0.0000E+00
    -25.510  0.0000E+00  0.0000E+00
    -25.388  0.4565E-17  0.5551E-18
    -25.267  0.7299E-14  0.8882E-15
    -25.145  0.3588E-11  0.4372E-12
    -25.024  0.8695E-09  0.1062E-09
    -24.902  0.1041E-06  0.1276E-07
    -24.780  0.6173E-05  0.7635E-06
    -24.659  0.1820E-03  0.2290E-04
    -24.537  0.2679E-02  0.3486E-03
    -24.415  0.1974E-01  0.2750E-02
    -24.294  0.7316E-01  0.1165E-01
    -24.172  0.1366E+00  0.2826E-01
    -24.051  0.1287E+00  0.4391E-01
    -23.929  0.6108E-01  0.5134E-01
    -23.807  0.1456E-01  0.5311E-01
    -23.686  0.1736E-02  0.5332E-01
    -23.564  0.1029E-03  0.5333E-01
    -23.443  0.3017E-05  0.5333E-01
    -23.321  0.4352E-07  0.5333E-01
    -23.199  0.3074E-09  0.5333E-01
    -23.078  0.1059E-11  0.5333E-01
    -22.956  0.1773E-14  0.5333E-01
    -22.835  0.0000E+00  0.5333E-01
    -22.713  0.0000E+00  0.5333E-01
    -22.591  0.0000E+00  0.5333E-01
    -22.470  0.0000E+00  0.5333E-01
    -22.348  0.0000E+00  0.5333E-01
    -22.226  0.0000E+00  0.5333E-01
    -22.105  0.0000E+00  0.5333E-01
    -21.983  0.0000E+00  0.5333E-01
    -21.862  0.0000E+00  0.5333E-01
    -21.740  0.0000E+00  0.5333E-01
    -21.618  0.0000E+00  0.5333E-01
    -21.497  0.0000E+00  0.5333E-01
    -21.375  0.0000E+00  0.5333E-01
    -21.254  0.0000E+00  0.5333E-01
    -21.132  0.0000E+00  0.5333E-01
    -21.010  0.0000E+00  0.5333E-01
    -20.889  0.0000E+00  0.5333E-01
    -20.767  0.0000E+00  0.5333E-01
    -20.646  0.0000E+00  0.5333E-01
    -20.524  0.0000E+00  0.5333E-01
    -20.402  0.0000E+00  0.5333E-01
    -20.281  0.0000E+00  0.5333E-01
    -20.159  0.0000E+00  0.5333E-01
    -20.038  0.0000E+00  0.5333E-01
    -19.916  0.0000E+00  0.5333E-01
    -19.794  0.0000E+00  0.5333E-01
    -19.673  0.2549E-16  0.5333E-01
    -19.551  0.2324E-13  0.5333E-01
    -19.429  0.9767E-11  0.5333E-01
    -19.308  0.2019E-08  0.5333E-01
    -19.186  0.2064E-06  0.5333E-01
    -19.065  0.1051E-04  0.5333E-01
    -18.943  0.2681E-03  0.5337E-01
    -18.821  0.3459E-02  0.5379E-01
    -18.700  0.2277E-01  0.5656E-01
    -18.578  0.7729E-01  0.6596E-01
    -18.457  0.1386E+00  0.8281E-01
    -18.335  0.1456E+00  0.1005E+00
    -18.213  0.1323E+00  0.1166E+00
    -18.092  0.1454E+00  0.1343E+00
    -17.970  0.1274E+00  0.1498E+00
    -17.849  0.6427E-01  0.1576E+00
    -17.727  0.1722E-01  0.1597E+00
    -17.605  0.2391E-02  0.1600E+00
    -17.484  0.1692E-03  0.1600E+00
    -17.362  0.6030E-05  0.1600E+00
    -17.241  0.1071E-06  0.1600E+00
    -17.119  0.9393E-09  0.1600E+00
    -16.997  0.4046E-11  0.1600E+00
    -16.876  0.8521E-14  0.1600E+00
    -16.754  0.1522E-17  0.1600E+00
    -16.632  0.0000E+00  0.1600E+00
    -16.511  0.0000E+00  0.1600E+00
    -16.389  0.0000E+00  0.1600E+00
    -16.268  0.0000E+00  0.1600E+00
    -16.146  0.0000E+00  0.1600E+00
    -16.024  0.0000E+00  0.1600E+00
    -15.903  0.0000E+00  0.1600E+00
    -15.781  0.0000E+00  0.1600E+00
    -15.660  0.0000E+00  0.1600E+00
    -15.538  0.0000E+00  0.1600E+00
    -15.416  0.0000E+00  0.1600E+00
    -15.295  0.0000E+00  0.1600E+00
    -15.173  0.0000E+00  0.1600E+00
    -15.052  0.0000E+00  0.1600E+00
    -14.930  0.0000E+00  0.1600E+00
    -14.808  0.0000E+00  0.1600E+00
    -14.687  0.0000E+00  0.1600E+00
    -14.565  0.0000E+00  0.1600E+00
    -14.444  0.0000E+00  0.1600E+00
    -14.322  0.0000E+00  0.1600E+00
    -14.200  0.0000E+00  0.1600E+00
    -14.079  0.0000E+00  0.1600E+00
    -13.957  0.0000E+00  0.1600E+00
    -13.835  0.0000E+00  0.1600E+00
    -13.714  0.0000E+00  0.1600E+00
    -13.592  0.0000E+00  0.1600E+00
    -13.471  0.0000E+00  0.1600E+00
    -13.349  0.0000E+00  0.1600E+00
    -13.227  0.0000E+00  0.1600E+00
    -13.106  0.0000E+00  0.1600E+00
    -12.984  0.0000E+00  0.1600E+00
    -12.863  0.0000E+00  0.1600E+00
    -12.741  0.4451E-16  0.1600E+00
    -12.619  0.3374E-13  0.1600E+00
    -12.498  0.1253E-10  0.1600E+00
    -12.376  0.2335E-08  0.1600E+00
    -12.255  0.2196E-06  0.1600E+00
    -12.133  0.1050E-04  0.1600E+00
    -12.011  0.2573E-03  0.1600E+00
    -11.890  0.3276E-02  0.1604E+00
    -11.768  0.2209E-01  0.1631E+00
    -11.646  0.8140E-01  0.1730E+00
    -11.525  0.1727E+00  0.1940E+00
    -11.403  0.2276E+00  0.2217E+00
    -11.282  0.2000E+00  0.2460E+00
    -11.160  0.1173E+00  0.2603E+00
    -11.038  0.4268E-01  0.2655E+00
    -10.917  0.8866E-02  0.2665E+00
    -10.795  0.9926E-03  0.2667E+00
    -10.674  0.5797E-04  0.2667E+00
    -10.552  0.1733E-05  0.2667E+00
    -10.430  0.2623E-07  0.2667E+00
    -10.309  0.1996E-09  0.2667E+00
    -10.187  0.7598E-12  0.2667E+00
    -10.066  0.1440E-14  0.2667E+00
     -9.944  0.7608E-18  0.2667E+00
     -9.822  0.0000E+00  0.2667E+00
     -9.701  0.0000E+00  0.2667E+00
     -9.579  0.0000E+00  0.2667E+00
     -9.458  0.0000E+00  0.2667E+00
     -9.336  0.0000E+00  0.2667E+00
     -9.214  0.3804E-18  0.2667E+00
     -9.093  0.3591E-15  0.2667E+00
     -8.971  0.1667E-12  0.2667E+00
     -8.849  0.3747E-10  0.2667E+00
     -8.728  0.4090E-08  0.2667E+00
     -8.606  0.2176E-06  0.2667E+00
     -8.485  0.5673E-05  0.2667E+00
     -8.363  0.7297E-04  0.2667E+00
     -8.241  0.4705E-03  0.2667E+00
     -8.120  0.1597E-02  0.2669E+00
     -7.998  0.3365E-02  0.2673E+00
     -7.877  0.6299E-02  0.2681E+00
     -7.755  0.1259E-01  0.2696E+00
     -7.633  0.2371E-01  0.2725E+00
     -7.512  0.4005E-01  0.2774E+00
     -7.390  0.5872E-01  0.2845E+00
     -7.269  0.7716E-01  0.2939E+00
     -7.147  0.9622E-01  0.3056E+00
     -7.025  0.1062E+00  0.3185E+00
     -6.904  0.1003E+00  0.3307E+00
     -6.782  0.8424E-01  0.3410E+00
     -6.661  0.7264E-01  0.3498E+00
     -6.539  0.7189E-01  0.3585E+00
     -6.417  0.6269E-01  0.3662E+00
     -6.296  0.3823E-01  0.3708E+00
     -6.174  0.1566E-01  0.3727E+00
     -6.052  0.4242E-02  0.3732E+00
     -5.931  0.7065E-03  0.3733E+00
     -5.809  0.6616E-04  0.3733E+00
     -5.688  0.3269E-05  0.3733E+00
     -5.566  0.8226E-07  0.3733E+00
     -5.444  0.1471E-08  0.3733E+00
     -5.323  0.3623E-07  0.3733E+00
     -5.201  0.1516E-05  0.3733E+00
     -5.080  0.3268E-04  0.3733E+00
     -4.958  0.3698E-03  0.3734E+00
     -4.836  0.2244E-02  0.3737E+00
     -4.715  0.7550E-02  0.3746E+00
     -4.593  0.1516E-01  0.3764E+00
     -4.472  0.2139E-01  0.3790E+00
     -4.350  0.2694E-01  0.3823E+00
     -4.228  0.3235E-01  0.3862E+00
     -4.107  0.3075E-01  0.3900E+00
     -3.985  0.2265E-01  0.3927E+00
     -3.864  0.2105E-01  0.3953E+00
     -3.742  0.3010E-01  0.3989E+00
     -3.620  0.4567E-01  0.4045E+00
     -3.499  0.6670E-01  0.4126E+00
     -3.377  0.9259E-01  0.4239E+00
     -3.255  0.1259E+00  0.4392E+00
     -3.134  0.1710E+00  0.4600E+00
     -3.012  0.2096E+00  0.4855E+00
     -2.891  0.2138E+00  0.5115E+00
     -2.769  0.1973E+00  0.5355E+00
     -2.647  0.1899E+00  0.5585E+00
     -2.526  0.1882E+00  0.5814E+00
     -2.404  0.1727E+00  0.6024E+00
     -2.283  0.1414E+00  0.6196E+00
     -2.161  0.1051E+00  0.6324E+00
     -2.039  0.7288E-01  0.6413E+00
     -1.918  0.6171E-01  0.6488E+00
     -1.796  0.7359E-01  0.6577E+00
     -1.675  0.9025E-01  0.6687E+00
     -1.553  0.8979E-01  0.6796E+00
     -1.431  0.6638E-01  0.6877E+00
     -1.310  0.3380E-01  0.6918E+00
     -1.188  0.1059E-01  0.6931E+00
     -1.066  0.1850E-02  0.6933E+00
     -0.945  0.1702E-03  0.6933E+00
     -0.823  0.8000E-05  0.6933E+00
     -0.702  0.1888E-06  0.6933E+00
     -0.580  0.2214E-08  0.6933E+00
     -0.458  0.1280E-10  0.6933E+00
     -0.337  0.3631E-13  0.6933E+00
     -0.215  0.4793E-16  0.6933E+00
     -0.094  0.0000E+00  0.6933E+00
      0.028  0.0000E+00  0.6933E+00
      0.150  0.0000E+00  0.6933E+00
      0.271  0.0000E+00  0.6933E+00
      0.393  0.0000E+00  0.6933E+00
      0.514  0.0000E+00  0.6933E+00
      0.636  0.0000E+00  0.6933E+00
      0.758  0.0000E+00  0.6933E+00
      0.879  0.0000E+00  0.6933E+00
      1.001  0.0000E+00  0.6933E+00
      1.122  0.0000E+00  0.6933E+00
      1.244  0.0000E+00  0.6933E+00
      1.366  0.0000E+00  0.6933E+00
      1.487  0.0000E+00  0.6933E+00
      1.609  0.0000E+00  0.6933E+00
      1.731  0.0000E+00  0.6933E+00
      1.852  0.0000E+00  0.6933E+00
      1.974  0.0000E+00  0.6933E+00
      2.095  0.0000E+00  0.6933E+00
      2.217  0.7608E-18  0.6933E+00
      2.339  0.8707E-15  0.6933E+00
      2.460  0.3946E-12  0.6933E+00
      2.582  0.8897E-10  0.6933E+00
      2.703  0.1010E-07  0.6933E+00
      2.825  0.5862E-06  0.6933E+00
      2.947  0.1770E-04  0.6933E+00
      3.068  0.2844E-03  0.6934E+00
      3.190  0.2503E-02  0.6937E+00
      3.311  0.1255E-01  0.6952E+00
      3.433  0.3781E-01  0.6998E+00
      3.555  0.7418E-01  0.7088E+00
      3.676  0.1093E+00  0.7221E+00
      3.798  0.1430E+00  0.7395E+00
      3.919  0.1665E+00  0.7597E+00
      4.041  0.1546E+00  0.7786E+00
      4.163  0.1071E+00  0.7916E+00
      4.284  0.5116E-01  0.7978E+00
      4.406  0.1526E-01  0.7997E+00
      4.528  0.2619E-02  0.8000E+00
      4.649  0.2458E-03  0.8000E+00
      4.771  0.1220E-04  0.8000E+00
      4.892  0.3134E-06  0.8000E+00
      5.014  0.4100E-08  0.8000E+00
      5.136  0.2702E-10  0.8000E+00
      5.257  0.2602E-12  0.8000E+00
      5.379  0.3836E-10  0.8000E+00
      5.500  0.4173E-08  0.8000E+00
      5.622  0.2213E-06  0.8000E+00
      5.744  0.5743E-05  0.8000E+00
      5.865  0.7331E-04  0.8000E+00
      5.987  0.4628E-03  0.8001E+00
      6.108  0.1454E-02  0.8002E+00
      6.230  0.2339E-02  0.8005E+00
      6.352  0.2478E-02  0.8008E+00
      6.473  0.4348E-02  0.8014E+00
      6.595  0.1056E-01  0.8026E+00
      6.716  0.1738E-01  0.8048E+00
      6.838  0.2052E-01  0.8072E+00
      6.960  0.2513E-01  0.8103E+00
      7.081  0.2920E-01  0.8139E+00
      7.203  0.2249E-01  0.8166E+00
      7.325  0.1556E-01  0.8185E+00
      7.446  0.2138E-01  0.8211E+00
      7.568  0.3269E-01  0.8251E+00
      7.689  0.4108E-01  0.8301E+00
      7.811  0.4768E-01  0.8359E+00
      7.933  0.4916E-01  0.8418E+00
      8.054  0.4041E-01  0.8467E+00
      8.176  0.2753E-01  0.8501E+00
      8.297  0.1662E-01  0.8521E+00
      8.419  0.7578E-02  0.8530E+00
      8.541  0.2105E-02  0.8533E+00
      8.662  0.3196E-03  0.8533E+00
      8.784  0.2542E-04  0.8533E+00
      8.905  0.1035E-05  0.8533E+00
      9.027  0.2123E-07  0.8533E+00
      9.149  0.2165E-09  0.8533E+00
      9.270  0.1086E-11  0.8533E+00
      9.392  0.2664E-14  0.8533E+00
      9.513  0.3043E-17  0.8533E+00
      9.635  0.0000E+00  0.8533E+00
      9.757  0.0000E+00  0.8533E+00
      9.878  0.0000E+00  0.8533E+00
     10.000  0.0000E+00  0.8533E+00
     10.122  0.0000E+00  0.8533E+00
     10.243  0.0000E+00  0.8533E+00
