       N       E                     dE             d eps       ncg     rms          rms(c)
DAV:   1     0.149878537706E+04    0.14988E+04   -0.10266E+05  2048   0.143E+03
DAV:   2    -0.200492771910E+03   -0.16993E+04   -0.16447E+04  2736   0.346E+02
DAV:   3    -0.342708494562E+03   -0.14222E+03   -0.14043E+03  2336   0.109E+02
DAV:   4    -0.345878810716E+03   -0.31703E+01   -0.31614E+01  2336   0.174E+01
DAV:   5    -0.346011485211E+03   -0.13267E+00   -0.13261E+00  2568   0.308E+00    0.323E+01
DAV:   6    -0.334732809583E+03    0.11279E+02   -0.16186E+01  2248   0.103E+01    0.180E+01
DAV:   7    -0.332458219247E+03    0.22746E+01   -0.10846E+01  2312   0.839E+00    0.495E+00
DAV:   8    -0.332481491797E+03   -0.23273E-01   -0.83171E-01  2264   0.274E+00    0.598E-01
DAV:   9    -0.332482941633E+03   -0.14498E-02   -0.38503E-02  2272   0.628E-01    0.384E-01
DAV:  10    -0.332484073459E+03   -0.11318E-02   -0.56271E-03  2296   0.264E-01    0.891E-02
DAV:  11    -0.332484115512E+03   -0.42054E-04   -0.97131E-04  2288   0.110E-01    0.337E-02
DAV:  12    -0.332484097664E+03    0.17849E-04   -0.71687E-05  2136   0.333E-02    0.176E-02
DAV:  13    -0.332484070274E+03    0.27390E-04   -0.83345E-05  2048   0.295E-02    0.788E-03
DAV:  14    -0.332484067166E+03    0.31072E-05   -0.89066E-06  1216   0.110E-02
   1 F= -.33248407E+03 E0= -.33248407E+03  d E =-.332484E+03
       N       E                     dE             d eps       ncg     rms          rms(c)
DAV:   1    -0.332484775963E+03   -0.70569E-03   -0.38493E-02  2176   0.661E-01    0.138E-01
DAV:   2    -0.332484457920E+03    0.31804E-03   -0.10477E-03  2304   0.110E-01    0.666E-02
DAV:   3    -0.332484362778E+03    0.95142E-04   -0.31160E-04  2304   0.516E-02    0.183E-02
DAV:   4    -0.332484358162E+03    0.46160E-05   -0.16471E-05  1216   0.151E-02    0.948E-03
DAV:   5    -0.332484356400E+03    0.17613E-05   -0.42237E-06  1216   0.772E-03
   2 F= -.33248436E+03 E0= -.33248436E+03  d E =-.289234E-03
       N       E                     dE             d eps       ncg     rms          rms(c)
DAV:   1    -0.332484357077E+03    0.10845E-05   -0.30510E-05  1632   0.187E-02    0.378E-03
DAV:   2    -0.332484356881E+03    0.19670E-06   -0.15246E-06  1160   0.455E-03    0.193E-03
DAV:   3    -0.332484356756E+03    0.12447E-06   -0.47618E-07  1144   0.226E-03    0.542E-04
DAV:   4    -0.332484356732E+03    0.24562E-07   -0.76985E-08  1144   0.974E-04    0.349E-04
DAV:   5    -0.332484356700E+03    0.31572E-07   -0.21611E-08  1144   0.478E-04
   3 F= -.33248436E+03 E0= -.33248436E+03  d E =-.289534E-03
       N       E                     dE             d eps       ncg     rms          rms(c)
DAV:   1    -0.332484576834E+03   -0.22010E-03   -0.10100E-02  2112   0.323E-01    0.528E-02
DAV:   2    -0.332484544050E+03    0.32784E-04   -0.22584E-04  2304   0.483E-02    0.254E-02
DAV:   3    -0.332484530682E+03    0.13368E-04   -0.33579E-05  1584   0.187E-02    0.940E-03
DAV:   4    -0.332484529709E+03    0.97300E-06   -0.43045E-06  1168   0.779E-03    0.484E-03
DAV:   5    -0.332484529189E+03    0.52061E-06   -0.10144E-06  1120   0.364E-03
   4 F= -.33248453E+03 E0= -.33248453E+03  d E =-.172489E-03
       N       E                     dE             d eps       ncg     rms          rms(c)
DAV:   1    -0.332485302910E+03   -0.77320E-03   -0.90870E-02  2080   0.968E-01    0.158E-01
DAV:   2    -0.332485001576E+03    0.30133E-03   -0.20277E-03  2304   0.145E-01    0.763E-02
DAV:   3    -0.332484886086E+03    0.11549E-03   -0.32323E-04  2304   0.561E-02    0.301E-02
DAV:   4    -0.332484878590E+03    0.74958E-05   -0.19149E-05  1224   0.173E-02    0.150E-02
DAV:   5    -0.332484876226E+03    0.23636E-05   -0.64053E-06  1216   0.892E-03
   5 F= -.33248488E+03 E0= -.33248488E+03  d E =-.519526E-03
       N       E                     dE             d eps       ncg     rms          rms(c)
DAV:   1    -0.332486486201E+03   -0.16076E-02   -0.36334E-01  2080   0.194E+00    0.316E-01
DAV:   2    -0.332485276763E+03    0.12094E-02   -0.80834E-03  2304   0.289E-01    0.152E-01
DAV:   3    -0.332484817675E+03    0.45909E-03   -0.12975E-03  2304   0.112E-01    0.598E-02
DAV:   4    -0.332484792356E+03    0.25319E-04   -0.86748E-05  2248   0.345E-02    0.311E-02
DAV:   5    -0.332484784782E+03    0.75740E-05   -0.17320E-05  1216   0.146E-02
   6 F= -.33248478E+03 E0= -.33248478E+03  d E =-.428082E-03
       N       E                     dE             d eps       ncg     rms          rms(c)
DAV:   1    -0.332485592059E+03   -0.79970E-03   -0.13758E-01  2080   0.119E+00    0.195E-01
DAV:   2    -0.332485139362E+03    0.45270E-03   -0.30956E-03  2304   0.179E-01    0.938E-02
DAV:   3    -0.332484970133E+03    0.16923E-03   -0.47290E-04  2304   0.685E-02    0.372E-02
DAV:   4    -0.332484962666E+03    0.74671E-05   -0.30461E-05  1472   0.214E-02    0.186E-02
DAV:   5    -0.332484962463E+03    0.20334E-06   -0.88953E-06  1216   0.103E-02
   7 F= -.33248496E+03 E0= -.33248496E+03  d E =-.605763E-03
       N       E                     dE             d eps       ncg     rms          rms(c)
DAV:   1    -0.332485264477E+03   -0.30181E-03   -0.34128E-02  2080   0.608E-01    0.896E-02
DAV:   2    -0.332485196201E+03    0.68276E-04   -0.76969E-04  2336   0.880E-02    0.455E-02
DAV:   3    -0.332485162865E+03    0.33336E-04   -0.76580E-05  2280   0.309E-02    0.193E-02
DAV:   4    -0.332485159107E+03    0.37579E-05   -0.99318E-06  1216   0.121E-02    0.738E-03
DAV:   5    -0.332485158444E+03    0.66309E-06   -0.25671E-06  1120   0.584E-03
   8 F= -.33248516E+03 E0= -.33248516E+03  d E =-.195981E-03
       N       E                     dE             d eps       ncg     rms          rms(c)
DAV:   1    -0.332485196168E+03   -0.37061E-04   -0.51637E-03  2080   0.236E-01    0.346E-02
DAV:   2    -0.332485185393E+03    0.10775E-04   -0.11524E-04  2304   0.341E-02    0.174E-02
DAV:   3    -0.332485180245E+03    0.51474E-05   -0.10191E-05  1208   0.121E-02    0.733E-03
DAV:   4    -0.332485179833E+03    0.41256E-06   -0.36168E-06  1104   0.648E-03    0.293E-03
DAV:   5    -0.332485179621E+03    0.21190E-06   -0.65661E-07  1088   0.311E-03
   9 F= -.33248518E+03 E0= -.33248518E+03  d E =-.217158E-03
       N       E                     dE             d eps       ncg     rms          rms(c)
DAV:   1    -0.332485333647E+03   -0.15381E-03   -0.13919E-02  2080   0.393E-01    0.479E-02
DAV:   2    -0.332485320805E+03    0.12842E-04   -0.23131E-04  2328   0.506E-02    0.269E-02
DAV:   3    -0.332485308232E+03    0.12573E-04   -0.17848E-05  1328   0.178E-02    0.859E-03
DAV:   4    -0.332485307700E+03    0.53165E-06   -0.52635E-06  1200   0.862E-03    0.364E-03
DAV:   5    -0.332485307718E+03   -0.17504E-07   -0.11712E-06  1096   0.405E-03
  10 F= -.33248531E+03 E0= -.33248531E+03  d E =-.128097E-03
       N       E                     dE             d eps       ncg     rms          rms(c)
DAV:   1    -0.332485486165E+03   -0.17846E-03   -0.44764E-02  2064   0.705E-01    0.859E-02
DAV:   2    -0.332485444901E+03    0.41264E-04   -0.74623E-04  2336   0.908E-02    0.484E-02
DAV:   3    -0.332485405593E+03    0.39308E-04   -0.67763E-05  2288   0.319E-02    0.159E-02
DAV:   4    -0.332485403026E+03    0.25672E-05   -0.97793E-06  1216   0.130E-02    0.658E-03
DAV:   5    -0.332485402983E+03    0.42515E-07   -0.24747E-06  1192   0.591E-03
  11 F= -.33248540E+03 E0= -.33248540E+03  d E =-.223362E-03
       N       E                     dE             d eps       ncg     rms          rms(c)
DAV:   1    -0.332485570922E+03   -0.16790E-03   -0.23804E-02  2064   0.518E-01    0.656E-02
DAV:   2    -0.332485547352E+03    0.23571E-04   -0.50461E-04  2344   0.722E-02    0.342E-02
DAV:   3    -0.332485529662E+03    0.17690E-04   -0.41855E-05  1760   0.225E-02    0.139E-02
DAV:   4    -0.332485528360E+03    0.13021E-05   -0.64030E-06  1208   0.982E-03    0.554E-03
DAV:   5    -0.332485528628E+03   -0.26799E-06   -0.14566E-06  1072   0.455E-03
  12 F= -.33248553E+03 E0= -.33248553E+03  d E =-.125645E-03
       N       E                     dE             d eps       ncg     rms          rms(c)
DAV:   1    -0.332485647129E+03   -0.11877E-03   -0.36804E-02  2064   0.644E-01    0.816E-02
DAV:   2    -0.332485611073E+03    0.36056E-04   -0.78097E-04  2344   0.899E-02    0.425E-02
DAV:   3    -0.332485583850E+03    0.27223E-04   -0.67287E-05  2208   0.281E-02    0.176E-02
DAV:   4    -0.332485581577E+03    0.22734E-05   -0.74091E-06  1216   0.108E-02    0.712E-03
DAV:   5    -0.332485581853E+03   -0.27589E-06   -0.19263E-06  1152   0.513E-03
  13 F= -.33248558E+03 E0= -.33248558E+03  d E =-.178870E-03
       N       E                     dE             d eps       ncg     rms          rms(c)
DAV:   1    -0.332485702767E+03   -0.12119E-03   -0.16703E-02  2064   0.431E-01    0.508E-02
DAV:   2    -0.332485689565E+03    0.13201E-04   -0.34030E-04  2360   0.587E-02    0.268E-02
DAV:   3    -0.332485678713E+03    0.10853E-04   -0.26822E-05  1456   0.186E-02    0.113E-02
DAV:   4    -0.332485678407E+03    0.30588E-06   -0.68761E-06  1184   0.922E-03    0.457E-03
DAV:   5    -0.332485678735E+03   -0.32795E-06   -0.12875E-06  1112   0.435E-03
  14 F= -.33248568E+03 E0= -.33248568E+03  d E =-.968819E-04
       N       E                     dE             d eps       ncg     rms          rms(c)
DAV:   1    -0.332485964063E+03   -0.28566E-03   -0.11841E-01  2048   0.115E+00    0.136E-01
DAV:   2    -0.332485874739E+03    0.89324E-04   -0.24179E-03  2360   0.156E-01    0.714E-02
DAV:   3    -0.332485797639E+03    0.77099E-04   -0.21055E-04  2312   0.496E-02    0.309E-02
DAV:   4    -0.332485791598E+03    0.60411E-05   -0.22235E-05  1224   0.181E-02    0.128E-02
DAV:   5    -0.332485791897E+03   -0.29882E-06   -0.51364E-06  1216   0.870E-03
  15 F= -.33248579E+03 E0= -.33248579E+03  d E =-.210044E-03
       N       E                     dE             d eps       ncg     rms          rms(c)
DAV:   1    -0.332485891700E+03   -0.10010E-03   -0.29998E-02  2064   0.585E-01    0.580E-02
DAV:   2    -0.332485893788E+03   -0.20878E-05   -0.58450E-04  2440   0.763E-02    0.333E-02
DAV:   3    -0.332485878799E+03    0.14989E-04   -0.33660E-05  1680   0.201E-02    0.131E-02
DAV:   4    -0.332485877777E+03    0.10221E-05   -0.70706E-06  1216   0.933E-03    0.416E-03
DAV:   5    -0.332485878014E+03   -0.23722E-06   -0.12621E-06  1136   0.436E-03
  16 F= -.33248588E+03 E0= -.33248588E+03  d E =-.861172E-04
