1:P2_1(4)
1.0
   7.8559824    0.0000000    0.1349676
   0.0000000    8.4972942    0.0000000
   0.0000000    0.0000000    8.8707101
Mg  N 
  4  40 
Direct
 0.25350  0.34692  0.11406
 0.74650  0.84692  0.88594
 0.25027  0.84728  0.61195
 0.74973  0.34728  0.38805
 0.36108  0.19609  0.93423
 0.28419  0.13283  0.81693
 0.36915  0.00521  0.78014
 0.50171  0.99111  0.87369
 0.49518  0.10907  0.96835
 0.63892  0.69609  0.06577
 0.71581  0.63283  0.18307
 0.63085  0.50521  0.21986
 0.49829  0.49111  0.12631
 0.50482  0.60907  0.03165
 0.36517  0.99558  0.43119
 0.50406  0.07740  0.46206
 0.50927  0.19870  0.37111
 0.37200  0.19128  0.28259
 0.28459  0.06514  0.31914
 0.63483  0.49558  0.56881
 0.49594  0.57740  0.53794
 0.49073  0.69870  0.62889
 0.62800  0.69128  0.71741
 0.71541  0.56514  0.68086
 0.01245  0.99615  0.62070
 0.00436  0.11550  0.52750
 0.85891  0.18959  0.55596
 0.77704  0.11773  0.66835
 0.87051  0.99743  0.70803
 0.98755  0.49615  0.37930
 0.99564  0.61550  0.47250
 0.14109  0.68959  0.44404
 0.22296  0.61773  0.33165
 0.12949  0.49743  0.29197
 0.01150  0.20093  0.11802
 0.87340  0.19439  0.20972
 0.77973  0.07480  0.16800
 0.85679  0.00933  0.04993
 0.00017  0.08634  0.01973
 0.98850  0.70093  0.88198
 0.12660  0.69439  0.79028
 0.22027  0.57480  0.83200
 0.14321  0.50933  0.95007
 0.99983  0.58634  0.98027
