<?xml version="1.0" encoding="ISO-8859-1"?>
<modeling>
 <generator>
  <i name="program" type="string">vasp </i>
  <i name="version" type="string">5.4.4.18Apr17-6-g9f103f2a35  </i>
  <i name="subversion" type="string">(build Sep 25 2018 12:01:19) complex            parallel </i>
  <i name="platform" type="string">LinuxIFC </i>
  <i name="date" type="string">2018 10 11 </i>
  <i name="time" type="string">17:55:11 </i>
 </generator>
 <incar>
  <i type="string" name="SYSTEM">  qvasp</i>
  <i type="string" name="PREC">normal</i>
  <i type="int" name="ICHARG">     2</i>
  <i type="int" name="NELMIN">     5</i>
  <i type="int" name="IBRION">     2</i>
  <i name="EDIFF">      0.00001000</i>
  <i name="EDIFFG">     -0.01000000</i>
  <i type="int" name="NSW">   300</i>
  <i type="int" name="ISIF">     3</i>
  <i name="ENCUT">    500.00000000</i>
  <i type="logical" name="LREAL"> F  </i>
  <i type="int" name="ISMEAR">     0</i>
  <i name="SIGMA">      0.20000000</i>
  <i type="logical" name="LWAVE"> F  </i>
  <i type="logical" name="LCHARG"> F  </i>
  <v type="int" name="KPOINT_BSE">    -1     0     0     0</v>
 </incar>
 <structure name="primitive_cell" >
  <crystal>
   <varray name="basis" >
    <v>       7.77768547       0.00000000       0.07914652 </v>
    <v>       0.00000000       8.36685477       0.00000000 </v>
    <v>      -0.07026643       0.00000000       9.17631212 </v>
   </varray>
   <i name="volume">    597.19288291 </i>
   <varray name="rec_basis" >
    <v>       0.12856294       0.00000000       0.00098445 </v>
    <v>       0.00000000       0.11951923       0.00000000 </v>
    <v>      -0.00110887       0.00000000       0.10896775 </v>
   </varray>
  </crystal>
  <varray name="positions" >
   <v>       0.25032716       0.34739310       0.11395157 </v>
   <v>       0.14403359      -0.49594229      -0.05765358 </v>
   <v>       0.35652844       0.19200549      -0.05930628 </v>
   <v>       0.13094878      -0.49499331       0.28469204 </v>
   <v>       0.36928427       0.18838143       0.28349871 </v>
   <v>       0.49431044       0.49244188       0.12703422 </v>
   <v>       0.00614714       0.20240691       0.12600626 </v>
   <v>      -0.49657822      -0.39225052       0.03084860 </v>
   <v>      -0.00324230       0.08755112       0.02938676 </v>
   <v>       0.22221452      -0.37161764       0.32674516 </v>
   <v>       0.27861337       0.06429951       0.32514872 </v>
   <v>       0.49657822       0.10774948      -0.03084860 </v>
   <v>       0.00324230      -0.41244888      -0.02938676 </v>
   <v>       0.22213318      -0.43411078      -0.17333215 </v>
   <v>       0.27864790       0.13018277      -0.17480104 </v>
   <v>      -0.49450744       0.20220604       0.37305203 </v>
   <v>      -0.00604655       0.49183747       0.37404879 </v>
   <v>      -0.13084360       0.18928381       0.21533995 </v>
   <v>      -0.36929210      -0.49391853       0.21642927 </v>
   <v>      -0.49431044      -0.00755812      -0.12703422 </v>
   <v>      -0.00614714      -0.29759309      -0.12600626 </v>
   <v>      -0.35652844      -0.30799451       0.05930628 </v>
   <v>      -0.14403359       0.00405771       0.05765358 </v>
   <v>       0.14422596      -0.30990503       0.44252784 </v>
   <v>       0.35625800       0.00273301       0.44086724 </v>
   <v>       0.36929210       0.00608147      -0.21642927 </v>
   <v>       0.13084360      -0.31071619      -0.21533995 </v>
   <v>       0.49619723       0.08710243       0.46943701 </v>
   <v>       0.00343599      -0.39341911       0.47075366 </v>
   <v>      -0.22213318       0.06588922       0.17333215 </v>
   <v>      -0.27864790      -0.36981723       0.17480104 </v>
   <v>      -0.25036241       0.34713224       0.38599564 </v>
   <v>      -0.00343599       0.10658089      -0.47075366 </v>
   <v>      -0.49619723      -0.41289757      -0.46943701 </v>
   <v>      -0.14422596       0.19009497      -0.44252784 </v>
   <v>      -0.35625800      -0.49726699      -0.44086724 </v>
   <v>      -0.36928427      -0.31161857      -0.28349871 </v>
   <v>      -0.13094878       0.00500669      -0.28469204 </v>
   <v>       0.49450744      -0.29779396      -0.37305203 </v>
   <v>       0.00604655      -0.00816253      -0.37404879 </v>
   <v>      -0.27861337      -0.43570049      -0.32514872 </v>
   <v>      -0.22221452       0.12838236      -0.32674516 </v>
   <v>      -0.25032716      -0.15260690      -0.11395157 </v>
   <v>       0.25036241      -0.15286776      -0.38599564 </v>
  </varray>
 </structure>
 <varray name="primitive_index" >
  <v type="int" >        1 </v>
  <v type="int" >       43 </v>
  <v type="int" >        5 </v>
  <v type="int" >       34 </v>
  <v type="int" >       18 </v>
  <v type="int" >       13 </v>
  <v type="int" >       35 </v>
  <v type="int" >       14 </v>
  <v type="int" >       39 </v>
  <v type="int" >       33 </v>
  <v type="int" >       19 </v>
  <v type="int" >        9 </v>
  <v type="int" >       44 </v>
  <v type="int" >       42 </v>
  <v type="int" >        6 </v>
  <v type="int" >       17 </v>
  <v type="int" >       30 </v>
  <v type="int" >       36 </v>
  <v type="int" >       12 </v>
  <v type="int" >        8 </v>
  <v type="int" >       40 </v>
  <v type="int" >       10 </v>
  <v type="int" >       38 </v>
  <v type="int" >       32 </v>
  <v type="int" >       15 </v>
  <v type="int" >        7 </v>
  <v type="int" >       41 </v>
  <v type="int" >       16 </v>
  <v type="int" >       31 </v>
  <v type="int" >       37 </v>
  <v type="int" >       11 </v>
  <v type="int" >        4 </v>
  <v type="int" >       26 </v>
  <v type="int" >       21 </v>
  <v type="int" >       27 </v>
  <v type="int" >       20 </v>
  <v type="int" >       23 </v>
  <v type="int" >       29 </v>
  <v type="int" >       22 </v>
  <v type="int" >       25 </v>
  <v type="int" >       24 </v>
  <v type="int" >       28 </v>
  <v type="int" >        2 </v>
  <v type="int" >        3 </v>
 </varray>
 <kpoints>
  <generation param="Gamma">
   <v type="int" name="divisions">       2        2        2 </v>
   <v name="usershift">      0.00000000       0.00000000       0.00000000 </v>
   <v name="genvec1">      0.50000000       0.00000000       0.00000000 </v>
   <v name="genvec2">      0.00000000       0.50000000       0.00000000 </v>
   <v name="genvec3">      0.00000000       0.00000000       0.50000000 </v>
   <v name="shift">      0.00000000       0.00000000       0.00000000 </v>
  </generation>
  <varray name="kpointlist" >
   <v>       0.00000000       0.00000000       0.00000000 </v>
   <v>       0.50000000       0.00000000      -0.00000000 </v>
   <v>       0.00000000       0.50000000       0.00000000 </v>
   <v>       0.50000000       0.50000000      -0.00000000 </v>
   <v>      -0.00000000       0.00000000       0.50000000 </v>
   <v>       0.50000000       0.00000000       0.50000000 </v>
   <v>      -0.00000000       0.50000000       0.50000000 </v>
   <v>       0.50000000       0.50000000       0.50000000 </v>
  </varray>
  <varray name="weights" >
   <v>       0.12500000 </v>
   <v>       0.12500000 </v>
   <v>       0.12500000 </v>
   <v>       0.12500000 </v>
   <v>       0.12500000 </v>
   <v>       0.12500000 </v>
   <v>       0.12500000 </v>
   <v>       0.12500000 </v>
  </varray>
 </kpoints>
 <parameters>
  <separator name="general" >
   <i type="string" name="SYSTEM">qvasp</i>
   <i type="logical" name="LCOMPAT"> F  </i>
  </separator>
  <separator name="electronic" >
   <i type="string" name="PREC">normal</i>
   <i name="ENMAX">    500.00000000</i>
   <i name="ENAUG">    627.11200000</i>
   <i name="EDIFF">      0.00001000</i>
   <i type="int" name="IALGO">    38</i>
   <i type="int" name="IWAVPR">    11</i>
   <i type="int" name="NBANDS">   128</i>
   <i name="NELECT">    208.00000000</i>
   <i type="int" name="TURBO">     0</i>
   <i type="int" name="IRESTART">     0</i>
   <i type="int" name="NREBOOT">     0</i>
   <i type="int" name="NMIN">     0</i>
   <i name="EREF">      0.00000000</i>
   <separator name="electronic smearing" >
    <i type="int" name="ISMEAR">     0</i>
    <i name="SIGMA">      0.20000000</i>
    <i name="KSPACING">      0.50000000</i>
    <i type="logical" name="KGAMMA"> T  </i>
   </separator>
   <separator name="electronic projectors" >
    <i type="logical" name="LREAL"> F  </i>
    <v name="ROPT">      0.00000000      0.00000000</v>
    <i type="int" name="LMAXPAW">  -100</i>
    <i type="int" name="LMAXMIX">     2</i>
    <i type="logical" name="NLSPLINE"> F  </i>
   </separator>
   <separator name="electronic startup" >
    <i type="int" name="ISTART">     0</i>
    <i type="int" name="ICHARG">     2</i>
    <i type="int" name="INIWAV">     1</i>
   </separator>
   <separator name="electronic spin" >
    <i type="int" name="ISPIN">     1</i>
    <i type="logical" name="LNONCOLLINEAR"> F  </i>
    <v name="MAGMOM">      1.00000000      1.00000000      1.00000000      1.00000000      1.00000000      1.00000000      1.00000000      1.00000000      1.00000000      1.00000000      1.00000000      1.00000000      1.00000000      1.00000000      1.00000000      1.00000000      1.00000000      1.00000000      1.00000000      1.00000000
      1.00000000      1.00000000      1.00000000      1.00000000      1.00000000      1.00000000      1.00000000      1.00000000      1.00000000      1.00000000      1.00000000      1.00000000      1.00000000      1.00000000      1.00000000      1.00000000      1.00000000      1.00000000      1.00000000      1.00000000
      1.00000000      1.00000000      1.00000000      1.00000000</v>
    <i name="NUPDOWN">     -1.00000000</i>
    <i type="logical" name="LSORBIT"> F  </i>
    <v name="SAXIS">      0.00000000      0.00000000      1.00000000</v>
    <i type="logical" name="LSPIRAL"> F  </i>
    <v name="QSPIRAL">      0.00000000      0.00000000      0.00000000</v>
    <i type="logical" name="LZEROZ"> F  </i>
   </separator>
   <separator name="electronic exchange-correlation" >
    <i type="logical" name="LASPH"> F  </i>
    <i type="logical" name="LMETAGGA"> F  </i>
   </separator>
   <separator name="electronic convergence" >
    <i type="int" name="NELM">    60</i>
    <i type="int" name="NELMDL">     0</i>
    <i type="int" name="NELMIN">     5</i>
    <i name="ENINI">    500.00000000</i>
    <separator name="electronic convergence detail" >
     <i type="logical" name="LDIAG"> T  </i>
     <i type="logical" name="LSUBROT"> F  </i>
     <i name="WEIMIN">      0.00100000</i>
     <i name="EBREAK">      0.00000002</i>
     <i name="DEPER">      0.30000000</i>
     <i type="int" name="NRMM">     4</i>
     <i name="TIME">      0.40000000</i>
    </separator>
   </separator>
   <separator name="electronic mixer" >
    <i name="AMIX">      0.40000000</i>
    <i name="BMIX">      1.00000000</i>
    <i name="AMIN">      0.10000000</i>
    <i name="AMIX_MAG">      1.60000000</i>
    <i name="BMIX_MAG">      1.00000000</i>
    <separator name="electronic mixer details" >
     <i type="int" name="IMIX">     4</i>
     <i type="logical" name="MIXFIRST"> F  </i>
     <i type="int" name="MAXMIX">   -45</i>
     <i name="WC">    100.00000000</i>
     <i type="int" name="INIMIX">     1</i>
     <i type="int" name="MIXPRE">     1</i>
     <i type="int" name="MREMOVE">     5</i>
    </separator>
   </separator>
   <separator name="electronic dipolcorrection" >
    <i type="logical" name="LDIPOL"> F  </i>
    <i type="logical" name="LMONO"> F  </i>
    <i type="int" name="IDIPOL">     0</i>
    <i name="EPSILON">      1.00000000</i>
    <v name="DIPOL">   -100.00000000   -100.00000000   -100.00000000</v>
    <i name="EFIELD">      0.00000000</i>
   </separator>
  </separator>
  <separator name="grids" >
   <i type="int" name="NGX">    48</i>
   <i type="int" name="NGY">    48</i>
   <i type="int" name="NGZ">    50</i>
   <i type="int" name="NGXF">    96</i>
   <i type="int" name="NGYF">    96</i>
   <i type="int" name="NGZF">   100</i>
   <i type="logical" name="ADDGRID"> F  </i>
  </separator>
  <separator name="ionic" >
   <i type="int" name="NSW">   300</i>
   <i type="int" name="IBRION">     2</i>
   <i type="int" name="MDALGO">     0</i>
   <i type="int" name="ISIF">     3</i>
   <i name="PSTRESS">      0.00000000</i>
   <i name="EDIFFG">     -0.01000000</i>
   <i type="int" name="NFREE">     1</i>
   <i name="POTIM">      0.50000000</i>
   <i name="SMASS">     -3.00000000</i>
   <i name="SCALEE">      1.00000000</i>
  </separator>
  <separator name="ionic md" >
   <i name="TEBEG">      0.00010000</i>
   <i name="TEEND">      0.00010000</i>
   <i type="int" name="NBLOCK">     1</i>
   <i type="int" name="KBLOCK">   300</i>
   <i type="int" name="NPACO">   256</i>
   <i name="APACO">     16.00000000</i>
  </separator>
  <separator name="symmetry" >
   <i type="int" name="ISYM">     2</i>
   <i name="SYMPREC">      0.00001000</i>
  </separator>
  <separator name="dos" >
   <i type="int" name="LORBIT">     0</i>
   <v name="RWIGS">     -1.00000000     -1.00000000</v>
   <i type="int" name="NEDOS">   301</i>
   <i name="EMIN">     10.00000000</i>
   <i name="EMAX">    -10.00000000</i>
   <i name="EFERMI">      0.00000000</i>
  </separator>
  <separator name="writing" >
   <i type="int" name="NWRITE">     2</i>
   <i type="logical" name="LWAVE"> F  </i>
   <i type="logical" name="LDOWNSAMPLE"> F  </i>
   <i type="logical" name="LCHARG"> F  </i>
   <i type="logical" name="LPARD"> F  </i>
   <i type="logical" name="LVTOT"> F  </i>
   <i type="logical" name="LVHAR"> F  </i>
   <i type="logical" name="LELF"> F  </i>
   <i type="logical" name="LOPTICS"> F  </i>
   <v name="STM">      0.00000000      0.00000000      0.00000000      0.00000000      0.00000000      0.00000000      0.00000000</v>
  </separator>
  <separator name="performance" >
   <i type="int" name="NPAR">     2</i>
   <i type="int" name="NSIM">     4</i>
   <i type="int" name="NBLK">    -1</i>
   <i type="logical" name="LPLANE"> T  </i>
   <i type="logical" name="LSCALAPACK"> T  </i>
   <i type="logical" name="LSCAAWARE"> F  </i>
   <i type="logical" name="LSCALU"> F  </i>
   <i type="logical" name="LASYNC"> F  </i>
   <i type="logical" name="LORBITALREAL"> F  </i>
  </separator>
  <separator name="miscellaneous" >
   <i type="int" name="IDIOT">     3</i>
   <i type="int" name="ISPECIAL">     0</i>
   <i type="logical" name="LMUSIC"> F  </i>
   <v name="POMASS">     24.30500000     14.00100000</v>
   <v name="DARWINR">      0.00000000      0.00000000</v>
   <v name="DARWINV">      1.00000000      1.00000000</v>
   <i type="logical" name="LCORR"> T  </i>
  </separator>
  <i type="logical" name="GGA_COMPAT"> T  </i>
  <i type="logical" name="LBERRY"> F  </i>
  <i type="int" name="ICORELEVEL">     0</i>
  <i type="logical" name="LDAU"> F  </i>
  <i type="int" name="I_CONSTRAINED_M">     0</i>
  <separator name="electronic exchange-correlation" >
   <i type="string" name="GGA">--</i>
   <i type="int" name="VOSKOWN">     0</i>
   <i type="logical" name="LHFCALC"> F  </i>
   <i type="string" name="PRECFOCK"></i>
   <i type="logical" name="LSYMGRAD"> F  </i>
   <i type="logical" name="LHFONE"> F  </i>
   <i type="logical" name="LRHFCALC"> F  </i>
   <i type="logical" name="LTHOMAS"> F  </i>
   <i type="logical" name="LMODELHF"> F  </i>
   <i name="ENCUT4O">     -1.00000000</i>
   <i type="int" name="EXXOEP">     0</i>
   <i type="int" name="FOURORBIT">     0</i>
   <i name="AEXX">      0.00000000</i>
   <i name="HFALPHA">      0.00000000</i>
   <i name="MCALPHA">      0.00000000</i>
   <i name="ALDAX">      1.00000000</i>
   <i name="AGGAX">      1.00000000</i>
   <i name="ALDAC">      1.00000000</i>
   <i name="AGGAC">      1.00000000</i>
   <i type="int" name="NKREDX">     1</i>
   <i type="int" name="NKREDY">     1</i>
   <i type="int" name="NKREDZ">     1</i>
   <i type="logical" name="SHIFTRED"> F  </i>
   <i type="logical" name="ODDONLY"> F  </i>
   <i type="logical" name="EVENONLY"> F  </i>
   <i type="int" name="LMAXFOCK">     0</i>
   <i type="int" name="NMAXFOCKAE">     0</i>
   <i type="logical" name="LFOCKAEDFT"> F  </i>
   <i name="HFSCREEN">      0.00000000</i>
   <i name="HFSCREENC">      0.00000000</i>
   <i type="int" name="NBANDSGWLOW">     0</i>
  </separator>
  <separator name="vdW DFT" >
   <i type="logical" name="LUSE_VDW"> F  </i>
   <i name="Zab_VDW">     -0.84910000</i>
   <i name="PARAM1">      0.12340000</i>
   <i name="PARAM2">      1.00000000</i>
   <i name="PARAM3">      0.00000000</i>
  </separator>
  <separator name="model GW" >
   <i type="int" name="MODEL_GW">     0</i>
   <i name="MODEL_EPS0">      8.14353931</i>
   <i name="MODEL_ALPHA">      1.00000000</i>
  </separator>
  <separator name="linear response parameters" >
   <i type="logical" name="LEPSILON"> F  </i>
   <i type="logical" name="LRPA"> F  </i>
   <i type="logical" name="LNABLA"> F  </i>
   <i type="logical" name="LVEL"> F  </i>
   <i type="int" name="KINTER">     0</i>
   <i name="CSHIFT">      0.10000000</i>
   <i name="OMEGAMAX">     -1.00000000</i>
   <i name="DEG_THRESHOLD">      0.00200000</i>
   <i name="RTIME">     -0.10000000</i>
   <i name="WPLASMAI">      0.00000000</i>
   <v name="DFIELD">      0.00000000      0.00000000      0.00000000</v>
   <v name="WPLASMA">      0.00000000      0.00000000      0.00000000      0.00000000      0.00000000      0.00000000      0.00000000      0.00000000      0.00000000</v>
  </separator>
  <separator name="orbital magnetization" >
   <i type="logical" name="NUCIND"> F  </i>
   <v name="MAGPOS">      0.00000000      0.00000000      0.00000000</v>
   <i type="logical" name="LNICSALL"> T  </i>
   <i type="logical" name="ORBITALMAG"> F  </i>
   <i type="logical" name="LMAGBLOCH"> F  </i>
   <i type="logical" name="LCHIMAG"> F  </i>
   <i type="logical" name="LGAUGE"> T  </i>
   <i type="int" name="MAGATOM">     0</i>
   <v name="MAGDIPOL">      0.00000000      0.00000000      0.00000000</v>
   <v name="AVECCONST">      0.00000000      0.00000000      0.00000000</v>
  </separator>
  <separator name="response functions" >
   <i type="logical" name="LADDER"> F  </i>
   <i type="logical" name="LRPAFORCE"> F  </i>
   <i type="logical" name="LFXC"> F  </i>
   <i type="logical" name="LHARTREE"> T  </i>
   <i type="int" name="IBSE">     0</i>
   <v type="int" name="KPOINT">    -1     0     0     0</v>
   <i type="logical" name="LTCTE"> F  </i>
   <i type="logical" name="LTETE"> F  </i>
   <i type="logical" name="LTRIPLET"> F  </i>
   <i type="logical" name="LFXCEPS"> F  </i>
   <i type="logical" name="LFXHEG"> F  </i>
   <i type="int" name="NATURALO">     2</i>
   <i type="logical" name="L2ORDER"> F  </i>
   <i type="logical" name="LMP2LT"> F  </i>
   <i type="logical" name="LUSEW"> F  </i>
   <i name="ENCUTGW">     -2.00000000</i>
   <i name="ENCUTGWSOFT">     -2.00000000</i>
   <i name="ENCUTLF">     -1.00000000</i>
   <i type="int" name="LMAXMP2">    -1</i>
   <i name="SCISSOR">      0.00000000</i>
   <i type="int" name="NOMEGA">     0</i>
   <i type="int" name="NOMEGAR">     0</i>
   <i type="int" name="NBANDSGW">    -1</i>
   <i type="int" name="NBANDSO">    -1</i>
   <i type="int" name="NBANDSV">    -1</i>
   <i type="int" name="NELM">     1</i>
   <i type="int" name="NELMHF">     1</i>
   <i type="int" name="DIM">     3</i>
   <i type="int" name="ANTIRES">     0</i>
   <i name="OMEGAMAX">    -30.00000000</i>
   <i name="OMEGAMIN">    -30.00000000</i>
   <i name="OMEGATL">   -200.00000000</i>
   <i type="int" name="OMEGAGRID">   140</i>
   <i name="CSHIFT">     -0.10000000</i>
   <i type="logical" name="SELFENERGY"> F  </i>
   <i type="logical" name="LSPECTRAL"> F  </i>
   <i type="logical" name="LSPECTRALGW"> F  </i>
   <i type="logical" name="LSINGLES"> F  </i>
   <i type="logical" name="LFERMIGW"> F  </i>
   <i type="logical" name="ODDONLYGW"> F  </i>
   <i type="logical" name="EVENONLYGW"> F  </i>
   <i type="int" name="NKREDLFX">     1</i>
   <i type="int" name="NKREDLFY">     1</i>
   <i type="int" name="NKREDLFZ">     1</i>
   <i type="int" name="MAXMEM">  2800</i>
   <i type="int" name="TELESCOPE">     0</i>
   <i type="int" name="TAUPAR">     1</i>
   <i type="int" name="OMEGAPAR">    -1</i>
   <i name="LAMBDA">      1.00000000</i>
  </separator>
  <separator name="External order field" >
   <i name="OFIELD_KAPPA">      0.00000000</i>
   <v name="OFIELD_K">      0.00000000      0.00000000      0.00000000</v>
   <i name="OFIELD_Q6_NEAR">      0.00000000</i>
   <i name="OFIELD_Q6_FAR">      0.00000000</i>
   <i name="OFIELD_A">      0.00000000</i>
  </separator>
 </parameters>
 <atominfo>
  <atoms>      44 </atoms>
  <types>       2 </types>
  <array name="atoms" >
   <dimension dim="1">ion</dimension>
   <field type="string">element</field>
   <field type="int">atomtype</field>
   <set>
    <rc><c>Mg</c><c>   1</c></rc>
    <rc><c>Mg</c><c>   1</c></rc>
    <rc><c>Mg</c><c>   1</c></rc>
    <rc><c>Mg</c><c>   1</c></rc>
    <rc><c>N </c><c>   2</c></rc>
    <rc><c>N </c><c>   2</c></rc>
    <rc><c>N </c><c>   2</c></rc>
    <rc><c>N </c><c>   2</c></rc>
    <rc><c>N </c><c>   2</c></rc>
    <rc><c>N </c><c>   2</c></rc>
    <rc><c>N </c><c>   2</c></rc>
    <rc><c>N </c><c>   2</c></rc>
    <rc><c>N </c><c>   2</c></rc>
    <rc><c>N </c><c>   2</c></rc>
    <rc><c>N </c><c>   2</c></rc>
    <rc><c>N </c><c>   2</c></rc>
    <rc><c>N </c><c>   2</c></rc>
    <rc><c>N </c><c>   2</c></rc>
    <rc><c>N </c><c>   2</c></rc>
    <rc><c>N </c><c>   2</c></rc>
    <rc><c>N </c><c>   2</c></rc>
    <rc><c>N </c><c>   2</c></rc>
    <rc><c>N </c><c>   2</c></rc>
    <rc><c>N </c><c>   2</c></rc>
    <rc><c>N </c><c>   2</c></rc>
    <rc><c>N </c><c>   2</c></rc>
    <rc><c>N </c><c>   2</c></rc>
    <rc><c>N </c><c>   2</c></rc>
    <rc><c>N </c><c>   2</c></rc>
    <rc><c>N </c><c>   2</c></rc>
    <rc><c>N </c><c>   2</c></rc>
    <rc><c>N </c><c>   2</c></rc>
    <rc><c>N </c><c>   2</c></rc>
    <rc><c>N </c><c>   2</c></rc>
    <rc><c>N </c><c>   2</c></rc>
    <rc><c>N </c><c>   2</c></rc>
    <rc><c>N </c><c>   2</c></rc>
    <rc><c>N </c><c>   2</c></rc>
    <rc><c>N </c><c>   2</c></rc>
    <rc><c>N </c><c>   2</c></rc>
    <rc><c>N </c><c>   2</c></rc>
    <rc><c>N </c><c>   2</c></rc>
    <rc><c>N </c><c>   2</c></rc>
    <rc><c>N </c><c>   2</c></rc>
   </set>
  </array>
  <array name="atomtypes" >
   <dimension dim="1">type</dimension>
   <field type="int">atomspertype</field>
   <field type="string">element</field>
   <field>mass</field>
   <field>valence</field>
   <field type="string">pseudopotential</field>
   <set>
    <rc><c>   4</c><c>Mg</c><c>     24.30500000</c><c>      2.00000000</c><c>  PAW_PBE Mg 13Apr2007                  </c></rc>
    <rc><c>  40</c><c>N </c><c>     14.00100000</c><c>      5.00000000</c><c>  PAW_PBE N 08Apr2002                   </c></rc>
   </set>
  </array>
 </atominfo>
 <structure name="initialpos" >
  <crystal>
   <varray name="basis" >
    <v>       7.77768547       0.00000000       0.07914652 </v>
    <v>       0.00000000       8.36685477       0.00000000 </v>
    <v>      -0.07026643       0.00000000       9.17631212 </v>
   </varray>
   <i name="volume">    597.19288291 </i>
   <varray name="rec_basis" >
    <v>       0.12856294       0.00000000       0.00098445 </v>
    <v>       0.00000000       0.11951923       0.00000000 </v>
    <v>      -0.00110887       0.00000000       0.10896775 </v>
   </varray>
  </crystal>
  <varray name="positions" >
   <v>       0.25032716       0.34739310       0.11395157 </v>
   <v>       0.74967284       0.84739310       0.88604843 </v>
   <v>       0.25036241       0.84713224       0.61400436 </v>
   <v>       0.74963759       0.34713224       0.38599564 </v>
   <v>       0.35652844       0.19200549       0.94069372 </v>
   <v>       0.27864790       0.13018277       0.82519896 </v>
   <v>       0.36929210       0.00608147       0.78357073 </v>
   <v>       0.50568956       0.99244188       0.87296578 </v>
   <v>       0.49657822       0.10774948       0.96915140 </v>
   <v>       0.64347156       0.69200549       0.05930628 </v>
   <v>       0.72135210       0.63018277       0.17480104 </v>
   <v>       0.63070790       0.50608147       0.21642927 </v>
   <v>       0.49431044       0.49244188       0.12703422 </v>
   <v>       0.50342178       0.60774948       0.03084860 </v>
   <v>       0.35625800       0.00273301       0.44086724 </v>
   <v>       0.49619723       0.08710243       0.46943701 </v>
   <v>       0.50549256       0.20220604       0.37305203 </v>
   <v>       0.36928427       0.18838143       0.28349871 </v>
   <v>       0.27861337       0.06429951       0.32514872 </v>
   <v>       0.64374200       0.50273301       0.55913276 </v>
   <v>       0.50380277       0.58710243       0.53056299 </v>
   <v>       0.49450744       0.70220604       0.62694797 </v>
   <v>       0.63071573       0.68838143       0.71650129 </v>
   <v>       0.72138663       0.56429951       0.67485128 </v>
   <v>       0.00604655       0.99183747       0.62595121 </v>
   <v>       0.99656401       0.10658089       0.52924634 </v>
   <v>       0.85577404       0.19009497       0.55747216 </v>
   <v>       0.77778548       0.12838236       0.67325484 </v>
   <v>       0.86905122       0.00500669       0.71530796 </v>
   <v>       0.99395345       0.49183747       0.37404879 </v>
   <v>       0.00343599       0.60658089       0.47075366 </v>
   <v>       0.14422596       0.69009497       0.44252784 </v>
   <v>       0.22221452       0.62838236       0.32674516 </v>
   <v>       0.13094878       0.50500669       0.28469204 </v>
   <v>       0.00614714       0.20240691       0.12600626 </v>
   <v>       0.86915640       0.18928381       0.21533995 </v>
   <v>       0.77786682       0.06588922       0.17333215 </v>
   <v>       0.85596641       0.00405771       0.05765358 </v>
   <v>       0.99675770       0.08755112       0.02938676 </v>
   <v>       0.99385286       0.70240691       0.87399374 </v>
   <v>       0.13084360       0.68928381       0.78466005 </v>
   <v>       0.22213318       0.56588922       0.82666785 </v>
   <v>       0.14403359       0.50405771       0.94234642 </v>
   <v>       0.00324230       0.58755112       0.97061324 </v>
  </varray>
 </structure>
 <calculation>
  <scstep>
   <time name="dav">    1.70    1.73</time>
   <time name="total">    1.73    1.77</time>
   <energy>
    <i name="alphaZ">    331.57073995 </i>
    <i name="ewald">  -4681.41084294 </i>
    <i name="hartreedc">  -5292.44739340 </i>
    <i name="XCdc">    597.56379370 </i>
    <i name="pawpsdc">   8458.53604555 </i>
    <i name="pawaedc">  -8298.72446309 </i>
    <i name="eentropy">     -0.13619170 </i>
    <i name="bandstr">   -289.70772335 </i>
    <i name="atom">  10673.54141234 </i>
    <i name="e_fr_energy">   1498.78537706 </i>
    <i name="e_wo_entrp">   1498.92156876 </i>
    <i name="e_0_energy">   1498.85347291 </i>
   </energy>
  </scstep>
  <scstep>
   <time name="dav">    2.13    2.14</time>
   <time name="total">    2.13    2.14</time>
   <energy>
    <i name="e_fr_energy">   -200.49277191 </i>
    <i name="e_wo_entrp">   -200.49277191 </i>
    <i name="e_0_energy">   -200.49277191 </i>
   </energy>
  </scstep>
  <scstep>
   <time name="dav">    1.88    1.89</time>
   <time name="total">    1.88    1.89</time>
   <energy>
    <i name="e_fr_energy">   -342.70849456 </i>
    <i name="e_wo_entrp">   -342.70849456 </i>
    <i name="e_0_energy">   -342.70849456 </i>
   </energy>
  </scstep>
  <scstep>
   <time name="dav">    1.86    1.87</time>
   <time name="total">    1.87    1.87</time>
   <energy>
    <i name="e_fr_energy">   -345.87881072 </i>
    <i name="e_wo_entrp">   -345.87881072 </i>
    <i name="e_0_energy">   -345.87881072 </i>
   </energy>
  </scstep>
  <scstep>
   <time name="dav">    2.04    2.05</time>
   <time name="total">    2.11    2.12</time>
   <energy>
    <i name="e_fr_energy">   -346.01148521 </i>
    <i name="e_wo_entrp">   -346.01148521 </i>
    <i name="e_0_energy">   -346.01148521 </i>
   </energy>
  </scstep>
  <scstep>
   <time name="dav">    1.82    1.82</time>
   <time name="total">    1.90    1.90</time>
   <energy>
    <i name="e_fr_energy">   -334.73280958 </i>
    <i name="e_wo_entrp">   -334.73280958 </i>
    <i name="e_0_energy">   -334.73280958 </i>
   </energy>
  </scstep>
  <scstep>
   <time name="dav">    1.85    1.86</time>
   <time name="total">    1.93    1.94</time>
   <energy>
    <i name="e_fr_energy">   -332.45821925 </i>
    <i name="e_wo_entrp">   -332.45821925 </i>
    <i name="e_0_energy">   -332.45821925 </i>
   </energy>
  </scstep>
  <scstep>
   <time name="dav">    1.83    1.83</time>
   <time name="total">    1.91    1.92</time>
   <energy>
    <i name="e_fr_energy">   -332.48149180 </i>
    <i name="e_wo_entrp">   -332.48149180 </i>
    <i name="e_0_energy">   -332.48149180 </i>
   </energy>
  </scstep>
  <scstep>
   <time name="dav">    1.82    1.83</time>
   <time name="total">    1.90    1.91</time>
   <energy>
    <i name="e_fr_energy">   -332.48294163 </i>
    <i name="e_wo_entrp">   -332.48294163 </i>
    <i name="e_0_energy">   -332.48294163 </i>
   </energy>
  </scstep>
  <scstep>
   <time name="dav">    1.85    1.86</time>
   <time name="total">    1.93    1.94</time>
   <energy>
    <i name="e_fr_energy">   -332.48407346 </i>
    <i name="e_wo_entrp">   -332.48407346 </i>
    <i name="e_0_energy">   -332.48407346 </i>
   </energy>
  </scstep>
  <scstep>
   <time name="dav">    1.84    1.84</time>
   <time name="total">    1.92    1.93</time>
   <energy>
    <i name="e_fr_energy">   -332.48411551 </i>
    <i name="e_wo_entrp">   -332.48411551 </i>
    <i name="e_0_energy">   -332.48411551 </i>
   </energy>
  </scstep>
  <scstep>
   <time name="dav">    1.75    1.75</time>
   <time name="total">    1.83    1.84</time>
   <energy>
    <i name="e_fr_energy">   -332.48409766 </i>
    <i name="e_wo_entrp">   -332.48409766 </i>
    <i name="e_0_energy">   -332.48409766 </i>
   </energy>
  </scstep>
  <scstep>
   <time name="dav">    1.69    1.70</time>
   <time name="total">    1.77    1.78</time>
   <energy>
    <i name="e_fr_energy">   -332.48407027 </i>
    <i name="e_wo_entrp">   -332.48407027 </i>
    <i name="e_0_energy">   -332.48407027 </i>
   </energy>
  </scstep>
  <scstep>
   <time name="dav">    1.20    1.21</time>
   <time name="total">    1.22    1.23</time>
   <energy>
    <i name="alphaZ">    331.57073995 </i>
    <i name="ewald">  -4681.41084294 </i>
    <i name="hartreedc">  -5603.90648127 </i>
    <i name="XCdc">    620.34746745 </i>
    <i name="pawpsdc">  20690.99612564 </i>
    <i name="pawaedc"> -20536.93939877 </i>
    <i name="eentropy">     -0.00000000 </i>
    <i name="bandstr">  -1826.68308958 </i>
    <i name="atom">  10673.54141234 </i>
    <i name="e_fr_energy">   -332.48406717 </i>
    <i name="e_wo_entrp">   -332.48406717 </i>
    <i name="e_0_energy">   -332.48406717 </i>
   </energy>
  </scstep>
  <structure>
   <crystal>
    <varray name="basis" >
     <v>       7.77768547       0.00000000       0.07914652 </v>
     <v>       0.00000000       8.36685477       0.00000000 </v>
     <v>      -0.07026643       0.00000000       9.17631212 </v>
    </varray>
    <i name="volume">    597.19288291 </i>
    <varray name="rec_basis" >
     <v>       0.12856294       0.00000000       0.00098445 </v>
     <v>       0.00000000       0.11951923       0.00000000 </v>
     <v>      -0.00110887       0.00000000       0.10896775 </v>
    </varray>
   </crystal>
   <varray name="positions" >
    <v>       0.25032716       0.34739310       0.11395157 </v>
    <v>       0.74967284       0.84739310       0.88604843 </v>
    <v>       0.25036241       0.84713224       0.61400436 </v>
    <v>       0.74963759       0.34713224       0.38599564 </v>
    <v>       0.35652844       0.19200549       0.94069372 </v>
    <v>       0.27864790       0.13018277       0.82519896 </v>
    <v>       0.36929210       0.00608147       0.78357073 </v>
    <v>       0.50568956       0.99244188       0.87296578 </v>
    <v>       0.49657822       0.10774948       0.96915140 </v>
    <v>       0.64347156       0.69200549       0.05930628 </v>
    <v>       0.72135210       0.63018277       0.17480104 </v>
    <v>       0.63070790       0.50608147       0.21642927 </v>
    <v>       0.49431044       0.49244188       0.12703422 </v>
    <v>       0.50342178       0.60774948       0.03084860 </v>
    <v>       0.35625800       0.00273301       0.44086724 </v>
    <v>       0.49619723       0.08710243       0.46943701 </v>
    <v>       0.50549256       0.20220604       0.37305203 </v>
    <v>       0.36928427       0.18838143       0.28349871 </v>
    <v>       0.27861337       0.06429951       0.32514872 </v>
    <v>       0.64374200       0.50273301       0.55913276 </v>
    <v>       0.50380277       0.58710243       0.53056299 </v>
    <v>       0.49450744       0.70220604       0.62694797 </v>
    <v>       0.63071573       0.68838143       0.71650129 </v>
    <v>       0.72138663       0.56429951       0.67485128 </v>
    <v>       0.00604655       0.99183747       0.62595121 </v>
    <v>       0.99656401       0.10658089       0.52924634 </v>
    <v>       0.85577404       0.19009497       0.55747216 </v>
    <v>       0.77778548       0.12838236       0.67325484 </v>
    <v>       0.86905122       0.00500669       0.71530796 </v>
    <v>       0.99395345       0.49183747       0.37404879 </v>
    <v>       0.00343599       0.60658089       0.47075366 </v>
    <v>       0.14422596       0.69009497       0.44252784 </v>
    <v>       0.22221452       0.62838236       0.32674516 </v>
    <v>       0.13094878       0.50500669       0.28469204 </v>
    <v>       0.00614714       0.20240691       0.12600626 </v>
    <v>       0.86915640       0.18928381       0.21533995 </v>
    <v>       0.77786682       0.06588922       0.17333215 </v>
    <v>       0.85596641       0.00405771       0.05765358 </v>
    <v>       0.99675770       0.08755112       0.02938676 </v>
    <v>       0.99385286       0.70240691       0.87399374 </v>
    <v>       0.13084360       0.68928381       0.78466005 </v>
    <v>       0.22213318       0.56588922       0.82666785 </v>
    <v>       0.14403359       0.50405771       0.94234642 </v>
    <v>       0.00324230       0.58755112       0.97061324 </v>
   </varray>
  </structure>
  <varray name="forces" >
   <v>      -0.00125568      -0.00367682       0.00005511 </v>
   <v>       0.00125568      -0.00367682      -0.00005511 </v>
   <v>      -0.00312675      -0.00223419       0.00233348 </v>
   <v>       0.00312675      -0.00223419      -0.00233348 </v>
   <v>      -0.00037309      -0.00356773       0.00285390 </v>
   <v>       0.00475626       0.00245693       0.00025578 </v>
   <v>      -0.00291840      -0.00678758       0.00457032 </v>
   <v>      -0.00197751       0.00533980      -0.00498144 </v>
   <v>      -0.00311420      -0.00363665       0.00455024 </v>
   <v>       0.00037309      -0.00356773      -0.00285390 </v>
   <v>      -0.00475626       0.00245693      -0.00025578 </v>
   <v>       0.00291840      -0.00678758      -0.00457032 </v>
   <v>       0.00197751       0.00533980       0.00498144 </v>
   <v>       0.00311420      -0.00363665      -0.00455024 </v>
   <v>       0.00219244       0.00205740       0.00224260 </v>
   <v>      -0.00222236       0.00095263      -0.00045005 </v>
   <v>      -0.00029360      -0.00225829       0.00016569 </v>
   <v>      -0.00282709       0.00392811      -0.00068101 </v>
   <v>       0.00302478      -0.00036914       0.00280501 </v>
   <v>      -0.00219244       0.00205740      -0.00224260 </v>
   <v>       0.00222236       0.00095263       0.00045005 </v>
   <v>       0.00029360      -0.00225829      -0.00016569 </v>
   <v>       0.00282709       0.00392811       0.00068101 </v>
   <v>      -0.00302478      -0.00036914      -0.00280501 </v>
   <v>      -0.00551556       0.00152545       0.00304201 </v>
   <v>       0.00165410       0.00296682      -0.00091802 </v>
   <v>       0.00146826      -0.00022826       0.00168453 </v>
   <v>      -0.00081823       0.00150213      -0.00009695 </v>
   <v>       0.00411478       0.00315622       0.00103402 </v>
   <v>       0.00551556       0.00152545      -0.00304201 </v>
   <v>      -0.00165410       0.00296682       0.00091802 </v>
   <v>      -0.00146826      -0.00022826      -0.00168453 </v>
   <v>       0.00081823       0.00150213       0.00009695 </v>
   <v>      -0.00411478       0.00315622      -0.00103402 </v>
   <v>       0.00079004      -0.00318479       0.00219240 </v>
   <v>      -0.00513935       0.00309027       0.00052581 </v>
   <v>       0.00818360      -0.00104441       0.00171808 </v>
   <v>      -0.00289725      -0.00023136      -0.00530588 </v>
   <v>      -0.00197679       0.00024345       0.00442053 </v>
   <v>      -0.00079004      -0.00318479      -0.00219240 </v>
   <v>       0.00513935       0.00309027      -0.00052581 </v>
   <v>      -0.00818360      -0.00104441      -0.00171808 </v>
   <v>       0.00289725      -0.00023136       0.00530588 </v>
   <v>       0.00197679       0.00024345      -0.00442053 </v>
  </varray>
  <varray name="stress" >
   <v>      -0.16706833       0.00000000      -0.32244263 </v>
   <v>       0.00000000      -0.06979262       0.00000000 </v>
   <v>      -0.32244263       0.00000000       1.72318136 </v>
  </varray>
  <energy>
   <i name="e_fr_energy">   -332.48406717 </i>
   <i name="e_wo_entrp">   -332.48406717 </i>
   <i name="e_0_energy">     -0.00000000 </i>
  </energy>
  <time name="totalsc">   28.47   28.62</time>
 </calculation>
 <calculation>
  <scstep>
   <time name="dav">    1.77    1.78</time>
   <time name="total">    1.85    1.86</time>
   <energy>
    <i name="alphaZ">    331.36948446 </i>
    <i name="ewald">  -4679.76002689 </i>
    <i name="hartreedc">  -5603.25467155 </i>
    <i name="XCdc">    620.19755980 </i>
    <i name="pawpsdc">  20690.95476116 </i>
    <i name="pawaedc"> -20536.89788096 </i>
    <i name="eentropy">     -0.00000000 </i>
    <i name="bandstr">  -1828.63541433 </i>
    <i name="atom">  10673.54141234 </i>
    <i name="e_fr_energy">   -332.48477596 </i>
    <i name="e_wo_entrp">   -332.48477596 </i>
    <i name="e_0_energy">   -332.48477596 </i>
   </energy>
  </scstep>
  <scstep>
   <time name="dav">    1.87    1.88</time>
   <time name="total">    1.95    1.96</time>
   <energy>
    <i name="e_fr_energy">   -332.48445792 </i>
    <i name="e_wo_entrp">   -332.48445792 </i>
    <i name="e_0_energy">   -332.48445792 </i>
   </energy>
  </scstep>
  <scstep>
   <time name="dav">    1.86    1.87</time>
   <time name="total">    1.94    1.95</time>
   <energy>
    <i name="e_fr_energy">   -332.48436278 </i>
    <i name="e_wo_entrp">   -332.48436278 </i>
    <i name="e_0_energy">   -332.48436278 </i>
   </energy>
  </scstep>
  <scstep>
   <time name="dav">    1.22    1.22</time>
   <time name="total">    1.30    1.30</time>
   <energy>
    <i name="e_fr_energy">   -332.48435816 </i>
    <i name="e_wo_entrp">   -332.48435816 </i>
    <i name="e_0_energy">   -332.48435816 </i>
   </energy>
  </scstep>
  <scstep>
   <time name="dav">    1.21    1.21</time>
   <time name="total">    1.23    1.23</time>
   <energy>
    <i name="alphaZ">    331.36948446 </i>
    <i name="ewald">  -4679.76002689 </i>
    <i name="hartreedc">  -5604.91029539 </i>
    <i name="XCdc">    620.29420864 </i>
    <i name="pawpsdc">  20681.48717955 </i>
    <i name="pawaedc"> -20527.42434264 </i>
    <i name="eentropy">     -0.00000000 </i>
    <i name="bandstr">  -1827.08197647 </i>
    <i name="atom">  10673.54141234 </i>
    <i name="e_fr_energy">   -332.48435640 </i>
    <i name="e_wo_entrp">   -332.48435640 </i>
    <i name="e_0_energy">   -332.48435640 </i>
   </energy>
  </scstep>
  <structure>
   <crystal>
    <varray name="basis" >
     <v>       7.77714400       0.00000000       0.07817735 </v>
     <v>       0.00000000       8.36661612       0.00000000 </v>
     <v>      -0.07147084       0.00000000       9.18278359 </v>
    </varray>
    <i name="volume">    597.55558483 </i>
    <varray name="rec_basis" >
     <v>       0.12857185       0.00000000       0.00100069 </v>
     <v>       0.00000000       0.11952263       0.00000000 </v>
     <v>      -0.00109459       0.00000000       0.10889092 </v>
    </varray>
   </crystal>
   <varray name="positions" >
    <v>       0.25031938       0.34737190       0.11395193 </v>
    <v>       0.74968062       0.84737190       0.88604807 </v>
    <v>       0.25034313       0.84711936       0.61401680 </v>
    <v>       0.74965687       0.34711936       0.38598320 </v>
    <v>       0.35652626       0.19198492       0.94070874 </v>
    <v>       0.27867741       0.13019694       0.82520005 </v>
    <v>       0.36927422       0.00604234       0.78359491 </v>
    <v>       0.50567706       0.99247267       0.87293969 </v>
    <v>       0.49655912       0.10772851       0.96917549 </v>
    <v>       0.64347374       0.69198492       0.05929126 </v>
    <v>       0.72132259       0.63019694       0.17479995 </v>
    <v>       0.63072578       0.50604234       0.21640509 </v>
    <v>       0.49432294       0.49247267       0.12706031 </v>
    <v>       0.50344088       0.60772851       0.03082451 </v>
    <v>       0.35627170       0.00274487       0.44087892 </v>
    <v>       0.49618342       0.08710792       0.46943477 </v>
    <v>       0.50549074       0.20219302       0.37305292 </v>
    <v>       0.36926671       0.18840408       0.28349528 </v>
    <v>       0.27863227       0.06429738       0.32516331 </v>
    <v>       0.64372830       0.50274487       0.55912108 </v>
    <v>       0.50381658       0.58710792       0.53056523 </v>
    <v>       0.49450926       0.70219302       0.62694708 </v>
    <v>       0.63073329       0.68840408       0.71650472 </v>
    <v>       0.72136773       0.56429738       0.67483669 </v>
    <v>       0.00601249       0.99184626       0.62596750 </v>
    <v>       0.99657423       0.10659799       0.52924143 </v>
    <v>       0.85578323       0.19009366       0.55748094 </v>
    <v>       0.77778040       0.12839102       0.67325437 </v>
    <v>       0.86907679       0.00502489       0.71531318 </v>
    <v>       0.99398751       0.49184626       0.37403250 </v>
    <v>       0.00342577       0.60659799       0.47075857 </v>
    <v>       0.14421677       0.69009366       0.44251906 </v>
    <v>       0.22221960       0.62839102       0.32674563 </v>
    <v>       0.13092321       0.50502489       0.28468682 </v>
    <v>       0.00615214       0.20238855       0.12601774 </v>
    <v>       0.86912454       0.18930163       0.21534299 </v>
    <v>       0.77791765       0.06588319       0.17334074 </v>
    <v>       0.85594819       0.00405638       0.05762584 </v>
    <v>       0.99674565       0.08755252       0.02941011 </v>
    <v>       0.99384786       0.70238855       0.87398226 </v>
    <v>       0.13087546       0.68930163       0.78465701 </v>
    <v>       0.22208235       0.56588319       0.82665926 </v>
    <v>       0.14405181       0.50405638       0.94237416 </v>
    <v>       0.00325435       0.58755252       0.97058989 </v>
   </varray>
  </structure>
  <varray name="forces" >
   <v>      -0.00107617      -0.00241519      -0.00174120 </v>
   <v>       0.00107617      -0.00241519       0.00174120 </v>
   <v>      -0.00283268      -0.00135279      -0.00147399 </v>
   <v>       0.00283268      -0.00135279       0.00147399 </v>
   <v>      -0.00829380      -0.00839665      -0.00926758 </v>
   <v>      -0.00832272       0.00542192       0.00560432 </v>
   <v>       0.00439551       0.02041158       0.01811808 </v>
   <v>       0.01246007      -0.00788882       0.00971938 </v>
   <v>      -0.00321925      -0.01563455      -0.01496183 </v>
   <v>       0.00829380      -0.00839665       0.00926758 </v>
   <v>       0.00832272       0.00542192      -0.00560432 </v>
   <v>      -0.00439551       0.02041158      -0.01811808 </v>
   <v>      -0.01246007      -0.00788882      -0.00971938 </v>
   <v>       0.00321925      -0.01563455       0.01496183 </v>
   <v>      -0.01005790       0.00650781      -0.01115473 </v>
   <v>       0.00244200       0.01569346      -0.01238057 </v>
   <v>       0.00720391       0.00511970       0.00288203 </v>
   <v>       0.00677379      -0.02015013       0.02438547 </v>
   <v>      -0.00672960      -0.00399250       0.00300498 </v>
   <v>       0.01005790       0.00650781       0.01115473 </v>
   <v>      -0.00244200       0.01569346       0.01238057 </v>
   <v>      -0.00720391       0.00511970      -0.00288203 </v>
   <v>      -0.00677379      -0.02015013      -0.02438547 </v>
   <v>       0.00672960      -0.00399250      -0.00300498 </v>
   <v>       0.01183010      -0.00215260      -0.00380999 </v>
   <v>      -0.01952910      -0.01473690       0.03216515 </v>
   <v>      -0.01031815      -0.00063423       0.00953037 </v>
   <v>       0.01000005       0.01113786      -0.01621550 </v>
   <v>       0.00982547       0.01472806      -0.01901373 </v>
   <v>      -0.01183010      -0.00215260       0.00380999 </v>
   <v>       0.01952910      -0.01473690      -0.03216515 </v>
   <v>       0.01031815      -0.00063423      -0.00953037 </v>
   <v>      -0.01000005       0.01113786       0.01621550 </v>
   <v>      -0.00982547       0.01472806       0.01901373 </v>
   <v>       0.00425019       0.00495394       0.00116645 </v>
   <v>       0.01822391      -0.01741328      -0.02566179 </v>
   <v>      -0.00373921      -0.01288042      -0.01443204 </v>
   <v>      -0.00643536       0.01111894       0.01821552 </v>
   <v>      -0.01203009       0.01255479       0.02182826 </v>
   <v>      -0.00425019       0.00495394      -0.00116645 </v>
   <v>      -0.01822391      -0.01741328       0.02566179 </v>
   <v>       0.00373921      -0.01288042       0.01443204 </v>
   <v>       0.00643536       0.01111894      -0.01821552 </v>
   <v>       0.01203009       0.01255479      -0.02182826 </v>
  </varray>
  <varray name="stress" >
   <v>      -0.17782535       0.00000000       0.00269517 </v>
   <v>       0.00000000      -0.54328871       0.00000000 </v>
   <v>       0.00269512       0.00000000       0.24444921 </v>
  </varray>
  <energy>
   <i name="e_fr_energy">   -332.48435640 </i>
   <i name="e_wo_entrp">   -332.48435640 </i>
   <i name="e_0_energy">     -0.00000000 </i>
  </energy>
  <time name="totalsc">   10.70   10.74</time>
 </calculation>
 <calculation>
  <scstep>
   <time name="dav">    1.46    1.47</time>
   <time name="total">    1.54    1.55</time>
   <energy>
    <i name="alphaZ">    331.36399948 </i>
    <i name="ewald">  -4679.71503818 </i>
    <i name="hartreedc">  -5604.88329189 </i>
    <i name="XCdc">    620.28954077 </i>
    <i name="pawpsdc">  20681.65407527 </i>
    <i name="pawaedc"> -20527.59093755 </i>
    <i name="eentropy">     -0.00000000 </i>
    <i name="bandstr">  -1827.14411731 </i>
    <i name="atom">  10673.54141234 </i>
    <i name="e_fr_energy">   -332.48435708 </i>
    <i name="e_wo_entrp">   -332.48435708 </i>
    <i name="e_0_energy">   -332.48435708 </i>
   </energy>
  </scstep>
  <scstep>
   <time name="dav">    1.18    1.18</time>
   <time name="total">    1.26    1.27</time>
   <energy>
    <i name="e_fr_energy">   -332.48435688 </i>
    <i name="e_wo_entrp">   -332.48435688 </i>
    <i name="e_0_energy">   -332.48435688 </i>
   </energy>
  </scstep>
  <scstep>
   <time name="dav">    1.16    1.17</time>
   <time name="total">    1.24    1.25</time>
   <energy>
    <i name="e_fr_energy">   -332.48435676 </i>
    <i name="e_wo_entrp">   -332.48435676 </i>
    <i name="e_0_energy">   -332.48435676 </i>
   </energy>
  </scstep>
  <scstep>
   <time name="dav">    1.17    1.17</time>
   <time name="total">    1.24    1.25</time>
   <energy>
    <i name="e_fr_energy">   -332.48435673 </i>
    <i name="e_wo_entrp">   -332.48435673 </i>
    <i name="e_0_energy">   -332.48435673 </i>
   </energy>
  </scstep>
  <scstep>
   <time name="dav">    1.16    1.17</time>
   <time name="total">    1.18    1.19</time>
   <energy>
    <i name="alphaZ">    331.36399948 </i>
    <i name="ewald">  -4679.71503818 </i>
    <i name="hartreedc">  -5604.93569686 </i>
    <i name="XCdc">    620.29248939 </i>
    <i name="pawpsdc">  20681.72306018 </i>
    <i name="pawaedc"> -20527.65978618 </i>
    <i name="eentropy">     -0.00000000 </i>
    <i name="bandstr">  -1827.09479687 </i>
    <i name="atom">  10673.54141234 </i>
    <i name="e_fr_energy">   -332.48435670 </i>
    <i name="e_wo_entrp">   -332.48435670 </i>
    <i name="e_0_energy">   -332.48435670 </i>
   </energy>
  </scstep>
  <structure>
   <crystal>
    <varray name="basis" >
     <v>       7.77712923       0.00000000       0.07815092 </v>
     <v>       0.00000000       8.36660961       0.00000000 </v>
     <v>      -0.07150369       0.00000000       9.18296010 </v>
    </varray>
    <i name="volume">    597.56547601 </i>
    <varray name="rec_basis" >
     <v>       0.12857209       0.00000000       0.00100113 </v>
     <v>       0.00000000       0.11952273       0.00000000 </v>
     <v>      -0.00109420       0.00000000       0.10888883 </v>
    </varray>
   </crystal>
   <varray name="positions" >
    <v>       0.25031917       0.34737133       0.11395194 </v>
    <v>       0.74968083       0.84737133       0.88604806 </v>
    <v>       0.25034260       0.84711901       0.61401714 </v>
    <v>       0.74965740       0.34711901       0.38598286 </v>
    <v>       0.35652620       0.19198436       0.94070915 </v>
    <v>       0.27867822       0.13019732       0.82520008 </v>
    <v>       0.36927373       0.00604127       0.78359557 </v>
    <v>       0.50567672       0.99247351       0.87293898 </v>
    <v>       0.49655860       0.10772793       0.96917615 </v>
    <v>       0.64347380       0.69198436       0.05929085 </v>
    <v>       0.72132178       0.63019732       0.17479992 </v>
    <v>       0.63072627       0.50604127       0.21640443 </v>
    <v>       0.49432328       0.49247351       0.12706102 </v>
    <v>       0.50344140       0.60772793       0.03082385 </v>
    <v>       0.35627208       0.00274519       0.44087923 </v>
    <v>       0.49618304       0.08710807       0.46943470 </v>
    <v>       0.50549070       0.20219266       0.37305294 </v>
    <v>       0.36926623       0.18840470       0.28349519 </v>
    <v>       0.27863278       0.06429732       0.32516371 </v>
    <v>       0.64372792       0.50274519       0.55912077 </v>
    <v>       0.50381696       0.58710807       0.53056530 </v>
    <v>       0.49450930       0.70219266       0.62694706 </v>
    <v>       0.63073377       0.68840470       0.71650481 </v>
    <v>       0.72136722       0.56429732       0.67483629 </v>
    <v>       0.00601156       0.99184650       0.62596794 </v>
    <v>       0.99657450       0.10659846       0.52924130 </v>
    <v>       0.85578348       0.19009362       0.55748118 </v>
    <v>       0.77778026       0.12839126       0.67325436 </v>
    <v>       0.86907749       0.00502539       0.71531332 </v>
    <v>       0.99398844       0.49184650       0.37403206 </v>
    <v>       0.00342550       0.60659846       0.47075870 </v>
    <v>       0.14421652       0.69009362       0.44251882 </v>
    <v>       0.22221974       0.62839126       0.32674564 </v>
    <v>       0.13092251       0.50502539       0.28468668 </v>
    <v>       0.00615228       0.20238804       0.12601805 </v>
    <v>       0.86912368       0.18930211       0.21534308 </v>
    <v>       0.77791904       0.06588303       0.17334098 </v>
    <v>       0.85594769       0.00405634       0.05762508 </v>
    <v>       0.99674532       0.08755256       0.02941074 </v>
    <v>       0.99384772       0.70238804       0.87398195 </v>
    <v>       0.13087632       0.68930211       0.78465692 </v>
    <v>       0.22208096       0.56588303       0.82665902 </v>
    <v>       0.14405231       0.50405634       0.94237492 </v>
    <v>       0.00325468       0.58755256       0.97058926 </v>
   </varray>
  </structure>
  <varray name="forces" >
   <v>      -0.00112628      -0.00235235      -0.00177229 </v>
   <v>       0.00112628      -0.00235235       0.00177229 </v>
   <v>      -0.00287769      -0.00135399      -0.00157879 </v>
   <v>       0.00287769      -0.00135399       0.00157879 </v>
   <v>      -0.00825703      -0.00890623      -0.00989059 </v>
   <v>      -0.00833944       0.00538729       0.00600986 </v>
   <v>       0.00469916       0.02135209       0.01897887 </v>
   <v>       0.01268512      -0.00811021       0.01006655 </v>
   <v>      -0.00338455      -0.01608405      -0.01584955 </v>
   <v>       0.00825703      -0.00890623       0.00989059 </v>
   <v>       0.00833944       0.00538729      -0.00600986 </v>
   <v>      -0.00469916       0.02135209      -0.01897887 </v>
   <v>      -0.01268512      -0.00811021      -0.01006655 </v>
   <v>       0.00338455      -0.01608405       0.01584955 </v>
   <v>      -0.01013929       0.00693274      -0.01176077 </v>
   <v>       0.00249695       0.01619072      -0.01301319 </v>
   <v>       0.00727156       0.00518591       0.00298578 </v>
   <v>       0.00713633      -0.02104905       0.02554863 </v>
   <v>      -0.00670423      -0.00399636       0.00328317 </v>
   <v>       0.01013929       0.00693274       0.01176077 </v>
   <v>      -0.00249695       0.01619072       0.01301319 </v>
   <v>      -0.00727156       0.00518591      -0.00298578 </v>
   <v>      -0.00713633      -0.02104905      -0.02554863 </v>
   <v>       0.00670423      -0.00399636      -0.00328317 </v>
   <v>       0.01222164      -0.00227880      -0.00389806 </v>
   <v>      -0.02017210      -0.01523312       0.03331664 </v>
   <v>      -0.01054972      -0.00072683       0.00983335 </v>
   <v>       0.01029381       0.01144690      -0.01679677 </v>
   <v>       0.01014460       0.01518253      -0.01975741 </v>
   <v>      -0.01222164      -0.00227880       0.00389806 </v>
   <v>       0.02017210      -0.01523312      -0.03331664 </v>
   <v>       0.01054972      -0.00072683      -0.00983335 </v>
   <v>      -0.01029381       0.01144690       0.01679677 </v>
   <v>      -0.01014460       0.01518253       0.01975741 </v>
   <v>       0.00434155       0.00521344       0.00120120 </v>
   <v>       0.01891866      -0.01806177      -0.02656276 </v>
   <v>      -0.00392628      -0.01316997      -0.01500242 </v>
   <v>      -0.00648546       0.01148257       0.01885898 </v>
   <v>      -0.01238670       0.01294855       0.02260281 </v>
   <v>      -0.00434155       0.00521344      -0.00120120 </v>
   <v>      -0.01891866      -0.01806177       0.02656276 </v>
   <v>       0.00392628      -0.01316997       0.01500242 </v>
   <v>       0.00648546       0.01148257      -0.01885898 </v>
   <v>       0.01238670       0.01294855      -0.02260281 </v>
  </varray>
  <varray name="stress" >
   <v>      -0.15855766       0.00000000       0.01292508 </v>
   <v>       0.00000000      -0.53321444       0.00000000 </v>
   <v>       0.01292509       0.00000000       0.22067483 </v>
  </varray>
  <energy>
   <i name="e_fr_energy">   -332.48435670 </i>
   <i name="e_wo_entrp">   -332.48435670 </i>
   <i name="e_0_energy">     -0.00000000 </i>
  </energy>
  <time name="totalsc">    8.90    8.93</time>
 </calculation>
 <calculation>
  <scstep>
   <time name="dav">    1.74    1.74</time>
   <time name="total">    1.82    1.82</time>
   <energy>
    <i name="alphaZ">    331.30736207 </i>
    <i name="ewald">  -4678.33350305 </i>
    <i name="hartreedc">  -5605.38890122 </i>
    <i name="XCdc">    620.26438662 </i>
    <i name="pawpsdc">  20681.72311713 </i>
    <i name="pawaedc"> -20527.65983582 </i>
    <i name="eentropy">     -0.00000000 </i>
    <i name="bandstr">  -1827.93861491 </i>
    <i name="atom">  10673.54141234 </i>
    <i name="e_fr_energy">   -332.48457683 </i>
    <i name="e_wo_entrp">   -332.48457683 </i>
    <i name="e_0_energy">   -332.48457683 </i>
   </energy>
  </scstep>
  <scstep>
   <time name="dav">    1.87    1.88</time>
   <time name="total">    1.96    1.96</time>
   <energy>
    <i name="e_fr_energy">   -332.48454405 </i>
    <i name="e_wo_entrp">   -332.48454405 </i>
    <i name="e_0_energy">   -332.48454405 </i>
   </energy>
  </scstep>
  <scstep>
   <time name="dav">    1.43    1.44</time>
   <time name="total">    1.52    1.52</time>
   <energy>
    <i name="e_fr_energy">   -332.48453068 </i>
    <i name="e_wo_entrp">   -332.48453068 </i>
    <i name="e_0_energy">   -332.48453068 </i>
   </energy>
  </scstep>
  <scstep>
   <time name="dav">    1.18    1.18</time>
   <time name="total">    1.26    1.27</time>
   <energy>
    <i name="e_fr_energy">   -332.48452971 </i>
    <i name="e_wo_entrp">   -332.48452971 </i>
    <i name="e_0_energy">   -332.48452971 </i>
   </energy>
  </scstep>
  <scstep>
   <time name="dav">    1.14    1.15</time>
   <time name="total">    1.16    1.17</time>
   <energy>
    <i name="alphaZ">    331.30736207 </i>
    <i name="ewald">  -4678.33350305 </i>
    <i name="hartreedc">  -5606.00747190 </i>
    <i name="XCdc">    620.30010088 </i>
    <i name="pawpsdc">  20683.56646572 </i>
    <i name="pawaedc"> -20529.50489736 </i>
    <i name="eentropy">     -0.00000000 </i>
    <i name="bandstr">  -1827.35399790 </i>
    <i name="atom">  10673.54141234 </i>
    <i name="e_fr_energy">   -332.48452919 </i>
    <i name="e_wo_entrp">   -332.48452919 </i>
    <i name="e_0_energy">   -332.48452919 </i>
   </energy>
  </scstep>
  <structure>
   <crystal>
    <varray name="basis" >
     <v>       7.77686259       0.00000000       0.07783406 </v>
     <v>       0.00000000       8.36622100       0.00000000 </v>
     <v>      -0.07189859       0.00000000       9.18527060 </v>
    </varray>
    <i name="volume">    597.66763058 </i>
    <varray name="rec_basis" >
     <v>       0.12857649       0.00000000       0.00100644 </v>
     <v>       0.00000000       0.11952828       0.00000000 </v>
     <v>      -0.00108953       0.00000000       0.10886143 </v>
    </varray>
   </crystal>
   <varray name="positions" >
    <v>       0.25031536       0.34736193       0.11395049 </v>
    <v>       0.74968464       0.84736193       0.88604951 </v>
    <v>       0.25033311       0.84711337       0.61401992 </v>
    <v>       0.74966689       0.34711337       0.38598008 </v>
    <v>       0.35651672       0.19196878       0.94070547 </v>
    <v>       0.27867941       0.13020733       0.82520586 </v>
    <v>       0.36927282       0.00604898       0.78362049 </v>
    <v>       0.50568592       0.99247592       0.87293908 </v>
    <v>       0.49654852       0.10770522       0.96917016 </v>
    <v>       0.64348328       0.69196878       0.05929453 </v>
    <v>       0.72132059       0.63020733       0.17479414 </v>
    <v>       0.63072718       0.50604898       0.21637951 </v>
    <v>       0.49431408       0.49247592       0.12706092 </v>
    <v>       0.50345148       0.60770522       0.03082984 </v>
    <v>       0.35626593       0.00275593       0.44087278 </v>
    <v>       0.49618093       0.08712571       0.46942236 </v>
    <v>       0.50549774       0.20219336       0.37305583 </v>
    <v>       0.36926804       0.18839176       0.28351668 </v>
    <v>       0.27863211       0.06429271       0.32517157 </v>
    <v>       0.64373407       0.50275593       0.55912722 </v>
    <v>       0.50381907       0.58712571       0.53057764 </v>
    <v>       0.49450226       0.70219336       0.62694417 </v>
    <v>       0.63073196       0.68839176       0.71648332 </v>
    <v>       0.72136789       0.56429271       0.67482843 </v>
    <v>       0.00601293       0.99184723       0.62596982 </v>
    <v>       0.99655703       0.10658933       0.52926944 </v>
    <v>       0.85577557       0.19009247       0.55749295 </v>
    <v>       0.77778922       0.12840533       0.67323918 </v>
    <v>       0.86909654       0.00504629       0.71529742 </v>
    <v>       0.99398707       0.49184723       0.37403018 </v>
    <v>       0.00344297       0.60658933       0.47073056 </v>
    <v>       0.14422443       0.69009247       0.44250705 </v>
    <v>       0.22221078       0.62840533       0.32676082 </v>
    <v>       0.13090346       0.50504629       0.28470258 </v>
    <v>       0.00615852       0.20238698       0.12602293 </v>
    <v>       0.86913264       0.18929046       0.21532032 </v>
    <v>       0.77793184       0.06586816       0.17333056 </v>
    <v>       0.85593493       0.00406709       0.05763261 </v>
    <v>       0.99672847       0.08756566       0.02943876 </v>
    <v>       0.99384148       0.70238698       0.87397707 </v>
    <v>       0.13086736       0.68929046       0.78467968 </v>
    <v>       0.22206816       0.56586816       0.82666944 </v>
    <v>       0.14406507       0.50406709       0.94236739 </v>
    <v>       0.00327153       0.58756566       0.97056124 </v>
   </varray>
  </structure>
  <varray name="forces" >
   <v>      -0.00105363      -0.00181577      -0.00138234 </v>
   <v>       0.00105363      -0.00181577       0.00138234 </v>
   <v>      -0.00249853      -0.00081367      -0.00154213 </v>
   <v>       0.00249853      -0.00081367       0.00154213 </v>
   <v>      -0.00882883      -0.00544407      -0.00656379 </v>
   <v>      -0.01027113       0.00447118       0.00717555 </v>
   <v>       0.00535928       0.01881300       0.01215824 </v>
   <v>       0.01189124      -0.01118133       0.00992469 </v>
   <v>      -0.00140999      -0.01334462      -0.01324786 </v>
   <v>       0.00882883      -0.00544407       0.00656379 </v>
   <v>       0.01027113       0.00447118      -0.00717555 </v>
   <v>      -0.00535928       0.01881300      -0.01215824 </v>
   <v>      -0.01189124      -0.01118133      -0.00992469 </v>
   <v>       0.00140999      -0.01334462       0.01324786 </v>
   <v>      -0.01044043       0.00421691      -0.00836515 </v>
   <v>       0.00312390       0.01337122      -0.00987362 </v>
   <v>       0.00753685       0.00717409       0.00175381 </v>
   <v>       0.00739420      -0.01646019       0.01956451 </v>
   <v>      -0.00839753      -0.00511406       0.00448585 </v>
   <v>       0.01044043       0.00421691       0.00836515 </v>
   <v>      -0.00312390       0.01337122       0.00987362 </v>
   <v>      -0.00753685       0.00717409      -0.00175381 </v>
   <v>      -0.00739420      -0.01646019      -0.01956451 </v>
   <v>       0.00839753      -0.00511406      -0.00448585 </v>
   <v>       0.01314784      -0.00410377      -0.00162748 </v>
   <v>      -0.01571837      -0.01327436       0.02663864 </v>
   <v>      -0.01134758       0.00233723       0.00649369 </v>
   <v>       0.00779552       0.01153792      -0.01403894 </v>
   <v>       0.00762907       0.01097960      -0.01463775 </v>
   <v>      -0.01314784      -0.00410377       0.00162748 </v>
   <v>       0.01571837      -0.01327436      -0.02663864 </v>
   <v>       0.01134758       0.00233723      -0.00649369 </v>
   <v>      -0.00779552       0.01153792       0.01403894 </v>
   <v>      -0.00762907       0.01097960       0.01463775 </v>
   <v>       0.00374703       0.00780662       0.00288378 </v>
   <v>       0.01887549      -0.01471463      -0.01990804 </v>
   <v>      -0.00773646      -0.01213233      -0.01429081 </v>
   <v>      -0.00653576       0.00677251       0.01600282 </v>
   <v>      -0.00839066       0.01091852       0.01620218 </v>
   <v>      -0.00374703       0.00780662      -0.00288378 </v>
   <v>      -0.01887549      -0.01471463       0.01990804 </v>
   <v>       0.00773646      -0.01213233       0.01429081 </v>
   <v>       0.00653576       0.00677251      -0.01600282 </v>
   <v>       0.00839066       0.01091852      -0.01620218 </v>
  </varray>
  <varray name="stress" >
   <v>      -0.11423952       0.00000000      -0.01240185 </v>
   <v>       0.00000000      -0.44813586       0.00000000 </v>
   <v>      -0.01240179       0.00000000       0.27735926 </v>
  </varray>
  <energy>
   <i name="e_fr_energy">   -332.48452919 </i>
   <i name="e_wo_entrp">   -332.48452919 </i>
   <i name="e_0_energy">     -0.00000000 </i>
  </energy>
  <time name="totalsc">   10.14   10.17</time>
 </calculation>
 <calculation>
  <scstep>
   <time name="dav">    1.71    1.72</time>
   <time name="total">    1.80    1.80</time>
   <energy>
    <i name="alphaZ">    331.13764725 </i>
    <i name="ewald">  -4674.18801884 </i>
    <i name="hartreedc">  -5607.36134221 </i>
    <i name="XCdc">    620.21546620 </i>
    <i name="pawpsdc">  20683.82018323 </i>
    <i name="pawaedc"> -20529.75852498 </i>
    <i name="eentropy">     -0.00000000 </i>
    <i name="bandstr">  -1829.89212590 </i>
    <i name="atom">  10673.54141234 </i>
    <i name="e_fr_energy">   -332.48530291 </i>
    <i name="e_wo_entrp">   -332.48530291 </i>
    <i name="e_0_energy">   -332.48530291 </i>
   </energy>
  </scstep>
  <scstep>
   <time name="dav">    1.86    1.86</time>
   <time name="total">    1.94    1.94</time>
   <energy>
    <i name="e_fr_energy">   -332.48500158 </i>
    <i name="e_wo_entrp">   -332.48500158 </i>
    <i name="e_0_energy">   -332.48500158 </i>
   </energy>
  </scstep>
  <scstep>
   <time name="dav">    1.85    1.86</time>
   <time name="total">    1.93    1.94</time>
   <energy>
    <i name="e_fr_energy">   -332.48488609 </i>
    <i name="e_wo_entrp">   -332.48488609 </i>
    <i name="e_0_energy">   -332.48488609 </i>
   </energy>
  </scstep>
  <scstep>
   <time name="dav">    1.21    1.21</time>
   <time name="total">    1.29    1.30</time>
   <energy>
    <i name="e_fr_energy">   -332.48487859 </i>
    <i name="e_wo_entrp">   -332.48487859 </i>
    <i name="e_0_energy">   -332.48487859 </i>
   </energy>
  </scstep>
  <scstep>
   <time name="dav">    1.21    1.21</time>
   <time name="total">    1.23    1.23</time>
   <energy>
    <i name="alphaZ">    331.13764725 </i>
    <i name="ewald">  -4674.18801884 </i>
    <i name="hartreedc">  -5609.21205393 </i>
    <i name="XCdc">    620.32228148 </i>
    <i name="pawpsdc">  20690.10134015 </i>
    <i name="pawaedc"> -20536.04501675 </i>
    <i name="eentropy">     -0.00000000 </i>
    <i name="bandstr">  -1828.14246794 </i>
    <i name="atom">  10673.54141234 </i>
    <i name="e_fr_energy">   -332.48487623 </i>
    <i name="e_wo_entrp">   -332.48487623 </i>
    <i name="e_0_energy">   -332.48487623 </i>
   </energy>
  </scstep>
  <structure>
   <crystal>
    <varray name="basis" >
     <v>       7.77606266       0.00000000       0.07688350 </v>
     <v>       0.00000000       8.36505517       0.00000000 </v>
     <v>      -0.07308329       0.00000000       9.19220210 </v>
    </varray>
    <i name="volume">    597.97394747 </i>
    <varray name="rec_basis" >
     <v>       0.12858968       0.00000000       0.00102236 </v>
     <v>       0.00000000       0.11954494       0.00000000 </v>
     <v>      -0.00107552       0.00000000       0.10877931 </v>
    </varray>
   </crystal>
   <varray name="positions" >
    <v>       0.25030394       0.34733373       0.11394616 </v>
    <v>       0.74969606       0.84733373       0.88605384 </v>
    <v>       0.25030463       0.84709646       0.61402828 </v>
    <v>       0.74969537       0.34709646       0.38597172 </v>
    <v>       0.35648830       0.19192203       0.94069441 </v>
    <v>       0.27868298       0.13023734       0.82522320 </v>
    <v>       0.36927011       0.00607212       0.78369524 </v>
    <v>       0.50571353       0.99248314       0.87293938 </v>
    <v>       0.49651828       0.10763706       0.96915219 </v>
    <v>       0.64351170       0.69192203       0.05930559 </v>
    <v>       0.72131702       0.63023734       0.17477680 </v>
    <v>       0.63072989       0.50607212       0.21630476 </v>
    <v>       0.49428647       0.49248314       0.12706062 </v>
    <v>       0.50348172       0.60763706       0.03084781 </v>
    <v>       0.35624751       0.00278815       0.44085343 </v>
    <v>       0.49617459       0.08717861       0.46938535 </v>
    <v>       0.50551889       0.20219544       0.37306448 </v>
    <v>       0.36927347       0.18835293       0.28358114 </v>
    <v>       0.27863008       0.06427887       0.32519515 </v>
    <v>       0.64375249       0.50278815       0.55914657 </v>
    <v>       0.50382541       0.58717861       0.53061465 </v>
    <v>       0.49448111       0.70219544       0.62693552 </v>
    <v>       0.63072653       0.68835293       0.71641886 </v>
    <v>       0.72136992       0.56427887       0.67480485 </v>
    <v>       0.00601707       0.99184940       0.62597546 </v>
    <v>       0.99650462       0.10656195       0.52935385 </v>
    <v>       0.85575184       0.19008902       0.55752826 </v>
    <v>       0.77781611       0.12844753       0.67319367 </v>
    <v>       0.86915370       0.00510903       0.71524973 </v>
    <v>       0.99398293       0.49184940       0.37402454 </v>
    <v>       0.00349538       0.60656195       0.47064615 </v>
    <v>       0.14424816       0.69008902       0.44247174 </v>
    <v>       0.22218389       0.62844753       0.32680633 </v>
    <v>       0.13084630       0.50510903       0.28475027 </v>
    <v>       0.00617726       0.20238377       0.12603755 </v>
    <v>       0.86915952       0.18925552       0.21525206 </v>
    <v>       0.77797022       0.06582357       0.17329931 </v>
    <v>       0.85589666       0.00409936       0.05765519 </v>
    <v>       0.99667792       0.08760497       0.02952278 </v>
    <v>       0.99382274       0.70238377       0.87396245 </v>
    <v>       0.13084048       0.68925552       0.78474794 </v>
    <v>       0.22202978       0.56582357       0.82670069 </v>
    <v>       0.14410334       0.50409936       0.94234481 </v>
    <v>       0.00332208       0.58760497       0.97047722 </v>
   </varray>
  </structure>
  <varray name="forces" >
   <v>      -0.00082756      -0.00020663      -0.00025496 </v>
   <v>       0.00082756      -0.00020663       0.00025496 </v>
   <v>      -0.00136979       0.00079772      -0.00147137 </v>
   <v>       0.00136979       0.00079772       0.00147137 </v>
   <v>      -0.01062734       0.00489477       0.00325902 </v>
   <v>      -0.01610890       0.00187225       0.01076064 </v>
   <v>       0.00738884       0.01141890      -0.00827700 </v>
   <v>       0.00945571      -0.02014932       0.00963779 </v>
   <v>       0.00446745      -0.00529530      -0.00562211 </v>
   <v>       0.01062734       0.00489477      -0.00325902 </v>
   <v>       0.01610890       0.00187225      -0.01076064 </v>
   <v>      -0.00738884       0.01141890       0.00827700 </v>
   <v>      -0.00945571      -0.02014932      -0.00963779 </v>
   <v>      -0.00446745      -0.00529530       0.00562211 </v>
   <v>      -0.01144654      -0.00388846       0.00165658 </v>
   <v>       0.00499608       0.00511227      -0.00060129 </v>
   <v>       0.00824887       0.01289073      -0.00189606 </v>
   <v>       0.00824064      -0.00289258       0.00166844 </v>
   <v>      -0.01350102      -0.00860791       0.00813631 </v>
   <v>       0.01144654      -0.00388846      -0.00165658 </v>
   <v>      -0.00499608       0.00511227       0.00060129 </v>
   <v>      -0.00824887       0.01289073       0.00189606 </v>
   <v>      -0.00824064      -0.00289258      -0.00166844 </v>
   <v>       0.01350102      -0.00860791      -0.00813631 </v>
   <v>       0.01585158      -0.00939109       0.00513202 </v>
   <v>      -0.00243349      -0.00755526       0.00673168 </v>
   <v>      -0.01382586       0.01145932      -0.00336027 </v>
   <v>       0.00029632       0.01200895      -0.00578613 </v>
   <v>       0.00017881      -0.00165764       0.00080606 </v>
   <v>      -0.01585158      -0.00939109      -0.00513202 </v>
   <v>       0.00243349      -0.00755526      -0.00673168 </v>
   <v>       0.01382586       0.01145932       0.00336027 </v>
   <v>      -0.00029632       0.01200895       0.00578613 </v>
   <v>      -0.00017881      -0.00165764      -0.00080606 </v>
   <v>       0.00179598       0.01542577       0.00793946 </v>
   <v>       0.01896188      -0.00468561       0.00007726 </v>
   <v>      -0.01927257      -0.00925264      -0.01219987 </v>
   <v>      -0.00673187      -0.00724979       0.00768802 </v>
   <v>       0.00359778       0.00495155      -0.00295304 </v>
   <v>      -0.00179598       0.01542577      -0.00793946 </v>
   <v>      -0.01896188      -0.00468561      -0.00007726 </v>
   <v>       0.01927257      -0.00925264       0.01219987 </v>
   <v>       0.00673187      -0.00724979      -0.00768802 </v>
   <v>      -0.00359778       0.00495155       0.00295304 </v>
  </varray>
  <varray name="stress" >
   <v>       0.03601361       0.00000000      -0.07713853 </v>
   <v>       0.00000000      -0.17021603       0.00000000 </v>
   <v>      -0.07713858       0.00000000       0.42077050 </v>
  </varray>
  <energy>
   <i name="e_fr_energy">   -332.48487623 </i>
   <i name="e_wo_entrp">   -332.48487623 </i>
   <i name="e_0_energy">     -0.00000000 </i>
  </energy>
  <time name="totalsc">   10.61   10.68</time>
 </calculation>
 <calculation>
  <scstep>
   <time name="dav">    1.72    1.72</time>
   <time name="total">    1.80    1.80</time>
   <energy>
    <i name="alphaZ">    330.79910372 </i>
    <i name="ewald">  -4665.89390367 </i>
    <i name="hartreedc">  -5611.92690433 </i>
    <i name="XCdc">    620.15336635 </i>
    <i name="pawpsdc">  20690.68631418 </i>
    <i name="pawaedc"> -20536.62972888 </i>
    <i name="eentropy">     -0.00000000 </i>
    <i name="bandstr">  -1833.21614591 </i>
    <i name="atom">  10673.54141234 </i>
    <i name="e_fr_energy">   -332.48648620 </i>
    <i name="e_wo_entrp">   -332.48648620 </i>
    <i name="e_0_energy">   -332.48648620 </i>
   </energy>
  </scstep>
  <scstep>
   <time name="dav">    1.86    1.87</time>
   <time name="total">    1.94    1.95</time>
   <energy>
    <i name="e_fr_energy">   -332.48527676 </i>
    <i name="e_wo_entrp">   -332.48527676 </i>
    <i name="e_0_energy">   -332.48527676 </i>
   </energy>
  </scstep>
  <scstep>
   <time name="dav">    1.86    1.87</time>
   <time name="total">    1.94    1.95</time>
   <energy>
    <i name="e_fr_energy">   -332.48481767 </i>
    <i name="e_wo_entrp">   -332.48481767 </i>
    <i name="e_0_energy">   -332.48481767 </i>
   </energy>
  </scstep>
  <scstep>
   <time name="dav">    1.82    1.83</time>
   <time name="total">    1.90    1.91</time>
   <energy>
    <i name="e_fr_energy">   -332.48479236 </i>
    <i name="e_wo_entrp">   -332.48479236 </i>
    <i name="e_0_energy">   -332.48479236 </i>
   </energy>
  </scstep>
  <scstep>
   <time name="dav">    1.21    1.21</time>
   <time name="total">    1.23    1.23</time>
   <energy>
    <i name="alphaZ">    330.79910372 </i>
    <i name="ewald">  -4665.89390367 </i>
    <i name="hartreedc">  -5615.61910714 </i>
    <i name="XCdc">    620.36626082 </i>
    <i name="pawpsdc">  20703.14273888 </i>
    <i name="pawaedc"> -20549.09686172 </i>
    <i name="eentropy">     -0.00000000 </i>
    <i name="bandstr">  -1829.72442801 </i>
    <i name="atom">  10673.54141234 </i>
    <i name="e_fr_energy">   -332.48478478 </i>
    <i name="e_wo_entrp">   -332.48478478 </i>
    <i name="e_0_energy">   -332.48478478 </i>
   </energy>
  </scstep>
  <structure>
   <crystal>
    <varray name="basis" >
     <v>       7.77446280       0.00000000       0.07498236 </v>
     <v>       0.00000000       8.36272351       0.00000000 </v>
     <v>      -0.07545267       0.00000000       9.20606509 </v>
    </varray>
    <i name="volume">    598.58592074 </i>
    <varray name="rec_basis" >
     <v>       0.12861608       0.00000000       0.00105413 </v>
     <v>       0.00000000       0.11957827       0.00000000 </v>
     <v>      -0.00104756       0.00000000       0.10861546 </v>
    </varray>
   </crystal>
   <varray name="positions" >
    <v>       0.25028110       0.34727732       0.11393749 </v>
    <v>       0.74971890       0.84727732       0.88606251 </v>
    <v>       0.25024766       0.84706262       0.61404497 </v>
    <v>       0.74975234       0.34706262       0.38595503 </v>
    <v>       0.35643144       0.19182852       0.94067232 </v>
    <v>       0.27869012       0.13029737       0.82525786 </v>
    <v>       0.36926470       0.00611841       0.78384462 </v>
    <v>       0.50576875       0.99249758       0.87293998 </v>
    <v>       0.49645778       0.10750073       0.96911628 </v>
    <v>       0.64356856       0.69182852       0.05932768 </v>
    <v>       0.72130988       0.63029737       0.17474214 </v>
    <v>       0.63073530       0.50611841       0.21615538 </v>
    <v>       0.49423125       0.49249758       0.12706002 </v>
    <v>       0.50354222       0.60750073       0.03088372 </v>
    <v>       0.35621064       0.00285259       0.44081475 </v>
    <v>       0.49616190       0.08728444       0.46931139 </v>
    <v>       0.50556118       0.20219961       0.37308178 </v>
    <v>       0.36928435       0.18827526       0.28370997 </v>
    <v>       0.27862604       0.06425120       0.32524227 </v>
    <v>       0.64378936       0.50285259       0.55918525 </v>
    <v>       0.50383810       0.58728444       0.53068861 </v>
    <v>       0.49443882       0.70219961       0.62691822 </v>
    <v>       0.63071565       0.68827526       0.71629003 </v>
    <v>       0.72137396       0.56425120       0.67475773 </v>
    <v>       0.00602533       0.99185375       0.62598673 </v>
    <v>       0.99639980       0.10650718       0.52952252 </v>
    <v>       0.85570438       0.19008212       0.55759882 </v>
    <v>       0.77786987       0.12853196       0.67310272 </v>
    <v>       0.86926802       0.00523451       0.71515443 </v>
    <v>       0.99397467       0.49185375       0.37401327 </v>
    <v>       0.00360020       0.60650718       0.47047748 </v>
    <v>       0.14429562       0.69008212       0.44240118 </v>
    <v>       0.22213013       0.62853196       0.32689728 </v>
    <v>       0.13073198       0.50523451       0.28484557 </v>
    <v>       0.00621473       0.20237736       0.12606677 </v>
    <v>       0.86921326       0.18918562       0.21511565 </v>
    <v>       0.77804700       0.06573436       0.17323688 </v>
    <v>       0.85582010       0.00416390       0.05770030 </v>
    <v>       0.99657684       0.08768359       0.02969069 </v>
    <v>       0.99378527       0.70237736       0.87393323 </v>
    <v>       0.13078674       0.68918562       0.78488435 </v>
    <v>       0.22195300       0.56573436       0.82676312 </v>
    <v>       0.14417990       0.50416390       0.94229970 </v>
    <v>       0.00342316       0.58768359       0.97030931 </v>
   </varray>
  </structure>
  <varray name="forces" >
   <v>      -0.00032282       0.00296964       0.00222475 </v>
   <v>       0.00032282       0.00296964      -0.00222475 </v>
   <v>       0.00085974       0.00392470      -0.00105855 </v>
   <v>      -0.00085974       0.00392470       0.00105855 </v>
   <v>      -0.01423965       0.02538189       0.02284707 </v>
   <v>      -0.02807845      -0.00308737       0.01791858 </v>
   <v>       0.01152699      -0.00324720      -0.04886910 </v>
   <v>       0.00492356      -0.03844043       0.00902943 </v>
   <v>       0.01626795       0.01047874       0.00959076 </v>
   <v>       0.01423965       0.02538189      -0.02284707 </v>
   <v>       0.02807845      -0.00308737      -0.01791858 </v>
   <v>      -0.01152699      -0.00324720       0.04886910 </v>
   <v>      -0.00492356      -0.03844043      -0.00902943 </v>
   <v>      -0.01626795       0.01047874      -0.00959076 </v>
   <v>      -0.01342312      -0.01992386       0.02154096 </v>
   <v>       0.00888184      -0.01115769       0.01783916 </v>
   <v>       0.01001759       0.02474167      -0.00931044 </v>
   <v>       0.01000947       0.02411313      -0.03396786 </v>
   <v>      -0.02408533      -0.01578721       0.01535322 </v>
   <v>       0.01342312      -0.01992386      -0.02154096 </v>
   <v>      -0.00888184      -0.01115769      -0.01783916 </v>
   <v>      -0.01001759       0.02474167       0.00931044 </v>
   <v>      -0.01000947       0.02411313       0.03396786 </v>
   <v>       0.02408533      -0.01578721      -0.01535322 </v>
   <v>       0.02166795      -0.02045817       0.01874682 </v>
   <v>       0.02416946       0.00371114      -0.03295229 </v>
   <v>      -0.01887731       0.02993952      -0.02310755 </v>
   <v>      -0.01489087       0.01321229       0.01065452 </v>
   <v>      -0.01444005      -0.02660506       0.03137272 </v>
   <v>      -0.02166795      -0.02045817      -0.01874682 </v>
   <v>      -0.02416946       0.00371114       0.03295229 </v>
   <v>       0.01887731       0.02993952       0.02310755 </v>
   <v>       0.01489087       0.01321229      -0.01065452 </v>
   <v>       0.01444005      -0.02660506      -0.03137272 </v>
   <v>      -0.00167815       0.03110326       0.01816669 </v>
   <v>       0.01928396       0.01515830       0.03979278 </v>
   <v>      -0.04249029      -0.00380644      -0.00807562 </v>
   <v>      -0.00723587      -0.03540188      -0.00896439 </v>
   <v>       0.02757397      -0.00681899      -0.04110083 </v>
   <v>       0.00167815       0.03110326      -0.01816669 </v>
   <v>      -0.01928396       0.01515830      -0.03979278 </v>
   <v>       0.04249029      -0.00380644       0.00807562 </v>
   <v>       0.00723587      -0.03540188       0.00896439 </v>
   <v>      -0.02757397      -0.00681899       0.04110083 </v>
  </varray>
  <varray name="stress" >
   <v>       0.32501083       0.00000000      -0.21184157 </v>
   <v>       0.00000000       0.37046957       0.00000000 </v>
   <v>      -0.21184156       0.00000000       0.73939999 </v>
  </varray>
  <energy>
   <i name="e_fr_energy">   -332.48478478 </i>
   <i name="e_wo_entrp">   -332.48478478 </i>
   <i name="e_0_energy">     -0.00000000 </i>
  </energy>
  <time name="totalsc">   11.23   11.27</time>
 </calculation>
 <calculation>
  <scstep>
   <time name="dav">    1.72    1.73</time>
   <time name="total">    1.80    1.81</time>
   <energy>
    <i name="alphaZ">    331.00756726 </i>
    <i name="ewald">  -4671.00150734 </i>
    <i name="hartreedc">  -5613.89677750 </i>
    <i name="XCdc">    620.46748567 </i>
    <i name="pawpsdc">  20704.44220676 </i>
    <i name="pawaedc"> -20550.39576527 </i>
    <i name="eentropy">     -0.00000000 </i>
    <i name="bandstr">  -1826.65021398 </i>
    <i name="atom">  10673.54141234 </i>
    <i name="e_fr_energy">   -332.48559206 </i>
    <i name="e_wo_entrp">   -332.48559206 </i>
    <i name="e_0_energy">   -332.48559206 </i>
   </energy>
  </scstep>
  <scstep>
   <time name="dav">    1.86    1.87</time>
   <time name="total">    1.94    1.95</time>
   <energy>
    <i name="e_fr_energy">   -332.48513936 </i>
    <i name="e_wo_entrp">   -332.48513936 </i>
    <i name="e_0_energy">   -332.48513936 </i>
   </energy>
  </scstep>
  <scstep>
   <time name="dav">    1.86    1.87</time>
   <time name="total">    1.94    1.95</time>
   <energy>
    <i name="e_fr_energy">   -332.48497013 </i>
    <i name="e_wo_entrp">   -332.48497013 </i>
    <i name="e_0_energy">   -332.48497013 </i>
   </energy>
  </scstep>
  <scstep>
   <time name="dav">    1.37    1.38</time>
   <time name="total">    1.46    1.46</time>
   <energy>
    <i name="e_fr_energy">   -332.48496267 </i>
    <i name="e_wo_entrp">   -332.48496267 </i>
    <i name="e_0_energy">   -332.48496267 </i>
   </energy>
  </scstep>
  <scstep>
   <time name="dav">    1.21    1.21</time>
   <time name="total">    1.23    1.23</time>
   <energy>
    <i name="alphaZ">    331.00756726 </i>
    <i name="ewald">  -4671.00150734 </i>
    <i name="hartreedc">  -5611.64689277 </i>
    <i name="XCdc">    620.33749029 </i>
    <i name="pawpsdc">  20697.65162199 </i>
    <i name="pawaedc"> -20543.59881313 </i>
    <i name="eentropy">     -0.00000000 </i>
    <i name="bandstr">  -1828.77584112 </i>
    <i name="atom">  10673.54141234 </i>
    <i name="e_fr_energy">   -332.48496246 </i>
    <i name="e_wo_entrp">   -332.48496246 </i>
    <i name="e_0_energy">   -332.48496246 </i>
   </energy>
  </scstep>
  <structure>
   <crystal>
    <varray name="basis" >
     <v>       7.77544860       0.00000000       0.07615380 </v>
     <v>       0.00000000       8.36416023       0.00000000 </v>
     <v>      -0.07399271       0.00000000       9.19752302 </v>
    </varray>
    <i name="volume">    598.20894041 </i>
    <varray name="rec_basis" >
     <v>       0.12859981       0.00000000       0.00103457 </v>
     <v>       0.00000000       0.11955773       0.00000000 </v>
     <v>      -0.00106478       0.00000000       0.10871636 </v>
    </varray>
   </crystal>
   <varray name="positions" >
    <v>       0.25029518       0.34731209       0.11394282 </v>
    <v>       0.74970482       0.84731209       0.88605718 </v>
    <v>       0.25028276       0.84708347       0.61403471 </v>
    <v>       0.74971724       0.34708347       0.38596529 </v>
    <v>       0.35646649       0.19188616       0.94068592 </v>
    <v>       0.27868571       0.13026037       0.82523654 </v>
    <v>       0.36926801       0.00608988       0.78375272 </v>
    <v>       0.50573472       0.99248868       0.87293960 </v>
    <v>       0.49649507       0.10758476       0.96913838 </v>
    <v>       0.64353351       0.69188616       0.05931408 </v>
    <v>       0.72131429       0.63026037       0.17476346 </v>
    <v>       0.63073199       0.50608988       0.21624728 </v>
    <v>       0.49426528       0.49248868       0.12706040 </v>
    <v>       0.50350493       0.60758476       0.03086162 </v>
    <v>       0.35623337       0.00281287       0.44083855 </v>
    <v>       0.49616973       0.08721921       0.46935690 </v>
    <v>       0.50553511       0.20219704       0.37307113 </v>
    <v>       0.36927762       0.18832313       0.28363071 </v>
    <v>       0.27862852       0.06426826       0.32521328 </v>
    <v>       0.64376663       0.50281287       0.55916145 </v>
    <v>       0.50383027       0.58721921       0.53064310 </v>
    <v>       0.49446489       0.70219704       0.62692887 </v>
    <v>       0.63072238       0.68832313       0.71636929 </v>
    <v>       0.72137148       0.56426826       0.67478672 </v>
    <v>       0.00602024       0.99185107       0.62597979 </v>
    <v>       0.99646437       0.10654094       0.52941876 </v>
    <v>       0.85573361       0.19008637       0.55755541 </v>
    <v>       0.77783675       0.12847993       0.67315867 </v>
    <v>       0.86919758       0.00515717       0.71521305 </v>
    <v>       0.99397976       0.49185107       0.37402021 </v>
    <v>       0.00353563       0.60654094       0.47058124 </v>
    <v>       0.14426639       0.69008637       0.44244459 </v>
    <v>       0.22216325       0.62847993       0.32684133 </v>
    <v>       0.13080242       0.50515717       0.28478695 </v>
    <v>       0.00619163       0.20238131       0.12604879 </v>
    <v>       0.86918016       0.18922870       0.21519957 </v>
    <v>       0.77799969       0.06578934       0.17327528 </v>
    <v>       0.85586727       0.00412412       0.05767256 </v>
    <v>       0.99663911       0.08763513       0.02958739 </v>
    <v>       0.99380837       0.70238131       0.87395121 </v>
    <v>       0.13081984       0.68922870       0.78480043 </v>
    <v>       0.22200031       0.56578934       0.82672472 </v>
    <v>       0.14413273       0.50412412       0.94232744 </v>
    <v>       0.00336089       0.58763513       0.97041261 </v>
   </varray>
  </structure>
  <varray name="forces" >
   <v>      -0.00068489       0.00098264       0.00071524 </v>
   <v>       0.00068489       0.00098264      -0.00071524 </v>
   <v>      -0.00055097       0.00199663      -0.00140456 </v>
   <v>       0.00055097       0.00199663       0.00140456 </v>
   <v>      -0.01205867       0.01223885       0.01015724 </v>
   <v>      -0.02086969       0.00038060       0.01391233 </v>
   <v>       0.00917545       0.00641623      -0.02282089 </v>
   <v>       0.00809681      -0.02726937       0.00953055 </v>
   <v>       0.00886642       0.00005907      -0.00050958 </v>
   <v>       0.01205867       0.01223885      -0.01015724 </v>
   <v>       0.02086969       0.00038060      -0.01391233 </v>
   <v>      -0.00917545       0.00641623       0.02282089 </v>
   <v>      -0.00809681      -0.02726937      -0.00953055 </v>
   <v>      -0.00886642       0.00005907       0.00050958 </v>
   <v>      -0.01220641      -0.00961132       0.00863800 </v>
   <v>       0.00644689      -0.00045825       0.00558012 </v>
   <v>       0.00937167       0.01758433      -0.00463576 </v>
   <v>       0.00909061       0.00677782      -0.01113948 </v>
   <v>      -0.01782390      -0.01170780       0.01117204 </v>
   <v>       0.01220641      -0.00961132      -0.00863800 </v>
   <v>      -0.00644689      -0.00045825      -0.00558012 </v>
   <v>      -0.00937167       0.01758433       0.00463576 </v>
   <v>      -0.00909061       0.00677782       0.01113948 </v>
   <v>       0.01782390      -0.01170780      -0.01117204 </v>
   <v>       0.01860124      -0.01415136       0.01046526 </v>
   <v>       0.00733886      -0.00372022      -0.00742941 </v>
   <v>      -0.01614880       0.01867134      -0.01057407 </v>
   <v>      -0.00561775       0.01311250      -0.00018218 </v>
   <v>      -0.00475824      -0.01058286       0.01163616 </v>
   <v>      -0.01860124      -0.01415136      -0.01046526 </v>
   <v>      -0.00733886      -0.00372022       0.00742941 </v>
   <v>       0.01614880       0.01867134       0.01057407 </v>
   <v>       0.00561775       0.01311250       0.00018218 </v>
   <v>       0.00475824      -0.01058286      -0.01163616 </v>
   <v>       0.00101918       0.02184980       0.01195881 </v>
   <v>       0.01959104       0.00227480       0.01430164 </v>
   <v>      -0.02814762      -0.00774842      -0.01121877 </v>
   <v>      -0.00733697      -0.01808417       0.00164265 </v>
   <v>       0.01238572       0.00098915      -0.01641094 </v>
   <v>      -0.00101918       0.02184980      -0.01195881 </v>
   <v>      -0.01959104       0.00227480      -0.01430164 </v>
   <v>       0.02814762      -0.00774842       0.01121877 </v>
   <v>       0.00733697      -0.01808417      -0.00164265 </v>
   <v>      -0.01238572       0.00098915       0.01641094 </v>
  </varray>
  <varray name="stress" >
   <v>       0.20469431       0.00000000      -0.11882336 </v>
   <v>       0.00000000       0.10374682       0.00000000 </v>
   <v>      -0.11882337       0.00000000       0.57692306 </v>
  </varray>
  <energy>
   <i name="e_fr_energy">   -332.48496246 </i>
   <i name="e_wo_entrp">   -332.48496246 </i>
   <i name="e_0_energy">     -0.00000000 </i>
  </energy>
  <time name="totalsc">   10.79   10.83</time>
 </calculation>
 <calculation>
  <scstep>
   <time name="dav">    1.72    1.72</time>
   <time name="total">    1.80    1.81</time>
   <energy>
    <i name="alphaZ">    330.87892106 </i>
    <i name="ewald">  -4670.90982512 </i>
    <i name="hartreedc">  -5610.53920911 </i>
    <i name="XCdc">    620.22921049 </i>
    <i name="pawpsdc">  20696.91615388 </i>
    <i name="pawaedc"> -20542.86367686 </i>
    <i name="eentropy">     -0.00000000 </i>
    <i name="bandstr">  -1829.73825115 </i>
    <i name="atom">  10673.54141234 </i>
    <i name="e_fr_energy">   -332.48526448 </i>
    <i name="e_wo_entrp">   -332.48526448 </i>
    <i name="e_0_energy">   -332.48526448 </i>
   </energy>
  </scstep>
  <scstep>
   <time name="dav">    1.89    1.89</time>
   <time name="total">    1.97    1.98</time>
   <energy>
    <i name="e_fr_energy">   -332.48519620 </i>
    <i name="e_wo_entrp">   -332.48519620 </i>
    <i name="e_0_energy">   -332.48519620 </i>
   </energy>
  </scstep>
  <scstep>
   <time name="dav">    1.86    1.86</time>
   <time name="total">    1.94    1.95</time>
   <energy>
    <i name="e_fr_energy">   -332.48516287 </i>
    <i name="e_wo_entrp">   -332.48516287 </i>
    <i name="e_0_energy">   -332.48516287 </i>
   </energy>
  </scstep>
  <scstep>
   <time name="dav">    1.21    1.21</time>
   <time name="total">    1.29    1.29</time>
   <energy>
    <i name="e_fr_energy">   -332.48515911 </i>
    <i name="e_wo_entrp">   -332.48515911 </i>
    <i name="e_0_energy">   -332.48515911 </i>
   </energy>
  </scstep>
  <scstep>
   <time name="dav">    1.15    1.15</time>
   <time name="total">    1.16    1.17</time>
   <energy>
    <i name="alphaZ">    330.87892106 </i>
    <i name="ewald">  -4670.90982512 </i>
    <i name="hartreedc">  -5611.45676807 </i>
    <i name="XCdc">    620.28356550 </i>
    <i name="pawpsdc">  20686.07062154 </i>
    <i name="pawaedc"> -20532.01109651 </i>
    <i name="eentropy">     -0.00000000 </i>
    <i name="bandstr">  -1828.88198917 </i>
    <i name="atom">  10673.54141234 </i>
    <i name="e_fr_energy">   -332.48515844 </i>
    <i name="e_wo_entrp">   -332.48515844 </i>
    <i name="e_0_energy">   -332.48515844 </i>
   </energy>
  </scstep>
  <structure>
   <crystal>
    <varray name="basis" >
     <v>       7.77520951       0.00000000       0.07552671 </v>
     <v>       0.00000000       8.36363338       0.00000000 </v>
     <v>      -0.07477567       0.00000000       9.20196027 </v>
    </varray>
    <i name="volume">    598.44152492 </i>
    <varray name="rec_basis" >
     <v>       0.12860375       0.00000000       0.00104504 </v>
     <v>       0.00000000       0.11956526       0.00000000 </v>
     <v>      -0.00105554       0.00000000       0.10866392 </v>
    </varray>
   </crystal>
   <varray name="positions" >
    <v>       0.25028769       0.34729845       0.11394161 </v>
    <v>       0.74971231       0.84729845       0.88605839 </v>
    <v>       0.25026620       0.84707775       0.61403702 </v>
    <v>       0.74973380       0.34707775       0.38596298 </v>
    <v>       0.35642852       0.19188207       0.94069622 </v>
    <v>       0.27864868       0.13027737       0.82526837 </v>
    <v>       0.36928342       0.00611368       0.78375698 </v>
    <v>       0.50576509       0.99244501       0.87295477 </v>
    <v>       0.49649524       0.10754776       0.96912767 </v>
    <v>       0.64357148       0.69188207       0.05930378 </v>
    <v>       0.72135132       0.63027737       0.17473163 </v>
    <v>       0.63071658       0.50611368       0.21624302 </v>
    <v>       0.49423491       0.49244501       0.12704523 </v>
    <v>       0.50350476       0.60754776       0.03087233 </v>
    <v>       0.35620055       0.00281364       0.44084193 </v>
    <v>       0.49617846       0.08724722       0.46934553 </v>
    <v>       0.50556415       0.20222887       0.37306834 </v>
    <v>       0.36929749       0.18831382       0.28364793 </v>
    <v>       0.27859413       0.06424029       0.32524411 </v>
    <v>       0.64379945       0.50281364       0.55915807 </v>
    <v>       0.50382154       0.58724722       0.53065447 </v>
    <v>       0.49443585       0.70222887       0.62693166 </v>
    <v>       0.63070251       0.68831382       0.71635207 </v>
    <v>       0.72140587       0.56424029       0.67475589 </v>
    <v>       0.00605757       0.99182755       0.62599918 </v>
    <v>       0.99644952       0.10651954       0.52945273 </v>
    <v>       0.85569022       0.19011709       0.55755807 </v>
    <v>       0.77784083       0.12852579       0.67313373 </v>
    <v>       0.86921993       0.00517285       0.71520567 </v>
    <v>       0.99394243       0.49182755       0.37400082 </v>
    <v>       0.00355048       0.60651954       0.47054727 </v>
    <v>       0.14430978       0.69011709       0.44244193 </v>
    <v>       0.22215917       0.62852579       0.32686627 </v>
    <v>       0.13078007       0.50517285       0.28479433 </v>
    <v>       0.00620392       0.20241770       0.12607570 </v>
    <v>       0.86923178       0.18921365       0.21518487 </v>
    <v>       0.77796757       0.06575154       0.17324093 </v>
    <v>       0.85583269       0.00411012       0.05768755 </v>
    <v>       0.99663460       0.08765826       0.02960682 </v>
    <v>       0.99379608       0.70241770       0.87392430 </v>
    <v>       0.13076822       0.68921365       0.78481513 </v>
    <v>       0.22203243       0.56575154       0.82675907 </v>
    <v>       0.14416731       0.50411012       0.94231245 </v>
    <v>       0.00336540       0.58765826       0.97039318 </v>
   </varray>
  </structure>
  <varray name="forces" >
   <v>      -0.00054903       0.00145594       0.00233720 </v>
   <v>       0.00054903       0.00145594      -0.00233720 </v>
   <v>       0.00031367       0.00289643       0.00043731 </v>
   <v>      -0.00031367       0.00289643      -0.00043731 </v>
   <v>      -0.00241473      -0.00086300       0.00790740 </v>
   <v>      -0.00749244      -0.00849820       0.01290072 </v>
   <v>       0.00596798       0.00894036      -0.01656194 </v>
   <v>      -0.00803022      -0.00844692       0.00647483 </v>
   <v>       0.00349397       0.00078572      -0.00112429 </v>
   <v>       0.00241473      -0.00086300      -0.00790740 </v>
   <v>       0.00749244      -0.00849820      -0.01290072 </v>
   <v>      -0.00596798       0.00894036       0.01656194 </v>
   <v>       0.00803022      -0.00844692      -0.00647483 </v>
   <v>      -0.00349397       0.00078572       0.00112429 </v>
   <v>      -0.00251065       0.00180806       0.00776448 </v>
   <v>       0.00040536      -0.00082360       0.00195797 </v>
   <v>      -0.00328123       0.00101704      -0.00239264 </v>
   <v>       0.00262507      -0.00060722      -0.00808512 </v>
   <v>      -0.00404213       0.00078433       0.01047233 </v>
   <v>       0.00251065       0.00180806      -0.00776448 </v>
   <v>      -0.00040536      -0.00082360      -0.00195797 </v>
   <v>       0.00328123       0.00101704       0.00239264 </v>
   <v>      -0.00262507      -0.00060722       0.00808512 </v>
   <v>       0.00404213       0.00078433      -0.01047233 </v>
   <v>       0.00079098       0.00311629       0.00704322 </v>
   <v>       0.00342460      -0.00280610      -0.00520035 </v>
   <v>      -0.00138953       0.00028119      -0.00485463 </v>
   <v>       0.00092538       0.00330999       0.00197610 </v>
   <v>      -0.00568382      -0.00182782       0.00564321 </v>
   <v>      -0.00079098       0.00311629      -0.00704322 </v>
   <v>      -0.00342460      -0.00280610       0.00520035 </v>
   <v>       0.00138953       0.00028119       0.00485463 </v>
   <v>      -0.00092538       0.00330999      -0.00197610 </v>
   <v>       0.00568382      -0.00182782      -0.00564321 </v>
   <v>      -0.00802219       0.00326577       0.00407617 </v>
   <v>       0.00731040      -0.00498454       0.01275811 </v>
   <v>      -0.00861507       0.00508514      -0.00984868 </v>
   <v>       0.00289594      -0.00598564       0.00014650 </v>
   <v>       0.00241252       0.00209679      -0.00659884 </v>
   <v>       0.00802219       0.00326577      -0.00407617 </v>
   <v>      -0.00731040      -0.00498454      -0.01275811 </v>
   <v>       0.00861507       0.00508514       0.00984868 </v>
   <v>      -0.00289594      -0.00598564      -0.00014650 </v>
   <v>      -0.00241252       0.00209679       0.00659884 </v>
  </varray>
  <varray name="stress" >
   <v>      -0.51198315       0.00000000      -0.10526449 </v>
   <v>       0.00000000      -0.74814436       0.00000000 </v>
   <v>      -0.10526451       0.00000000       0.10566872 </v>
  </varray>
  <energy>
   <i name="e_fr_energy">   -332.48515844 </i>
   <i name="e_wo_entrp">   -332.48515844 </i>
   <i name="e_0_energy">     -0.00000000 </i>
  </energy>
  <time name="totalsc">   10.57   10.62</time>
 </calculation>
 <calculation>
  <scstep>
   <time name="dav">    1.72    1.72</time>
   <time name="total">    1.80    1.80</time>
   <energy>
    <i name="alphaZ">    330.82896265 </i>
    <i name="ewald">  -4670.87421626 </i>
    <i name="hartreedc">  -5610.99747509 </i>
    <i name="XCdc">    620.23982017 </i>
    <i name="pawpsdc">  20686.01049590 </i>
    <i name="pawaedc"> -20531.95049065 </i>
    <i name="eentropy">     -0.00000000 </i>
    <i name="bandstr">  -1829.28370522 </i>
    <i name="atom">  10673.54141234 </i>
    <i name="e_fr_energy">   -332.48519617 </i>
    <i name="e_wo_entrp">   -332.48519617 </i>
    <i name="e_0_energy">   -332.48519617 </i>
   </energy>
  </scstep>
  <scstep>
   <time name="dav">    1.86    1.86</time>
   <time name="total">    1.94    1.95</time>
   <energy>
    <i name="e_fr_energy">   -332.48518539 </i>
    <i name="e_wo_entrp">   -332.48518539 </i>
    <i name="e_0_energy">   -332.48518539 </i>
   </energy>
  </scstep>
  <scstep>
   <time name="dav">    1.20    1.20</time>
   <time name="total">    1.28    1.28</time>
   <energy>
    <i name="e_fr_energy">   -332.48518025 </i>
    <i name="e_wo_entrp">   -332.48518025 </i>
    <i name="e_0_energy">   -332.48518025 </i>
   </energy>
  </scstep>
  <scstep>
   <time name="dav">    1.13    1.13</time>
   <time name="total">    1.21    1.22</time>
   <energy>
    <i name="e_fr_energy">   -332.48517983 </i>
    <i name="e_wo_entrp">   -332.48517983 </i>
    <i name="e_0_energy">   -332.48517983 </i>
   </energy>
  </scstep>
  <scstep>
   <time name="dav">    1.12    1.12</time>
   <time name="total">    1.14    1.15</time>
   <energy>
    <i name="alphaZ">    330.82896265 </i>
    <i name="ewald">  -4670.87421626 </i>
    <i name="hartreedc">  -5611.36120752 </i>
    <i name="XCdc">    620.26127102 </i>
    <i name="pawpsdc">  20682.05902189 </i>
    <i name="pawaedc"> -20527.99632374 </i>
    <i name="eentropy">     -0.00000000 </i>
    <i name="bandstr">  -1828.94409999 </i>
    <i name="atom">  10673.54141234 </i>
    <i name="e_fr_energy">   -332.48517962 </i>
    <i name="e_wo_entrp">   -332.48517962 </i>
    <i name="e_0_energy">   -332.48517962 </i>
   </energy>
  </scstep>
  <structure>
   <crystal>
    <varray name="basis" >
     <v>       7.77511659       0.00000000       0.07528302 </v>
     <v>       0.00000000       8.36342864       0.00000000 </v>
     <v>      -0.07507994       0.00000000       9.20368467 </v>
    </varray>
    <i name="volume">    598.53189544 </i>
    <varray name="rec_basis" >
     <v>       0.12860528       0.00000000       0.00104911 </v>
     <v>       0.00000000       0.11956819       0.00000000 </v>
     <v>      -0.00105195       0.00000000       0.10864355 </v>
    </varray>
   </crystal>
   <varray name="positions" >
    <v>       0.25028478       0.34729315       0.11394114 </v>
    <v>       0.74971522       0.84729315       0.88605886 </v>
    <v>       0.25025977       0.84707553       0.61403792 </v>
    <v>       0.74974023       0.34707553       0.38596208 </v>
    <v>       0.35641377       0.19188048       0.94070021 </v>
    <v>       0.27863429       0.13028398       0.82528073 </v>
    <v>       0.36928941       0.00612293       0.78375864 </v>
    <v>       0.50577690       0.99242804       0.87296066 </v>
    <v>       0.49649531       0.10753338       0.96912350 </v>
    <v>       0.64358623       0.69188048       0.05929979 </v>
    <v>       0.72136571       0.63028398       0.17471927 </v>
    <v>       0.63071059       0.50612293       0.21624136 </v>
    <v>       0.49422310       0.49242804       0.12703934 </v>
    <v>       0.50350469       0.60753338       0.03087650 </v>
    <v>       0.35618779       0.00281393       0.44084324 </v>
    <v>       0.49618186       0.08725810       0.46934112 </v>
    <v>       0.50557543       0.20224124       0.37306725 </v>
    <v>       0.36930521       0.18831020       0.28365461 </v>
    <v>       0.27858076       0.06422942       0.32525608 </v>
    <v>       0.64381221       0.50281393       0.55915676 </v>
    <v>       0.50381814       0.58725810       0.53065888 </v>
    <v>       0.49442457       0.70224124       0.62693275 </v>
    <v>       0.63069479       0.68831020       0.71634539 </v>
    <v>       0.72141924       0.56422942       0.67474392 </v>
    <v>       0.00607208       0.99181841       0.62600671 </v>
    <v>       0.99644375       0.10651122       0.52946592 </v>
    <v>       0.85567336       0.19012902       0.55755910 </v>
    <v>       0.77784241       0.12854362       0.67312404 </v>
    <v>       0.86922862       0.00517894       0.71520281 </v>
    <v>       0.99392792       0.49181841       0.37399329 </v>
    <v>       0.00355625       0.60651122       0.47053408 </v>
    <v>       0.14432664       0.69012902       0.44244090 </v>
    <v>       0.22215759       0.62854362       0.32687596 </v>
    <v>       0.13077138       0.50517894       0.28479719 </v>
    <v>       0.00620870       0.20243185       0.12608616 </v>
    <v>       0.86925185       0.18920780       0.21517915 </v>
    <v>       0.77795509       0.06573684       0.17322759 </v>
    <v>       0.85581925       0.00410468       0.05769337 </v>
    <v>       0.99663286       0.08766724       0.02961436 </v>
    <v>       0.99379130       0.70243185       0.87391384 </v>
    <v>       0.13074815       0.68920780       0.78482085 </v>
    <v>       0.22204491       0.56573684       0.82677241 </v>
    <v>       0.14418075       0.50410468       0.94230663 </v>
    <v>       0.00336714       0.58766724       0.97038564 </v>
   </varray>
  </structure>
  <varray name="forces" >
   <v>      -0.00052695       0.00163529       0.00289267 </v>
   <v>       0.00052695       0.00163529      -0.00289267 </v>
   <v>       0.00061897       0.00321107       0.00105532 </v>
   <v>      -0.00061897       0.00321107      -0.00105532 </v>
   <v>       0.00124504      -0.00616151       0.00677371 </v>
   <v>      -0.00235132      -0.01180841       0.01266817 </v>
   <v>       0.00488594       0.01014908      -0.01378551 </v>
   <v>      -0.01417801      -0.00116549       0.00535995 </v>
   <v>       0.00131074       0.00077035      -0.00165589 </v>
   <v>      -0.00124504      -0.00616151      -0.00677371 </v>
   <v>       0.00235132      -0.01180841      -0.01266817 </v>
   <v>      -0.00488594       0.01014908       0.01378551 </v>
   <v>       0.01417801      -0.00116549      -0.00535995 </v>
   <v>      -0.00131074       0.00077035       0.00165589 </v>
   <v>       0.00119733       0.00643166       0.00714115 </v>
   <v>      -0.00203713      -0.00068246       0.00017288 </v>
   <v>      -0.00805493      -0.00539330      -0.00147828 </v>
   <v>       0.00027055      -0.00370810      -0.00659582 </v>
   <v>       0.00126015       0.00551574       0.01032172 </v>
   <v>      -0.00119733       0.00643166      -0.00714115 </v>
   <v>       0.00203713      -0.00068246      -0.00017288 </v>
   <v>       0.00805493      -0.00539330       0.00147828 </v>
   <v>      -0.00027055      -0.00370810       0.00659582 </v>
   <v>      -0.00126015       0.00551574      -0.01032172 </v>
   <v>      -0.00590841       0.00958254       0.00577246 </v>
   <v>       0.00169403      -0.00267140      -0.00394086 </v>
   <v>       0.00414042      -0.00680902      -0.00248055 </v>
   <v>       0.00344158      -0.00022833       0.00254646 </v>
   <v>      -0.00572777       0.00175508       0.00301122 </v>
   <v>       0.00590841       0.00958254      -0.00577246 </v>
   <v>      -0.00169403      -0.00267140       0.00394086 </v>
   <v>      -0.00414042      -0.00680902       0.00248055 </v>
   <v>      -0.00344158      -0.00022833      -0.00254646 </v>
   <v>       0.00572777       0.00175508      -0.00301122 </v>
   <v>      -0.01128705      -0.00371705       0.00106688 </v>
   <v>       0.00282651      -0.00797826       0.01187751 </v>
   <v>      -0.00102527       0.00983620      -0.00954958 </v>
   <v>       0.00668022      -0.00133391      -0.00027937 </v>
   <v>      -0.00165590       0.00277025      -0.00233772 </v>
   <v>       0.01128705      -0.00371705      -0.00106688 </v>
   <v>      -0.00282651      -0.00797826      -0.01187751 </v>
   <v>       0.00102527       0.00983620       0.00954958 </v>
   <v>      -0.00668022      -0.00133391       0.00027937 </v>
   <v>       0.00165590       0.00277025       0.00233772 </v>
  </varray>
  <varray name="stress" >
   <v>      -0.75700907       0.00000000      -0.09530752 </v>
   <v>       0.00000000      -1.04051532       0.00000000 </v>
   <v>      -0.09530751       0.00000000      -0.05481011 </v>
  </varray>
  <energy>
   <i name="e_fr_energy">   -332.48517962 </i>
   <i name="e_wo_entrp">   -332.48517962 </i>
   <i name="e_0_energy">     -0.00000000 </i>
  </energy>
  <time name="totalsc">    9.79    9.83</time>
 </calculation>
 <calculation>
  <scstep>
   <time name="dav">    1.71    1.71</time>
   <time name="total">    1.79    1.79</time>
   <energy>
    <i name="alphaZ">    330.84146697 </i>
    <i name="ewald">  -4670.69144291 </i>
    <i name="hartreedc">  -5611.58468684 </i>
    <i name="XCdc">    620.27374814 </i>
    <i name="pawpsdc">  20681.99481381 </i>
    <i name="pawaedc"> -20527.93185975 </i>
    <i name="eentropy">     -0.00000000 </i>
    <i name="bandstr">  -1828.92878540 </i>
    <i name="atom">  10673.54141234 </i>
    <i name="e_fr_energy">   -332.48533365 </i>
    <i name="e_wo_entrp">   -332.48533365 </i>
    <i name="e_0_energy">   -332.48533365 </i>
   </energy>
  </scstep>
  <scstep>
   <time name="dav">    1.86    1.87</time>
   <time name="total">    1.95    1.95</time>
   <energy>
    <i name="e_fr_energy">   -332.48532081 </i>
    <i name="e_wo_entrp">   -332.48532081 </i>
    <i name="e_0_energy">   -332.48532081 </i>
   </energy>
  </scstep>
  <scstep>
   <time name="dav">    1.27    1.27</time>
   <time name="total">    1.34    1.35</time>
   <energy>
    <i name="e_fr_energy">   -332.48530823 </i>
    <i name="e_wo_entrp">   -332.48530823 </i>
    <i name="e_0_energy">   -332.48530823 </i>
   </energy>
  </scstep>
  <scstep>
   <time name="dav">    1.19    1.19</time>
   <time name="total">    1.27    1.27</time>
   <energy>
    <i name="e_fr_energy">   -332.48530770 </i>
    <i name="e_wo_entrp">   -332.48530770 </i>
    <i name="e_0_energy">   -332.48530770 </i>
   </energy>
  </scstep>
  <scstep>
   <time name="dav">    1.12    1.13</time>
   <time name="total">    1.14    1.15</time>
   <energy>
    <i name="alphaZ">    330.84146697 </i>
    <i name="ewald">  -4670.69144291 </i>
    <i name="hartreedc">  -5611.53353525 </i>
    <i name="XCdc">    620.27115288 </i>
    <i name="pawpsdc">  20684.01004764 </i>
    <i name="pawaedc"> -20529.94851618 </i>
    <i name="eentropy">     -0.00000000 </i>
    <i name="bandstr">  -1828.97589320 </i>
    <i name="atom">  10673.54141234 </i>
    <i name="e_fr_energy">   -332.48530772 </i>
    <i name="e_wo_entrp">   -332.48530772 </i>
    <i name="e_0_energy">   -332.48530772 </i>
   </energy>
  </scstep>
  <structure>
   <crystal>
    <varray name="basis" >
     <v>       7.77420046       0.00000000       0.07484507 </v>
     <v>       0.00000000       8.36198202       0.00000000 </v>
     <v>      -0.07561205       0.00000000       9.20601293 </v>
    </varray>
    <i name="volume">    598.50927363 </i>
    <varray name="rec_basis" >
     <v>       0.12862042       0.00000000       0.00105640 </v>
     <v>       0.00000000       0.11958887       0.00000000 </v>
     <v>      -0.00104569       0.00000000       0.10861607 </v>
    </varray>
   </crystal>
   <varray name="positions" >
    <v>       0.25027972       0.34728887       0.11394544 </v>
    <v>       0.74972028       0.84728887       0.88605456 </v>
    <v>       0.25025211       0.84707848       0.61404097 </v>
    <v>       0.74974789       0.34707848       0.38595903 </v>
    <v>       0.35639593       0.19186668       0.94071732 </v>
    <v>       0.27860978       0.13027093       0.82531958 </v>
    <v>       0.36930738       0.00615485       0.78373729 </v>
    <v>       0.50576468       0.99240230       0.87297823 </v>
    <v>       0.49649802       0.10751487       0.96911488 </v>
    <v>       0.64360407       0.69186668       0.05928268 </v>
    <v>       0.72139022       0.63027093       0.17468042 </v>
    <v>       0.63069262       0.50615485       0.21626271 </v>
    <v>       0.49423532       0.49240230       0.12702177 </v>
    <v>       0.50350198       0.60751487       0.03088512 </v>
    <v>       0.35617263       0.00282644       0.44085725 </v>
    <v>       0.49618245       0.08727192       0.46933533 </v>
    <v>       0.50557477       0.20224826       0.37306335 </v>
    <v>       0.36931636       0.18829821       0.28365262 </v>
    <v>       0.27856493       0.06422471       0.32529031 </v>
    <v>       0.64382737       0.50282644       0.55914275 </v>
    <v>       0.50381755       0.58727192       0.53066467 </v>
    <v>       0.49442523       0.70224826       0.62693665 </v>
    <v>       0.63068364       0.68829821       0.71634738 </v>
    <v>       0.72143507       0.56422471       0.67470969 </v>
    <v>       0.00608035       0.99182376       0.62602713 </v>
    <v>       0.99643910       0.10649465       0.52947746 </v>
    <v>       0.85565829       0.19013278       0.55755622 </v>
    <v>       0.77785162       0.12856793       0.67311490 </v>
    <v>       0.86922914       0.00519070       0.71520408 </v>
    <v>       0.99391965       0.49182376       0.37397287 </v>
    <v>       0.00356090       0.60649465       0.47052254 </v>
    <v>       0.14434171       0.69013278       0.44244378 </v>
    <v>       0.22214838       0.62856793       0.32688510 </v>
    <v>       0.13077086       0.50519070       0.28479592 </v>
    <v>       0.00619251       0.20244448       0.12610267 </v>
    <v>       0.86928560       0.18918467       0.21519149 </v>
    <v>       0.77793553       0.06573496       0.17319277 </v>
    <v>       0.85581411       0.00409462       0.05770086 </v>
    <v>       0.99662704       0.08768493       0.02962086 </v>
    <v>       0.99380749       0.70244448       0.87389733 </v>
    <v>       0.13071440       0.68918467       0.78480851 </v>
    <v>       0.22206447       0.56573496       0.82680723 </v>
    <v>       0.14418589       0.50409462       0.94229914 </v>
    <v>       0.00337296       0.58768493       0.97037914 </v>
   </varray>
  </structure>
  <varray name="forces" >
   <v>      -0.00053962       0.00155432       0.00270804 </v>
   <v>       0.00053962       0.00155432      -0.00270804 </v>
   <v>       0.00079226       0.00315320       0.00099966 </v>
   <v>      -0.00079226       0.00315320      -0.00099966 </v>
   <v>      -0.00098762      -0.00561537       0.00781114 </v>
   <v>      -0.00548632      -0.00467990       0.00602704 </v>
   <v>       0.00226219       0.00478497      -0.00633310 </v>
   <v>      -0.00652425      -0.00079609      -0.00171805 </v>
   <v>       0.00142738      -0.00122783       0.00342258 </v>
   <v>       0.00098762      -0.00561537      -0.00781114 </v>
   <v>       0.00548632      -0.00467990      -0.00602704 </v>
   <v>      -0.00226219       0.00478497       0.00633310 </v>
   <v>       0.00652425      -0.00079609       0.00171805 </v>
   <v>      -0.00142738      -0.00122783      -0.00342258 </v>
   <v>      -0.00111419       0.00383489       0.00879932 </v>
   <v>       0.00091436       0.00137900       0.00278402 </v>
   <v>      -0.00149063      -0.00271538      -0.00261540 </v>
   <v>      -0.00240959      -0.00483823      -0.00373930 </v>
   <v>      -0.00334579       0.00398368       0.00418394 </v>
   <v>       0.00111419       0.00383489      -0.00879932 </v>
   <v>      -0.00091436       0.00137900      -0.00278402 </v>
   <v>       0.00149063      -0.00271538       0.00261540 </v>
   <v>       0.00240959      -0.00483823       0.00373930 </v>
   <v>       0.00334579       0.00398368      -0.00418394 </v>
   <v>      -0.00322750       0.00376128       0.00557496 </v>
   <v>      -0.00029079      -0.00241263      -0.00118287 </v>
   <v>       0.00390156      -0.00548465      -0.00272349 </v>
   <v>      -0.00201573       0.00291517       0.00143768 </v>
   <v>      -0.00103266       0.00322535       0.00162804 </v>
   <v>       0.00322750       0.00376128      -0.00557496 </v>
   <v>       0.00029079      -0.00241263       0.00118287 </v>
   <v>      -0.00390156      -0.00548465       0.00272349 </v>
   <v>       0.00201573       0.00291517      -0.00143768 </v>
   <v>       0.00103266       0.00322535      -0.00162804 </v>
   <v>      -0.00112687      -0.00154495      -0.00017062 </v>
   <v>      -0.00328700      -0.00656856       0.00803184 </v>
   <v>       0.00062345       0.00404282      -0.00458708 </v>
   <v>       0.00318957      -0.00033164      -0.00467526 </v>
   <v>      -0.00404292       0.00358056       0.00215235 </v>
   <v>       0.00112687      -0.00154495       0.00017062 </v>
   <v>       0.00328700      -0.00656856      -0.00803184 </v>
   <v>      -0.00062345       0.00404282       0.00458708 </v>
   <v>      -0.00318957      -0.00033164       0.00467526 </v>
   <v>       0.00404292       0.00358056      -0.00215235 </v>
  </varray>
  <varray name="stress" >
   <v>      -0.49349885       0.00000000      -0.00343671 </v>
   <v>       0.00000000      -0.87526891       0.00000000 </v>
   <v>      -0.00343678       0.00000000      -0.11042234 </v>
  </varray>
  <energy>
   <i name="e_fr_energy">   -332.48530772 </i>
   <i name="e_wo_entrp">   -332.48530772 </i>
   <i name="e_0_energy">     -0.00000000 </i>
  </energy>
  <time name="totalsc">    9.91    9.95</time>
 </calculation>
 <calculation>
  <scstep>
   <time name="dav">    1.69    1.70</time>
   <time name="total">    1.77    1.78</time>
   <energy>
    <i name="alphaZ">    330.86398042 </i>
    <i name="ewald">  -4670.36699645 </i>
    <i name="hartreedc">  -5611.94910612 </i>
    <i name="XCdc">    620.29446457 </i>
    <i name="pawpsdc">  20684.04696827 </i>
    <i name="pawaedc"> -20529.98546124 </i>
    <i name="eentropy">     -0.00000000 </i>
    <i name="bandstr">  -1828.93074796 </i>
    <i name="atom">  10673.54141234 </i>
    <i name="e_fr_energy">   -332.48548616 </i>
    <i name="e_wo_entrp">   -332.48548616 </i>
    <i name="e_0_energy">   -332.48548616 </i>
   </energy>
  </scstep>
  <scstep>
   <time name="dav">    1.86    1.87</time>
   <time name="total">    1.94    1.95</time>
   <energy>
    <i name="e_fr_energy">   -332.48544490 </i>
    <i name="e_wo_entrp">   -332.48544490 </i>
    <i name="e_0_energy">   -332.48544490 </i>
   </energy>
  </scstep>
  <scstep>
   <time name="dav">    1.83    1.83</time>
   <time name="total">    1.91    1.92</time>
   <energy>
    <i name="e_fr_energy">   -332.48540559 </i>
    <i name="e_wo_entrp">   -332.48540559 </i>
    <i name="e_0_energy">   -332.48540559 </i>
   </energy>
  </scstep>
  <scstep>
   <time name="dav">    1.20    1.20</time>
   <time name="total">    1.28    1.28</time>
   <energy>
    <i name="e_fr_energy">   -332.48540303 </i>
    <i name="e_wo_entrp">   -332.48540303 </i>
    <i name="e_0_energy">   -332.48540303 </i>
   </energy>
  </scstep>
  <scstep>
   <time name="dav">    1.22    1.22</time>
   <time name="total">    1.24    1.24</time>
   <energy>
    <i name="alphaZ">    330.86398042 </i>
    <i name="ewald">  -4670.36699645 </i>
    <i name="hartreedc">  -5611.85596174 </i>
    <i name="XCdc">    620.28976791 </i>
    <i name="pawpsdc">  20687.56990319 </i>
    <i name="pawaedc"> -20533.51087715 </i>
    <i name="eentropy">     -0.00000000 </i>
    <i name="bandstr">  -1829.01663151 </i>
    <i name="atom">  10673.54141234 </i>
    <i name="e_fr_energy">   -332.48540298 </i>
    <i name="e_wo_entrp">   -332.48540298 </i>
    <i name="e_0_energy">   -332.48540298 </i>
   </energy>
  </scstep>
  <structure>
   <crystal>
    <varray name="basis" >
     <v>       7.77255803       0.00000000       0.07405993 </v>
     <v>       0.00000000       8.35938853       0.00000000 </v>
     <v>      -0.07656601       0.00000000       9.21018699 </v>
    </varray>
    <i name="volume">    598.46854840 </i>
    <varray name="rec_basis" >
     <v>       0.12864758       0.00000000       0.00106947 </v>
     <v>       0.00000000       0.11962597       0.00000000 </v>
     <v>      -0.00103447       0.00000000       0.10856683 </v>
    </varray>
   </crystal>
   <varray name="positions" >
    <v>       0.25027065       0.34728120       0.11395315 </v>
    <v>       0.74972935       0.84728120       0.88604685 </v>
    <v>       0.25023837       0.84708378       0.61404642 </v>
    <v>       0.74976163       0.34708378       0.38595358 </v>
    <v>       0.35636394       0.19184194       0.94074798 </v>
    <v>       0.27856582       0.13024754       0.82538921 </v>
    <v>       0.36933961       0.00621210       0.78369903 </v>
    <v>       0.50574278       0.99235614       0.87300972 </v>
    <v>       0.49650289       0.10748169       0.96909941 </v>
    <v>       0.64363606       0.69184194       0.05925202 </v>
    <v>       0.72143418       0.63024754       0.17461079 </v>
    <v>       0.63066039       0.50621210       0.21630097 </v>
    <v>       0.49425722       0.49235614       0.12699028 </v>
    <v>       0.50349711       0.60748169       0.03090059 </v>
    <v>       0.35614545       0.00284888       0.44088235 </v>
    <v>       0.49618350       0.08729670       0.46932494 </v>
    <v>       0.50557357       0.20226085       0.37305636 </v>
    <v>       0.36933636       0.18827669       0.28364903 </v>
    <v>       0.27853656       0.06421627       0.32535167 </v>
    <v>       0.64385455       0.50284888       0.55911765 </v>
    <v>       0.50381650       0.58729670       0.53067506 </v>
    <v>       0.49442643       0.70226085       0.62694364 </v>
    <v>       0.63066364       0.68827669       0.71635097 </v>
    <v>       0.72146344       0.56421627       0.67464833 </v>
    <v>       0.00609519       0.99183334       0.62606372 </v>
    <v>       0.99643077       0.10646494       0.52949815 </v>
    <v>       0.85563128       0.19013951       0.55755106 </v>
    <v>       0.77786812       0.12861151       0.67309851 </v>
    <v>       0.86923006       0.00521178       0.71520635 </v>
    <v>       0.99390481       0.49183334       0.37393628 </v>
    <v>       0.00356923       0.60646494       0.47050185 </v>
    <v>       0.14436872       0.69013951       0.44244894 </v>
    <v>       0.22213188       0.62861151       0.32690149 </v>
    <v>       0.13076994       0.50521178       0.28479365 </v>
    <v>       0.00616348       0.20246714       0.12613227 </v>
    <v>       0.86934613       0.18914320       0.21521360 </v>
    <v>       0.77790045       0.06573158       0.17313036 </v>
    <v>       0.85580489       0.00407658       0.05771428 </v>
    <v>       0.99661662       0.08771664       0.02963251 </v>
    <v>       0.99383652       0.70246714       0.87386773 </v>
    <v>       0.13065387       0.68914320       0.78478640 </v>
    <v>       0.22209955       0.56573158       0.82686964 </v>
    <v>       0.14419511       0.50407658       0.94228572 </v>
    <v>       0.00338338       0.58771664       0.97036749 </v>
   </varray>
  </structure>
  <varray name="forces" >
   <v>      -0.00059253       0.00140419       0.00240300 </v>
   <v>       0.00059253       0.00140419      -0.00240300 </v>
   <v>       0.00106358       0.00304652       0.00093079 </v>
   <v>      -0.00106358       0.00304652      -0.00093079 </v>
   <v>      -0.00483010      -0.00464227       0.00990034 </v>
   <v>      -0.01124735       0.00796404      -0.00577144 </v>
   <v>      -0.00272234      -0.00471226       0.00684323 </v>
   <v>       0.00704665      -0.00018310      -0.01448608 </v>
   <v>       0.00172624      -0.00486794       0.01244832 </v>
   <v>       0.00483010      -0.00464227      -0.00990034 </v>
   <v>       0.01124735       0.00796404       0.00577144 </v>
   <v>       0.00272234      -0.00471226      -0.00684323 </v>
   <v>      -0.00704665      -0.00018310       0.01448608 </v>
   <v>      -0.00172624      -0.00486794      -0.01244832 </v>
   <v>      -0.00507368      -0.00071279       0.01193859 </v>
   <v>       0.00624471       0.00506465       0.00743582 </v>
   <v>       0.01011656       0.00208134      -0.00485269 </v>
   <v>      -0.00743486      -0.00686179       0.00124338 </v>
   <v>      -0.01178531       0.00123593      -0.00669568 </v>
   <v>       0.00507368      -0.00071279      -0.01193859 </v>
   <v>      -0.00624471       0.00506465      -0.00743582 </v>
   <v>      -0.01011656       0.00208134       0.00485269 </v>
   <v>       0.00743486      -0.00686179      -0.00124338 </v>
   <v>       0.01178531       0.00123593       0.00669568 </v>
   <v>       0.00153999      -0.00667750       0.00535150 </v>
   <v>      -0.00353103      -0.00196332       0.00362759 </v>
   <v>       0.00366036      -0.00302841      -0.00341501 </v>
   <v>      -0.01200496       0.00855298      -0.00046877 </v>
   <v>       0.00697488       0.00587680      -0.00059407 </v>
   <v>      -0.00153999      -0.00667750      -0.00535150 </v>
   <v>       0.00353103      -0.00196332      -0.00362759 </v>
   <v>      -0.00366036      -0.00302841       0.00341501 </v>
   <v>       0.01200496       0.00855298       0.00046877 </v>
   <v>      -0.00697488       0.00587680       0.00059407 </v>
   <v>       0.01687461       0.00238564      -0.00219912 </v>
   <v>      -0.01446984      -0.00404532       0.00137032 </v>
   <v>       0.00325037      -0.00635553       0.00432215 </v>
   <v>      -0.00284950       0.00143208      -0.01276666 </v>
   <v>      -0.00803305       0.00500607       0.00999979 </v>
   <v>      -0.01687461       0.00238564       0.00219912 </v>
   <v>       0.01446984      -0.00404532      -0.00137032 </v>
   <v>      -0.00325037      -0.00635553      -0.00432215 </v>
   <v>       0.00284950       0.00143208       0.01276666 </v>
   <v>       0.00803305       0.00500607      -0.00999979 </v>
  </varray>
  <varray name="stress" >
   <v>      -0.03956766       0.00000000       0.15440987 </v>
   <v>       0.00000000      -0.60086199       0.00000000 </v>
   <v>       0.15440989       0.00000000      -0.21850615 </v>
  </varray>
  <energy>
   <i name="e_fr_energy">   -332.48540298 </i>
   <i name="e_wo_entrp">   -332.48540298 </i>
   <i name="e_0_energy">     -0.00000000 </i>
  </energy>
  <time name="totalsc">   10.57   10.61</time>
 </calculation>
 <calculation>
  <scstep>
   <time name="dav">    1.69    1.70</time>
   <time name="total">    1.77    1.78</time>
   <energy>
    <i name="alphaZ">    330.92793227 </i>
    <i name="ewald">  -4671.40914818 </i>
    <i name="hartreedc">  -5611.67548083 </i>
    <i name="XCdc">    620.33011280 </i>
    <i name="pawpsdc">  20687.62097033 </i>
    <i name="pawaedc"> -20533.56197632 </i>
    <i name="eentropy">     -0.00000000 </i>
    <i name="bandstr">  -1828.25939333 </i>
    <i name="atom">  10673.54141234 </i>
    <i name="e_fr_energy">   -332.48557092 </i>
    <i name="e_wo_entrp">   -332.48557092 </i>
    <i name="e_0_energy">   -332.48557092 </i>
   </energy>
  </scstep>
  <scstep>
   <time name="dav">    1.88    1.88</time>
   <time name="total">    1.96    1.97</time>
   <energy>
    <i name="e_fr_energy">   -332.48554735 </i>
    <i name="e_wo_entrp">   -332.48554735 </i>
    <i name="e_0_energy">   -332.48554735 </i>
   </energy>
  </scstep>
  <scstep>
   <time name="dav">    1.51    1.52</time>
   <time name="total">    1.60    1.60</time>
   <energy>
    <i name="e_fr_energy">   -332.48552966 </i>
    <i name="e_wo_entrp">   -332.48552966 </i>
    <i name="e_0_energy">   -332.48552966 </i>
   </energy>
  </scstep>
  <scstep>
   <time name="dav">    1.19    1.19</time>
   <time name="total">    1.27    1.28</time>
   <energy>
    <i name="e_fr_energy">   -332.48552836 </i>
    <i name="e_wo_entrp">   -332.48552836 </i>
    <i name="e_0_energy">   -332.48552836 </i>
   </energy>
  </scstep>
  <scstep>
   <time name="dav">    1.11    1.11</time>
   <time name="total">    1.13    1.13</time>
   <energy>
    <i name="alphaZ">    330.92793227 </i>
    <i name="ewald">  -4671.40914818 </i>
    <i name="hartreedc">  -5611.07176244 </i>
    <i name="XCdc">    620.29616531 </i>
    <i name="pawpsdc">  20688.59212266 </i>
    <i name="pawaedc"> -20534.53340676 </i>
    <i name="eentropy">     -0.00000000 </i>
    <i name="bandstr">  -1828.82884384 </i>
    <i name="atom">  10673.54141234 </i>
    <i name="e_fr_energy">   -332.48552863 </i>
    <i name="e_wo_entrp">   -332.48552863 </i>
    <i name="e_0_energy">   -332.48552863 </i>
   </energy>
  </scstep>
  <structure>
   <crystal>
    <varray name="basis" >
     <v>       7.77159846       0.00000000       0.07384142 </v>
     <v>       0.00000000       8.35704680       0.00000000 </v>
     <v>      -0.07683393       0.00000000       9.21212439 </v>
    </varray>
    <i name="volume">    598.35289431 </i>
    <varray name="rec_basis" >
     <v>       0.12866346       0.00000000       0.00107312 </v>
     <v>       0.00000000       0.11965950       0.00000000 </v>
     <v>      -0.00103132       0.00000000       0.10854399 </v>
    </varray>
   </crystal>
   <varray name="positions" >
    <v>       0.25026407       0.34728055       0.11396299 </v>
    <v>       0.74973593       0.84728055       0.88603701 </v>
    <v>       0.25023374       0.84709449       0.61405156 </v>
    <v>       0.74976626       0.34709449       0.38594844 </v>
    <v>       0.35633323       0.19181642       0.94078797 </v>
    <v>       0.27851051       0.13025500       0.82541446 </v>
    <v>       0.36935006       0.00623165       0.78369387 </v>
    <v>       0.50574974       0.99233019       0.87299332 </v>
    <v>       0.49651061       0.10745092       0.96911974 </v>
    <v>       0.64366677       0.69181642       0.05921203 </v>
    <v>       0.72148949       0.63025500       0.17458554 </v>
    <v>       0.63064994       0.50623165       0.21630613 </v>
    <v>       0.49425026       0.49233019       0.12700668 </v>
    <v>       0.50348939       0.60745092       0.03088026 </v>
    <v>       0.35611677       0.00285944       0.44092402 </v>
    <v>       0.49620143       0.08732333       0.46933633 </v>
    <v>       0.50560063       0.20227312       0.37304102 </v>
    <v>       0.36932698       0.18824728       0.28365011 </v>
    <v>       0.27848834       0.06421477       0.32537023 </v>
    <v>       0.64388323       0.50285944       0.55907598 </v>
    <v>       0.50379857       0.58732333       0.53066367 </v>
    <v>       0.49439937       0.70227312       0.62695898 </v>
    <v>       0.63067302       0.68824728       0.71634989 </v>
    <v>       0.72151166       0.56421477       0.67462977 </v>
    <v>       0.00610774       0.99182155       0.62609628 </v>
    <v>       0.99641655       0.10644353       0.52951805 </v>
    <v>       0.85562636       0.19013548       0.55754021 </v>
    <v>       0.77784420       0.12865744       0.67308865 </v>
    <v>       0.86924973       0.00523845       0.71520607 </v>
    <v>       0.99389226       0.49182155       0.37390372 </v>
    <v>       0.00358345       0.60644353       0.47048195 </v>
    <v>       0.14437364       0.69013548       0.44245979 </v>
    <v>       0.22215580       0.62865744       0.32691135 </v>
    <v>       0.13075027       0.50523845       0.28479393 </v>
    <v>       0.00619382       0.20248575       0.12614312 </v>
    <v>       0.86933977       0.18910996       0.21522930 </v>
    <v>       0.77789013       0.06571346       0.17310590 </v>
    <v>       0.85579168       0.00407028       0.05769212 </v>
    <v>       0.99658900       0.08774694       0.02966232 </v>
    <v>       0.99380618       0.70248575       0.87385688 </v>
    <v>       0.13066023       0.68910996       0.78477070 </v>
    <v>       0.22210987       0.56571346       0.82689410 </v>
    <v>       0.14420832       0.50407028       0.94230788 </v>
    <v>       0.00341100       0.58774694       0.97033768 </v>
   </varray>
  </structure>
  <varray name="forces" >
   <v>      -0.00038290       0.00152496       0.00329835 </v>
   <v>       0.00038290       0.00152496      -0.00329835 </v>
   <v>       0.00087943       0.00217844       0.00160453 </v>
   <v>      -0.00087943       0.00217844      -0.00160453 </v>
   <v>      -0.00656465      -0.00302171       0.00985847 </v>
   <v>      -0.00074761       0.00842542       0.00095778 </v>
   <v>      -0.00521395      -0.00671840       0.00679594 </v>
   <v>       0.00853433       0.00330468      -0.01332658 </v>
   <v>      -0.00637720      -0.00688689       0.00492039 </v>
   <v>       0.00656465      -0.00302171      -0.00985847 </v>
   <v>       0.00074761       0.00842542      -0.00095778 </v>
   <v>       0.00521395      -0.00671840      -0.00679594 </v>
   <v>      -0.00853433       0.00330468       0.01332658 </v>
   <v>       0.00637720      -0.00688689      -0.00492039 </v>
   <v>      -0.00447231       0.00161373       0.00940867 </v>
   <v>      -0.00304409       0.00312782       0.00152635 </v>
   <v>       0.00700326      -0.00063943      -0.00557415 </v>
   <v>      -0.00297188       0.00045642      -0.00073152 </v>
   <v>      -0.00489588      -0.00505397       0.00473143 </v>
   <v>       0.00447231       0.00161373      -0.00940867 </v>
   <v>       0.00304409       0.00312782      -0.00152635 </v>
   <v>      -0.00700326      -0.00063943       0.00557415 </v>
   <v>       0.00297188       0.00045642       0.00073152 </v>
   <v>       0.00489588      -0.00505397      -0.00473143 </v>
   <v>       0.00065172      -0.00800690       0.00624859 </v>
   <v>       0.00171563      -0.00109763      -0.00124520 </v>
   <v>      -0.00291488       0.00486934      -0.00546833 </v>
   <v>      -0.00544229       0.00432625      -0.00190623 </v>
   <v>       0.00136008       0.00374485       0.00713085 </v>
   <v>      -0.00065172      -0.00800690      -0.00624859 </v>
   <v>      -0.00171563      -0.00109763       0.00124520 </v>
   <v>       0.00291488       0.00486934       0.00546833 </v>
   <v>       0.00544229       0.00432625       0.00190623 </v>
   <v>      -0.00136008       0.00374485      -0.00713085 </v>
   <v>       0.00767222       0.00200790       0.00622736 </v>
   <v>      -0.00919140       0.00251547       0.00074416 </v>
   <v>      -0.00102034      -0.01039086       0.00717176 </v>
   <v>      -0.00670161       0.00135397      -0.01091424 </v>
   <v>       0.00302398       0.00236653      -0.00195719 </v>
   <v>      -0.00767222       0.00200790      -0.00622736 </v>
   <v>       0.00919140       0.00251547      -0.00074416 </v>
   <v>       0.00102034      -0.01039086      -0.00717176 </v>
   <v>       0.00670161       0.00135397       0.01091424 </v>
   <v>      -0.00302398       0.00236653       0.00195719 </v>
  </varray>
  <varray name="stress" >
   <v>      -0.01501330       0.00000000      -0.01216406 </v>
   <v>       0.00000000      -0.36335517       0.00000000 </v>
   <v>      -0.01216406       0.00000000      -0.16137018 </v>
  </varray>
  <energy>
   <i name="e_fr_energy">   -332.48552863 </i>
   <i name="e_wo_entrp">   -332.48552863 </i>
   <i name="e_0_energy">     -0.00000000 </i>
  </energy>
  <time name="totalsc">   10.16   10.21</time>
 </calculation>
 <calculation>
  <scstep>
   <time name="dav">    1.69    1.70</time>
   <time name="total">    1.77    1.78</time>
   <energy>
    <i name="alphaZ">    331.00751300 </i>
    <i name="ewald">  -4672.70677179 </i>
    <i name="hartreedc">  -5610.85775791 </i>
    <i name="XCdc">    620.34696698 </i>
    <i name="pawpsdc">  20688.37184220 </i>
    <i name="pawaedc"> -20534.31325674 </i>
    <i name="eentropy">     -0.00000000 </i>
    <i name="bandstr">  -1827.87559521 </i>
    <i name="atom">  10673.54141234 </i>
    <i name="e_fr_energy">   -332.48564713 </i>
    <i name="e_wo_entrp">   -332.48564713 </i>
    <i name="e_0_energy">   -332.48564713 </i>
   </energy>
  </scstep>
  <scstep>
   <time name="dav">    1.87    1.87</time>
   <time name="total">    1.95    1.96</time>
   <energy>
    <i name="e_fr_energy">   -332.48561107 </i>
    <i name="e_wo_entrp">   -332.48561107 </i>
    <i name="e_0_energy">   -332.48561107 </i>
   </energy>
  </scstep>
  <scstep>
   <time name="dav">    1.79    1.79</time>
   <time name="total">    1.87    1.88</time>
   <energy>
    <i name="e_fr_energy">   -332.48558385 </i>
    <i name="e_wo_entrp">   -332.48558385 </i>
    <i name="e_0_energy">   -332.48558385 </i>
   </energy>
  </scstep>
  <scstep>
   <time name="dav">    1.20    1.20</time>
   <time name="total">    1.28    1.28</time>
   <energy>
    <i name="e_fr_energy">   -332.48558158 </i>
    <i name="e_wo_entrp">   -332.48558158 </i>
    <i name="e_0_energy">   -332.48558158 </i>
   </energy>
  </scstep>
  <scstep>
   <time name="dav">    1.16    1.17</time>
   <time name="total">    1.18    1.19</time>
   <energy>
    <i name="alphaZ">    331.00751300 </i>
    <i name="ewald">  -4672.70677179 </i>
    <i name="hartreedc">  -5610.10449037 </i>
    <i name="XCdc">    620.30461269 </i>
    <i name="pawpsdc">  20689.20960882 </i>
    <i name="pawaedc"> -20535.15124883 </i>
    <i name="eentropy">     -0.00000000 </i>
    <i name="bandstr">  -1828.58621772 </i>
    <i name="atom">  10673.54141234 </i>
    <i name="e_fr_energy">   -332.48558185 </i>
    <i name="e_wo_entrp">   -332.48558185 </i>
    <i name="e_0_energy">   -332.48558185 </i>
   </energy>
  </scstep>
  <structure>
   <crystal>
    <varray name="basis" >
     <v>       7.77040561       0.00000000       0.07356980 </v>
     <v>       0.00000000       8.35413576       0.00000000 </v>
     <v>      -0.07716700       0.00000000       9.21453278 </v>
    </varray>
    <i name="volume">    598.20903848 </i>
    <varray name="rec_basis" >
     <v>       0.12868321       0.00000000       0.00107766 </v>
     <v>       0.00000000       0.11970119       0.00000000 </v>
     <v>      -0.00102742       0.00000000       0.10851562 </v>
    </varray>
   </crystal>
   <varray name="positions" >
    <v>       0.25025589       0.34727975       0.11397521 </v>
    <v>       0.74974411       0.84727975       0.88602479 </v>
    <v>       0.25022798       0.84710781       0.61405795 </v>
    <v>       0.74977202       0.34710781       0.38594205 </v>
    <v>       0.35629506       0.19178468       0.94083767 </v>
    <v>       0.27844174       0.13026427       0.82544584 </v>
    <v>       0.36936305       0.00625596       0.78368746 </v>
    <v>       0.50575839       0.99229793       0.87297292 </v>
    <v>       0.49652021       0.10741267       0.96914500 </v>
    <v>       0.64370494       0.69178468       0.05916233 </v>
    <v>       0.72155826       0.63026427       0.17455416 </v>
    <v>       0.63063695       0.50625596       0.21631254 </v>
    <v>       0.49424161       0.49229793       0.12702708 </v>
    <v>       0.50347979       0.60741267       0.03085500 </v>
    <v>       0.35608112       0.00287257       0.44097579 </v>
    <v>       0.49622371       0.08735644       0.46935049 </v>
    <v>       0.50563426       0.20228838       0.37302196 </v>
    <v>       0.36931532       0.18821070       0.28365144 </v>
    <v>       0.27842840       0.06421291       0.32539330 </v>
    <v>       0.64391888       0.50287257       0.55902421 </v>
    <v>       0.50377629       0.58735644       0.53064951 </v>
    <v>       0.49436574       0.70228838       0.62697804 </v>
    <v>       0.63068468       0.68821070       0.71634856 </v>
    <v>       0.72157160       0.56421291       0.67460670 </v>
    <v>       0.00612334       0.99180689       0.62613676 </v>
    <v>       0.99639887       0.10641690       0.52954279 </v>
    <v>       0.85562024       0.19013047       0.55752672 </v>
    <v>       0.77781447       0.12871455       0.67307640 </v>
    <v>       0.86927420       0.00527160       0.71520573 </v>
    <v>       0.99387666       0.49180689       0.37386324 </v>
    <v>       0.00360113       0.60641690       0.47045721 </v>
    <v>       0.14437976       0.69013047       0.44247328 </v>
    <v>       0.22218553       0.62871455       0.32692360 </v>
    <v>       0.13072580       0.50527160       0.28479427 </v>
    <v>       0.00623154       0.20250888       0.12615660 </v>
    <v>       0.86933187       0.18906864       0.21524881 </v>
    <v>       0.77787729       0.06569093       0.17307549 </v>
    <v>       0.85577526       0.00406245       0.05766457 </v>
    <v>       0.99655467       0.08778462       0.02969937 </v>
    <v>       0.99376846       0.70250888       0.87384340 </v>
    <v>       0.13066813       0.68906864       0.78475119 </v>
    <v>       0.22212271       0.56569093       0.82692451 </v>
    <v>       0.14422474       0.50406245       0.94233543 </v>
    <v>       0.00344533       0.58778462       0.97030063 </v>
   </varray>
  </structure>
  <varray name="forces" >
   <v>      -0.00004841       0.00165459       0.00440946 </v>
   <v>       0.00004841       0.00165459      -0.00440946 </v>
   <v>       0.00072339       0.00115344       0.00244378 </v>
   <v>      -0.00072339       0.00115344      -0.00244378 </v>
   <v>      -0.00887486      -0.00076689       0.00999618 </v>
   <v>       0.01193661       0.00912790       0.00905740 </v>
   <v>      -0.00847736      -0.00943402       0.00644920 </v>
   <v>       0.01045547       0.00756507      -0.01201010 </v>
   <v>      -0.01619061      -0.00928353      -0.00401625 </v>
   <v>       0.00887486      -0.00076689      -0.00999618 </v>
   <v>      -0.01193661       0.00912790      -0.00905740 </v>
   <v>       0.00847736      -0.00943402      -0.00644920 </v>
   <v>      -0.01045547       0.00756507       0.01201010 </v>
   <v>       0.01619061      -0.00928353       0.00401625 </v>
   <v>      -0.00389359       0.00426534       0.00645034 </v>
   <v>      -0.01424134       0.00068911      -0.00540235 </v>
   <v>       0.00325877      -0.00391376      -0.00649834 </v>
   <v>       0.00229785       0.00976252      -0.00361676 </v>
   <v>       0.00319685      -0.01288559       0.01853586 </v>
   <v>       0.00389359       0.00426534      -0.00645034 </v>
   <v>       0.01424134       0.00068911       0.00540235 </v>
   <v>      -0.00325877      -0.00391376       0.00649834 </v>
   <v>      -0.00229785       0.00976252       0.00361676 </v>
   <v>      -0.00319685      -0.01288559      -0.01853586 </v>
   <v>      -0.00070160      -0.00931085       0.00724797 </v>
   <v>       0.00825436      -0.00003244      -0.00735650 </v>
   <v>      -0.01097100       0.01443990      -0.00788499 </v>
   <v>       0.00285228      -0.00098528      -0.00373437 </v>
   <v>      -0.00561051       0.00116617       0.01671262 </v>
   <v>       0.00070160      -0.00931085      -0.00724797 </v>
   <v>      -0.00825436      -0.00003244       0.00735650 </v>
   <v>       0.01097100       0.01443990       0.00788499 </v>
   <v>      -0.00285228      -0.00098528       0.00373437 </v>
   <v>       0.00561051       0.00116617      -0.01671262 </v>
   <v>      -0.00391211       0.00118005       0.01655887 </v>
   <v>      -0.00281276       0.01056706      -0.00004461 </v>
   <v>      -0.00623061      -0.01541436       0.01073702 </v>
   <v>      -0.01144470       0.00144994      -0.00854906 </v>
   <v>       0.01677875      -0.00099436      -0.01697048 </v>
   <v>       0.00391211       0.00118005      -0.01655887 </v>
   <v>       0.00281276       0.01056706       0.00004461 </v>
   <v>       0.00623061      -0.01541436      -0.01073702 </v>
   <v>       0.01144470       0.00144994       0.00854906 </v>
   <v>      -0.01677875      -0.00099436       0.01697048 </v>
  </varray>
  <varray name="stress" >
   <v>       0.00947837       0.00000000      -0.21341885 </v>
   <v>       0.00000000      -0.07266349       0.00000000 </v>
   <v>      -0.21341895       0.00000000      -0.10822514 </v>
  </varray>
  <energy>
   <i name="e_fr_energy">   -332.48558185 </i>
   <i name="e_wo_entrp">   -332.48558185 </i>
   <i name="e_0_energy">     -0.00000000 </i>
  </energy>
  <time name="totalsc">   10.47   10.51</time>
 </calculation>
 <calculation>
  <scstep>
   <time name="dav">    1.70    1.71</time>
   <time name="total">    1.78    1.79</time>
   <energy>
    <i name="alphaZ">    331.05939292 </i>
    <i name="ewald">  -4673.88751962 </i>
    <i name="hartreedc">  -5609.73843125 </i>
    <i name="XCdc">    620.33267538 </i>
    <i name="pawpsdc">  20688.97701190 </i>
    <i name="pawaedc"> -20534.91881289 </i>
    <i name="eentropy">     -0.00000000 </i>
    <i name="bandstr">  -1827.85143155 </i>
    <i name="atom">  10673.54141234 </i>
    <i name="e_fr_energy">   -332.48570277 </i>
    <i name="e_wo_entrp">   -332.48570277 </i>
    <i name="e_0_energy">   -332.48570277 </i>
   </energy>
  </scstep>
  <scstep>
   <time name="dav">    1.88    1.88</time>
   <time name="total">    1.96    1.97</time>
   <energy>
    <i name="e_fr_energy">   -332.48568957 </i>
    <i name="e_wo_entrp">   -332.48568957 </i>
    <i name="e_0_energy">   -332.48568957 </i>
   </energy>
  </scstep>
  <scstep>
   <time name="dav">    1.34    1.34</time>
   <time name="total">    1.42    1.43</time>
   <energy>
    <i name="e_fr_energy">   -332.48567871 </i>
    <i name="e_wo_entrp">   -332.48567871 </i>
    <i name="e_0_energy">   -332.48567871 </i>
   </energy>
  </scstep>
  <scstep>
   <time name="dav">    1.18    1.18</time>
   <time name="total">    1.26    1.27</time>
   <energy>
    <i name="e_fr_energy">   -332.48567841 </i>
    <i name="e_wo_entrp">   -332.48567841 </i>
    <i name="e_0_energy">   -332.48567841 </i>
   </energy>
  </scstep>
  <scstep>
   <time name="dav">    1.14    1.14</time>
   <time name="total">    1.16    1.16</time>
   <energy>
    <i name="alphaZ">    331.05939292 </i>
    <i name="ewald">  -4673.88751962 </i>
    <i name="hartreedc">  -5609.18327294 </i>
    <i name="XCdc">    620.30176758 </i>
    <i name="pawpsdc">  20687.74713390 </i>
    <i name="pawaedc"> -20533.68782240 </i>
    <i name="eentropy">     -0.00000000 </i>
    <i name="bandstr">  -1828.37677051 </i>
    <i name="atom">  10673.54141234 </i>
    <i name="e_fr_energy">   -332.48567873 </i>
    <i name="e_wo_entrp">   -332.48567873 </i>
    <i name="e_0_energy">   -332.48567873 </i>
   </energy>
  </scstep>
  <structure>
   <crystal>
    <varray name="basis" >
     <v>       7.76971302       0.00000000       0.07325425 </v>
     <v>       0.00000000       8.35237584       0.00000000 </v>
     <v>      -0.07754679       0.00000000       9.21585108 </v>
    </varray>
    <i name="volume">    598.11529385 </i>
    <varray name="rec_basis" >
     <v>       0.12869467       0.00000000       0.00108290 </v>
     <v>       0.00000000       0.11972641       0.00000000 </v>
     <v>      -0.00102296       0.00000000       0.10850009 </v>
    </varray>
   </crystal>
   <varray name="positions" >
    <v>       0.25025109       0.34728148       0.11398767 </v>
    <v>       0.74974891       0.84728148       0.88601233 </v>
    <v>       0.25022566       0.84711714       0.61406462 </v>
    <v>       0.74977434       0.34711714       0.38593538 </v>
    <v>       0.35626018       0.19176508       0.94087886 </v>
    <v>       0.27841859       0.13028179       0.82547495 </v>
    <v>       0.36935866       0.00625769       0.78369156 </v>
    <v>       0.50577820       0.99228906       0.87294645 </v>
    <v>       0.49650272       0.10737797       0.96915514 </v>
    <v>       0.64373982       0.69176508       0.05912114 </v>
    <v>       0.72158141       0.63028179       0.17452505 </v>
    <v>       0.63064134       0.50625769       0.21630844 </v>
    <v>       0.49422180       0.49228906       0.12705355 </v>
    <v>       0.50349728       0.60737797       0.03084486 </v>
    <v>       0.35605478       0.00288591       0.44101389 </v>
    <v>       0.49621641       0.08737674       0.46935245 </v>
    <v>       0.50565851       0.20229212       0.37300296 </v>
    <v>       0.36931172       0.18820221       0.28364785 </v>
    <v>       0.27839808       0.06419474       0.32542903 </v>
    <v>       0.64394522       0.50288591       0.55898611 </v>
    <v>       0.50378359       0.58737674       0.53064755 </v>
    <v>       0.49434149       0.70229212       0.62699704 </v>
    <v>       0.63068828       0.68820221       0.71635215 </v>
    <v>       0.72160192       0.56419474       0.67457097 </v>
    <v>       0.00613157       0.99178598       0.62616916 </v>
    <v>       0.99640019       0.10640126       0.52954834 </v>
    <v>       0.85560094       0.19014667       0.55750948 </v>
    <v>       0.77780108       0.12874669       0.67306471 </v>
    <v>       0.86928073       0.00529256       0.71522567 </v>
    <v>       0.99386843       0.49178598       0.37383084 </v>
    <v>       0.00359981       0.60640126       0.47045166 </v>
    <v>       0.14439906       0.69014667       0.44249052 </v>
    <v>       0.22219892       0.62874669       0.32693529 </v>
    <v>       0.13071927       0.50529256       0.28477433 </v>
    <v>       0.00624824       0.20252399       0.12618443 </v>
    <v>       0.86932323       0.18905844       0.21526020 </v>
    <v>       0.77786103       0.06565732       0.17307067 </v>
    <v>       0.85574923       0.00405979       0.05763831 </v>
    <v>       0.99655827       0.08780537       0.02970047 </v>
    <v>       0.99375176       0.70252399       0.87381557 </v>
    <v>       0.13067677       0.68905844       0.78473980 </v>
    <v>       0.22213897       0.56565732       0.82692933 </v>
    <v>       0.14425077       0.50405979       0.94236169 </v>
    <v>       0.00344173       0.58780537       0.97029953 </v>
   </varray>
  </structure>
  <varray name="forces" >
   <v>       0.00006212       0.00151808       0.00500900 </v>
   <v>      -0.00006212       0.00151808      -0.00500900 </v>
   <v>       0.00073914       0.00088352       0.00344955 </v>
   <v>      -0.00073914       0.00088352      -0.00344955 </v>
   <v>      -0.00724659      -0.00195206       0.00868895 </v>
   <v>       0.01011556       0.00554300       0.00716763 </v>
   <v>      -0.00929170      -0.00556101       0.00387659 </v>
   <v>       0.00689227       0.00869785      -0.00869299 </v>
   <v>      -0.01168377      -0.00855445      -0.00183887 </v>
   <v>       0.00724659      -0.00195206      -0.00868895 </v>
   <v>      -0.01011556       0.00554300      -0.00716763 </v>
   <v>       0.00929170      -0.00556101      -0.00387659 </v>
   <v>      -0.00689227       0.00869785       0.00869299 </v>
   <v>       0.01168377      -0.00855445       0.00183887 </v>
   <v>      -0.00426088       0.00428487       0.00524331 </v>
   <v>      -0.00953410       0.00103087      -0.00227796 </v>
   <v>      -0.00112115      -0.00512061      -0.00719773 </v>
   <v>       0.00159413       0.00565509      -0.00174639 </v>
   <v>       0.00370945      -0.00839306       0.01509263 </v>
   <v>       0.00426088       0.00428487      -0.00524331 </v>
   <v>       0.00953410       0.00103087       0.00227796 </v>
   <v>       0.00112115      -0.00512061       0.00719773 </v>
   <v>      -0.00159413       0.00565509       0.00174639 </v>
   <v>      -0.00370945      -0.00839306      -0.01509263 </v>
   <v>      -0.00355475      -0.00244251       0.00376819 </v>
   <v>       0.00403306      -0.00189818      -0.00244775 </v>
   <v>      -0.00701351       0.00850311      -0.00497204 </v>
   <v>       0.00557472      -0.00078480      -0.00496507 </v>
   <v>      -0.00547617       0.00292089       0.01335087 </v>
   <v>       0.00355475      -0.00244251      -0.00376819 </v>
   <v>      -0.00403306      -0.00189818       0.00244775 </v>
   <v>       0.00701351       0.00850311       0.00497204 </v>
   <v>      -0.00557472      -0.00078480       0.00496507 </v>
   <v>       0.00547617       0.00292089      -0.01335087 </v>
   <v>      -0.00955768      -0.00273462       0.01517528 </v>
   <v>       0.00086202       0.00714819      -0.00255359 </v>
   <v>      -0.00199005      -0.01324952       0.00517820 </v>
   <v>      -0.00776589       0.00487881      -0.00441457 </v>
   <v>       0.01046824      -0.00037345      -0.01168364 </v>
   <v>       0.00955768      -0.00273462      -0.01517528 </v>
   <v>      -0.00086202       0.00714819       0.00255359 </v>
   <v>       0.00199005      -0.01324952      -0.00517820 </v>
   <v>       0.00776589       0.00487881       0.00441457 </v>
   <v>      -0.01046824      -0.00037345       0.01168364 </v>
  </varray>
  <varray name="stress" >
   <v>       0.00980273       0.00000000      -0.08972232 </v>
   <v>       0.00000000      -0.12865110       0.00000000 </v>
   <v>      -0.08972237       0.00000000      -0.13369909 </v>
  </varray>
  <energy>
   <i name="e_fr_energy">   -332.48567873 </i>
   <i name="e_wo_entrp">   -332.48567873 </i>
   <i name="e_0_energy">     -0.00000000 </i>
  </energy>
  <time name="totalsc">   10.00   10.04</time>
 </calculation>
 <calculation>
  <scstep>
   <time name="dav">    1.69    1.69</time>
   <time name="total">    1.77    1.77</time>
   <energy>
    <i name="alphaZ">    331.19770971 </i>
    <i name="ewald">  -4677.03711733 </i>
    <i name="hartreedc">  -5608.17938492 </i>
    <i name="XCdc">    620.37490954 </i>
    <i name="pawpsdc">  20687.51795909 </i>
    <i name="pawaedc"> -20533.45875091 </i>
    <i name="eentropy">     -0.00000000 </i>
    <i name="bandstr">  -1826.44270157 </i>
    <i name="atom">  10673.54141234 </i>
    <i name="e_fr_energy">   -332.48596406 </i>
    <i name="e_wo_entrp">   -332.48596406 </i>
    <i name="e_0_energy">   -332.48596406 </i>
   </energy>
  </scstep>
  <scstep>
   <time name="dav">    1.88    1.89</time>
   <time name="total">    1.96    1.97</time>
   <energy>
    <i name="e_fr_energy">   -332.48587474 </i>
    <i name="e_wo_entrp">   -332.48587474 </i>
    <i name="e_0_energy">   -332.48587474 </i>
   </energy>
  </scstep>
  <scstep>
   <time name="dav">    1.88    1.94</time>
   <time name="total">    1.96    2.03</time>
   <energy>
    <i name="e_fr_energy">   -332.48579764 </i>
    <i name="e_wo_entrp">   -332.48579764 </i>
    <i name="e_0_energy">   -332.48579764 </i>
   </energy>
  </scstep>
  <scstep>
   <time name="dav">    1.20    1.20</time>
   <time name="total">    1.28    1.29</time>
   <energy>
    <i name="e_fr_energy">   -332.48579160 </i>
    <i name="e_wo_entrp">   -332.48579160 </i>
    <i name="e_0_energy">   -332.48579160 </i>
   </energy>
  </scstep>
  <scstep>
   <time name="dav">    1.19    1.20</time>
   <time name="total">    1.21    1.22</time>
   <energy>
    <i name="alphaZ">    331.19770971 </i>
    <i name="ewald">  -4677.03711733 </i>
    <i name="hartreedc">  -5606.71036441 </i>
    <i name="XCdc">    620.29301400 </i>
    <i name="pawpsdc">  20684.14360160 </i>
    <i name="pawaedc"> -20530.08148560 </i>
    <i name="eentropy">     -0.00000000 </i>
    <i name="bandstr">  -1827.83256222 </i>
    <i name="atom">  10673.54141234 </i>
    <i name="e_fr_energy">   -332.48579190 </i>
    <i name="e_wo_entrp">   -332.48579190 </i>
    <i name="e_0_energy">   -332.48579190 </i>
   </energy>
  </scstep>
  <structure>
   <crystal>
    <varray name="basis" >
     <v>       7.76786868       0.00000000       0.07241397 </v>
     <v>       0.00000000       8.34768923       0.00000000 </v>
     <v>      -0.07855816       0.00000000       9.21936168 </v>
    </varray>
    <i name="volume">    597.86550534 </i>
    <varray name="rec_basis" >
     <v>       0.12872522       0.00000000       0.00109687 </v>
     <v>       0.00000000       0.11979363       0.00000000 </v>
     <v>      -0.00101108       0.00000000       0.10845876 </v>
    </varray>
   </crystal>
   <varray name="positions" >
    <v>       0.25023829       0.34728607       0.11402082 </v>
    <v>       0.74976171       0.84728607       0.88597918 </v>
    <v>       0.25021950       0.84714199       0.61408237 </v>
    <v>       0.74978050       0.34714199       0.38591763 </v>
    <v>       0.35616732       0.19171287       0.94098853 </v>
    <v>       0.27835695       0.13032846       0.82555245 </v>
    <v>       0.36934696       0.00626231       0.78370245 </v>
    <v>       0.50583097       0.99226544       0.87287595 </v>
    <v>       0.49645614       0.10728555       0.96918214 </v>
    <v>       0.64383268       0.69171287       0.05901147 </v>
    <v>       0.72164305       0.63032846       0.17444755 </v>
    <v>       0.63065304       0.50626231       0.21629755 </v>
    <v>       0.49416903       0.49226544       0.12712405 </v>
    <v>       0.50354386       0.60728555       0.03081786 </v>
    <v>       0.35598463       0.00292144       0.44111531 </v>
    <v>       0.49619696       0.08743081       0.46935767 </v>
    <v>       0.50572310       0.20230211       0.37295238 </v>
    <v>       0.36930214       0.18817961       0.28363830 </v>
    <v>       0.27831734       0.06414636       0.32552415 </v>
    <v>       0.64401537       0.50292144       0.55888469 </v>
    <v>       0.50380304       0.58743081       0.53064233 </v>
    <v>       0.49427690       0.70230211       0.62704762 </v>
    <v>       0.63069786       0.68817961       0.71636170 </v>
    <v>       0.72168266       0.56414636       0.67447585 </v>
    <v>       0.00615347       0.99173026       0.62625543 </v>
    <v>       0.99640370       0.10635961       0.52956310 </v>
    <v>       0.85554953       0.19018982       0.55746357 </v>
    <v>       0.77776541       0.12883228       0.67303358 </v>
    <v>       0.86929812       0.00534839       0.71527875 </v>
    <v>       0.99384653       0.49173026       0.37374457 </v>
    <v>       0.00359630       0.60635961       0.47043690 </v>
    <v>       0.14445047       0.69018982       0.44253643 </v>
    <v>       0.22223459       0.62883228       0.32696642 </v>
    <v>       0.13070188       0.50534839       0.28472125 </v>
    <v>       0.00629274       0.20256424       0.12625852 </v>
    <v>       0.86930024       0.18903129       0.21529054 </v>
    <v>       0.77781772       0.06556778       0.17305782 </v>
    <v>       0.85567993       0.00405270       0.05756840 </v>
    <v>       0.99656786       0.08786062       0.02970341 </v>
    <v>       0.99370726       0.70256424       0.87374148 </v>
    <v>       0.13069976       0.68903129       0.78470946 </v>
    <v>       0.22218228       0.56556778       0.82694218 </v>
    <v>       0.14432007       0.50405270       0.94243160 </v>
    <v>       0.00343214       0.58786062       0.97029659 </v>
   </varray>
  </structure>
  <varray name="forces" >
   <v>       0.00023448       0.00116909       0.00661204 </v>
   <v>      -0.00023448       0.00116909      -0.00661204 </v>
   <v>       0.00066410       0.00008152       0.00617823 </v>
   <v>      -0.00066410       0.00008152      -0.00617823 </v>
   <v>      -0.00279184      -0.00534249       0.00507422 </v>
   <v>       0.00557298      -0.00396781       0.00243096 </v>
   <v>      -0.01155312       0.00481548      -0.00284410 </v>
   <v>      -0.00328141       0.01228031       0.00001643 </v>
   <v>       0.00002399      -0.00667457       0.00375937 </v>
   <v>       0.00279184      -0.00534249      -0.00507422 </v>
   <v>      -0.00557298      -0.00396781      -0.00243096 </v>
   <v>       0.01155312       0.00481548       0.00284410 </v>
   <v>       0.00328141       0.01228031      -0.00001643 </v>
   <v>      -0.00002399      -0.00667457      -0.00375937 </v>
   <v>      -0.00497759       0.00459214       0.00188351 </v>
   <v>       0.00267407       0.00188301       0.00580870 </v>
   <v>      -0.01343647      -0.00890556      -0.00915341 </v>
   <v>      -0.00026345      -0.00533374       0.00333806 </v>
   <v>       0.00551774       0.00353707       0.00629162 </v>
   <v>       0.00497759       0.00459214      -0.00188351 </v>
   <v>      -0.00267407       0.00188301      -0.00580870 </v>
   <v>       0.01343647      -0.00890556       0.00915341 </v>
   <v>       0.00026345      -0.00533374      -0.00333806 </v>
   <v>      -0.00551774       0.00353707      -0.00629162 </v>
   <v>      -0.01166195       0.01589034      -0.00526048 </v>
   <v>      -0.00677359      -0.00667200       0.01008268 </v>
   <v>       0.00361744      -0.00721127       0.00263956 </v>
   <v>       0.01261604      -0.00030515      -0.00799583 </v>
   <v>      -0.00556094       0.00733127       0.00496036 </v>
   <v>       0.01166195       0.01589034       0.00526048 </v>
   <v>       0.00677359      -0.00667200      -0.01008268 </v>
   <v>      -0.00361744      -0.00721127      -0.00263956 </v>
   <v>      -0.01261604      -0.00030515       0.00799583 </v>
   <v>       0.00556094       0.00733127      -0.00496036 </v>
   <v>      -0.02492430      -0.01316737       0.01168374 </v>
   <v>       0.01016096      -0.00157895      -0.00858988 </v>
   <v>       0.00891767      -0.00755104      -0.00922595 </v>
   <v>       0.00215240       0.01392724       0.00649640 </v>
   <v>      -0.00576602       0.00120248       0.00190170 </v>
   <v>       0.02492430      -0.01316737      -0.01168374 </v>
   <v>      -0.01016096      -0.00157895       0.00858988 </v>
   <v>      -0.00891767      -0.00755104       0.00922595 </v>
   <v>      -0.00215240       0.01392724      -0.00649640 </v>
   <v>       0.00576602       0.00120248      -0.00190170 </v>
  </varray>
  <varray name="stress" >
   <v>       0.04402943       0.00000000       0.23049657 </v>
   <v>       0.00000000      -0.24761715       0.00000000 </v>
   <v>       0.23049661       0.00000000      -0.17662963 </v>
  </varray>
  <energy>
   <i name="e_fr_energy">   -332.48579190 </i>
   <i name="e_wo_entrp">   -332.48579190 </i>
   <i name="e_0_energy">     -0.00000000 </i>
  </energy>
  <time name="totalsc">   10.61   10.71</time>
 </calculation>
 <calculation>
  <scstep>
   <time name="dav">    1.69    1.69</time>
   <time name="total">    1.77    1.80</time>
   <energy>
    <i name="alphaZ">    331.27907651 </i>
    <i name="ewald">  -4677.16673613 </i>
    <i name="hartreedc">  -5607.38230060 </i>
    <i name="XCdc">    620.36277901 </i>
    <i name="pawpsdc">  20683.63482172 </i>
    <i name="pawaedc"> -20529.57296009 </i>
    <i name="eentropy">     -0.00000000 </i>
    <i name="bandstr">  -1827.18198447 </i>
    <i name="atom">  10673.54141234 </i>
    <i name="e_fr_energy">   -332.48589170 </i>
    <i name="e_wo_entrp">   -332.48589170 </i>
    <i name="e_0_energy">   -332.48589170 </i>
   </energy>
  </scstep>
  <scstep>
   <time name="dav">    1.92    1.92</time>
   <time name="total">    2.00    2.01</time>
   <energy>
    <i name="e_fr_energy">   -332.48589379 </i>
    <i name="e_wo_entrp">   -332.48589379 </i>
    <i name="e_0_energy">   -332.48589379 </i>
   </energy>
  </scstep>
  <scstep>
   <time name="dav">    1.46    1.47</time>
   <time name="total">    1.55    1.55</time>
   <energy>
    <i name="e_fr_energy">   -332.48587880 </i>
    <i name="e_wo_entrp">   -332.48587880 </i>
    <i name="e_0_energy">   -332.48587880 </i>
   </energy>
  </scstep>
  <scstep>
   <time name="dav">    1.19    1.20</time>
   <time name="total">    1.27    1.28</time>
   <energy>
    <i name="e_fr_energy">   -332.48587778 </i>
    <i name="e_wo_entrp">   -332.48587778 </i>
    <i name="e_0_energy">   -332.48587778 </i>
   </energy>
  </scstep>
  <scstep>
   <time name="dav">    1.14    1.14</time>
   <time name="total">    1.16    1.17</time>
   <energy>
    <i name="alphaZ">    331.27907651 </i>
    <i name="ewald">  -4677.16673613 </i>
    <i name="hartreedc">  -5606.77850164 </i>
    <i name="XCdc">    620.32888893 </i>
    <i name="pawpsdc">  20689.80059222 </i>
    <i name="pawaedc"> -20535.74311047 </i>
    <i name="eentropy">     -0.00000000 </i>
    <i name="bandstr">  -1827.74749977 </i>
    <i name="atom">  10673.54141234 </i>
    <i name="e_fr_energy">   -332.48587801 </i>
    <i name="e_wo_entrp">   -332.48587801 </i>
    <i name="e_0_energy">   -332.48587801 </i>
   </energy>
  </scstep>
  <structure>
   <crystal>
    <varray name="basis" >
     <v>       7.76707687       0.00000000       0.07228526 </v>
     <v>       0.00000000       8.34524944       0.00000000 </v>
     <v>      -0.07871569       0.00000000       9.22073173 </v>
    </varray>
    <i name="volume">    597.71866116 </i>
    <varray name="rec_basis" >
     <v>       0.12873834       0.00000000       0.00109902 </v>
     <v>       0.00000000       0.11982865       0.00000000 </v>
     <v>      -0.00100923       0.00000000       0.10844265 </v>
    </varray>
   </crystal>
   <varray name="positions" >
    <v>       0.25023308       0.34729054       0.11404815 </v>
    <v>       0.74976692       0.84729054       0.88595185 </v>
    <v>       0.25021825       0.84715353       0.61410184 </v>
    <v>       0.74978175       0.34715353       0.38589816 </v>
    <v>       0.35611883       0.19167812       0.94104807 </v>
    <v>       0.27834096       0.13034176       0.82559226 </v>
    <v>       0.36931632       0.00627421       0.78370240 </v>
    <v>       0.50584795       0.99227959       0.87284380 </v>
    <v>       0.49643494       0.10722967       0.96920140 </v>
    <v>       0.64388117       0.69167812       0.05895193 </v>
    <v>       0.72165904       0.63034176       0.17440774 </v>
    <v>       0.63068368       0.50627421       0.21629760 </v>
    <v>       0.49415205       0.49227959       0.12715620 </v>
    <v>       0.50356506       0.60722967       0.03079860 </v>
    <v>       0.35594171       0.00294704       0.44116524 </v>
    <v>       0.49619400       0.08745939       0.46937069 </v>
    <v>       0.50572314       0.20228858       0.37291263 </v>
    <v>       0.36929724       0.18815843       0.28364007 </v>
    <v>       0.27829256       0.06413140       0.32557912 </v>
    <v>       0.64405829       0.50294704       0.55883476 </v>
    <v>       0.50380600       0.58745939       0.53062931 </v>
    <v>       0.49427686       0.70228858       0.62708737 </v>
    <v>       0.63070276       0.68815843       0.71635993 </v>
    <v>       0.72170744       0.56413140       0.67442088 </v>
    <v>       0.00613793       0.99173705       0.62628540 </v>
    <v>       0.99639070       0.10632699       0.52958852 </v>
    <v>       0.85553395       0.19019492       0.55744737 </v>
    <v>       0.77777649       0.12887084       0.67300441 </v>
    <v>       0.86929403       0.00538884       0.71531225 </v>
    <v>       0.99386207       0.49173705       0.37371460 </v>
    <v>       0.00360930       0.60632699       0.47041148 </v>
    <v>       0.14446605       0.69019492       0.44255263 </v>
    <v>       0.22222351       0.62887084       0.32699559 </v>
    <v>       0.13070597       0.50538884       0.28468775 </v>
    <v>       0.00625889       0.20255590       0.12631432 </v>
    <v>       0.86931175       0.18901565       0.21528843 </v>
    <v>       0.77781720       0.06551145       0.17303482 </v>
    <v>       0.85565303       0.00407776       0.05754834 </v>
    <v>       0.99655969       0.08788836       0.02970835 </v>
    <v>       0.99374111       0.70255590       0.87368568 </v>
    <v>       0.13068825       0.68901565       0.78471157 </v>
    <v>       0.22218280       0.56551145       0.82696518 </v>
    <v>       0.14434697       0.50407776       0.94245166 </v>
    <v>       0.00344031       0.58788836       0.97029165 </v>
   </varray>
  </structure>
  <varray name="forces" >
   <v>      -0.00056121       0.00090635       0.00608839 </v>
   <v>       0.00056121       0.00090635      -0.00608839 </v>
   <v>      -0.00014886      -0.00091519       0.00646033 </v>
   <v>       0.00014886      -0.00091519      -0.00646033 </v>
   <v>      -0.00202730      -0.00225210       0.00658486 </v>
   <v>      -0.00463455      -0.00060746       0.00275750 </v>
   <v>      -0.00341231       0.00562589      -0.00462913 </v>
   <v>      -0.00267412       0.00142128      -0.00078993 </v>
   <v>       0.00110620      -0.00169639       0.00493587 </v>
   <v>       0.00202730      -0.00225210      -0.00658486 </v>
   <v>       0.00463455      -0.00060746      -0.00275750 </v>
   <v>       0.00341231       0.00562589       0.00462913 </v>
   <v>       0.00267412       0.00142128       0.00078993 </v>
   <v>      -0.00110620      -0.00169639      -0.00493587 </v>
   <v>      -0.00331454       0.00025736       0.00642772 </v>
   <v>       0.00185417       0.00097794       0.00454217 </v>
   <v>      -0.00468633      -0.00169972      -0.00551667 </v>
   <v>      -0.00044353      -0.00494842       0.00036871 </v>
   <v>      -0.00288099       0.00070671       0.00263898 </v>
   <v>       0.00331454       0.00025736      -0.00642772 </v>
   <v>      -0.00185417       0.00097794      -0.00454217 </v>
   <v>       0.00468633      -0.00169972       0.00551667 </v>
   <v>       0.00044353      -0.00494842      -0.00036871 </v>
   <v>       0.00288099       0.00070671      -0.00263898 </v>
   <v>      -0.00261530       0.00356443       0.00125522 </v>
   <v>      -0.00227915      -0.00210075       0.00063995 </v>
   <v>       0.00238713      -0.00235080      -0.00146032 </v>
   <v>      -0.00164053       0.00574098       0.00043606 </v>
   <v>      -0.00381327       0.00521357       0.00291441 </v>
   <v>       0.00261530       0.00356443      -0.00125522 </v>
   <v>       0.00227915      -0.00210075      -0.00063995 </v>
   <v>      -0.00238713      -0.00235080       0.00146032 </v>
   <v>       0.00164053       0.00574098      -0.00043606 </v>
   <v>       0.00381327       0.00521357      -0.00291441 </v>
   <v>      -0.00754683      -0.00050297       0.00593826 </v>
   <v>       0.00252694      -0.00407079       0.00190971 </v>
   <v>       0.00059731      -0.00449094      -0.00523258 </v>
   <v>       0.00111647       0.00033183      -0.00129899 </v>
   <v>      -0.00588680       0.00088920       0.00096507 </v>
   <v>       0.00754683      -0.00050297      -0.00593826 </v>
   <v>      -0.00252694      -0.00407079      -0.00190971 </v>
   <v>      -0.00059731      -0.00449094       0.00523258 </v>
   <v>      -0.00111647       0.00033183       0.00129899 </v>
   <v>       0.00588680       0.00088920      -0.00096507 </v>
  </varray>
  <varray name="stress" >
   <v>       0.52882623       0.00000000       0.16116681 </v>
   <v>       0.00000000       0.18763482       0.00000000 </v>
   <v>       0.16116677       0.00000000       0.07617044 </v>
  </varray>
  <energy>
   <i name="e_fr_energy">   -332.48587801 </i>
   <i name="e_wo_entrp">   -332.48587801 </i>
   <i name="e_0_energy">     -0.00000000 </i>
  </energy>
  <time name="totalsc">    9.97   10.04</time>
  <eigenvalues>
   <array>
    <dimension dim="1">band</dimension>
    <dimension dim="2">kpoint</dimension>
    <dimension dim="3">spin</dimension>
    <field>eigene</field>
    <field>occ</field>
    <set>
     <set comment="spin 1">
      <set comment="kpoint 1">
       <r>  -24.2396    1.0000 </r>
       <r>  -24.2039    1.0000 </r>
       <r>  -24.1824    1.0000 </r>
       <r>  -24.1762    1.0000 </r>
       <r>  -24.1716    1.0000 </r>
       <r>  -24.1676    1.0000 </r>
       <r>  -24.1621    1.0000 </r>
       <r>  -24.1597    1.0000 </r>
       <r>  -18.5368    1.0000 </r>
       <r>  -18.5217    1.0000 </r>
       <r>  -18.5047    1.0000 </r>
       <r>  -18.4910    1.0000 </r>
       <r>  -18.4865    1.0000 </r>
       <r>  -18.4655    1.0000 </r>
       <r>  -18.3932    1.0000 </r>
       <r>  -18.3713    1.0000 </r>
       <r>  -18.2481    1.0000 </r>
       <r>  -18.1316    1.0000 </r>
       <r>  -18.1115    1.0000 </r>
       <r>  -18.0796    1.0000 </r>
       <r>  -18.0776    1.0000 </r>
       <r>  -18.0749    1.0000 </r>
       <r>  -18.0628    1.0000 </r>
       <r>  -18.0296    1.0000 </r>
       <r>  -11.6389    1.0000 </r>
       <r>  -11.5521    1.0000 </r>
       <r>  -11.5447    1.0000 </r>
       <r>  -11.5319    1.0000 </r>
       <r>  -11.5222    1.0000 </r>
       <r>  -11.5094    1.0000 </r>
       <r>  -11.4768    1.0000 </r>
       <r>  -11.4473    1.0000 </r>
       <r>  -11.4281    1.0000 </r>
       <r>  -11.4109    1.0000 </r>
       <r>  -11.3786    1.0000 </r>
       <r>  -11.3755    1.0000 </r>
       <r>  -11.3710    1.0000 </r>
       <r>  -11.3197    1.0000 </r>
       <r>  -11.2709    1.0000 </r>
       <r>  -11.2281    1.0000 </r>
       <r>   -8.0413    1.0000 </r>
       <r>   -7.3987    1.0000 </r>
       <r>   -7.3333    1.0000 </r>
       <r>   -7.2428    1.0000 </r>
       <r>   -7.2232    1.0000 </r>
       <r>   -7.1440    1.0000 </r>
       <r>   -7.0242    1.0000 </r>
       <r>   -6.9944    1.0000 </r>
       <r>   -6.9197    1.0000 </r>
       <r>   -6.9021    1.0000 </r>
       <r>   -6.8436    1.0000 </r>
       <r>   -6.7472    1.0000 </r>
       <r>   -6.7140    1.0000 </r>
       <r>   -6.5180    1.0000 </r>
       <r>   -6.4678    1.0000 </r>
       <r>   -6.4133    1.0000 </r>
       <r>   -4.6947    1.0000 </r>
       <r>   -4.3672    1.0000 </r>
       <r>   -4.2890    1.0000 </r>
       <r>   -3.7224    1.0000 </r>
       <r>   -3.5123    1.0000 </r>
       <r>   -3.4793    1.0000 </r>
       <r>   -3.4367    1.0000 </r>
       <r>   -3.3747    1.0000 </r>
       <r>   -3.3022    1.0000 </r>
       <r>   -3.2364    1.0000 </r>
       <r>   -3.1960    1.0000 </r>
       <r>   -3.1622    1.0000 </r>
       <r>   -3.1580    1.0000 </r>
       <r>   -3.0937    1.0000 </r>
       <r>   -3.0927    1.0000 </r>
       <r>   -3.0438    1.0000 </r>
       <r>   -2.9970    1.0000 </r>
       <r>   -2.9914    1.0000 </r>
       <r>   -2.9319    1.0000 </r>
       <r>   -2.9161    1.0000 </r>
       <r>   -2.8954    1.0000 </r>
       <r>   -2.8528    1.0000 </r>
       <r>   -2.8050    1.0000 </r>
       <r>   -2.7391    1.0000 </r>
       <r>   -2.7329    1.0000 </r>
       <r>   -2.7290    1.0000 </r>
       <r>   -2.7184    1.0000 </r>
       <r>   -2.6874    1.0000 </r>
       <r>   -2.6854    1.0000 </r>
       <r>   -2.6773    1.0000 </r>
       <r>   -2.5573    1.0000 </r>
       <r>   -2.5548    1.0000 </r>
       <r>   -2.4542    1.0000 </r>
       <r>   -2.4016    1.0000 </r>
       <r>   -2.3998    1.0000 </r>
       <r>   -2.3206    1.0000 </r>
       <r>   -2.2760    1.0000 </r>
       <r>   -2.2380    1.0000 </r>
       <r>   -2.1996    1.0000 </r>
       <r>   -2.1936    1.0000 </r>
       <r>   -2.0128    1.0000 </r>
       <r>   -2.0112    1.0000 </r>
       <r>   -1.9240    1.0000 </r>
       <r>   -1.8219    1.0000 </r>
       <r>   -1.5617    1.0000 </r>
       <r>   -1.5055    1.0000 </r>
       <r>   -1.4888    1.0000 </r>
       <r>   -1.4442    1.0000 </r>
       <r>    3.3758    0.0000 </r>
       <r>    3.4285    0.0000 </r>
       <r>    3.5898    0.0000 </r>
       <r>    3.6373    0.0000 </r>
       <r>    3.6851    0.0000 </r>
       <r>    3.7539    0.0000 </r>
       <r>    3.7589    0.0000 </r>
       <r>    3.8610    0.0000 </r>
       <r>    3.8725    0.0000 </r>
       <r>    3.9098    0.0000 </r>
       <r>    3.9366    0.0000 </r>
       <r>    4.0293    0.0000 </r>
       <r>    4.0411    0.0000 </r>
       <r>    4.1332    0.0000 </r>
       <r>    4.1363    0.0000 </r>
       <r>    4.1799    0.0000 </r>
       <r>    6.1864    0.0000 </r>
       <r>    7.4331    0.0000 </r>
       <r>    7.5493    0.0000 </r>
       <r>    7.7586    0.0000 </r>
       <r>    7.7910    0.0000 </r>
       <r>    7.8529    0.0000 </r>
       <r>    7.9325    0.0000 </r>
       <r>    8.0078    0.0000 </r>
      </set>
      <set comment="kpoint 2">
       <r>  -24.2062    1.0000 </r>
       <r>  -24.2054    1.0000 </r>
       <r>  -24.1806    1.0000 </r>
       <r>  -24.1799    1.0000 </r>
       <r>  -24.1788    1.0000 </r>
       <r>  -24.1787    1.0000 </r>
       <r>  -24.1673    1.0000 </r>
       <r>  -24.1672    1.0000 </r>
       <r>  -18.5113    1.0000 </r>
       <r>  -18.5098    1.0000 </r>
       <r>  -18.4824    1.0000 </r>
       <r>  -18.4809    1.0000 </r>
       <r>  -18.4578    1.0000 </r>
       <r>  -18.4569    1.0000 </r>
       <r>  -18.4449    1.0000 </r>
       <r>  -18.4441    1.0000 </r>
       <r>  -18.1840    1.0000 </r>
       <r>  -18.1833    1.0000 </r>
       <r>  -18.1058    1.0000 </r>
       <r>  -18.1056    1.0000 </r>
       <r>  -18.0620    1.0000 </r>
       <r>  -18.0620    1.0000 </r>
       <r>  -18.0473    1.0000 </r>
       <r>  -18.0468    1.0000 </r>
       <r>  -11.6077    1.0000 </r>
       <r>  -11.6074    1.0000 </r>
       <r>  -11.5718    1.0000 </r>
       <r>  -11.5716    1.0000 </r>
       <r>  -11.5016    1.0000 </r>
       <r>  -11.5012    1.0000 </r>
       <r>  -11.4703    1.0000 </r>
       <r>  -11.4690    1.0000 </r>
       <r>  -11.4430    1.0000 </r>
       <r>  -11.4406    1.0000 </r>
       <r>  -11.3281    1.0000 </r>
       <r>  -11.3251    1.0000 </r>
       <r>  -11.3043    1.0000 </r>
       <r>  -11.3024    1.0000 </r>
       <r>  -11.2845    1.0000 </r>
       <r>  -11.2829    1.0000 </r>
       <r>   -7.6575    1.0000 </r>
       <r>   -7.6532    1.0000 </r>
       <r>   -7.2779    1.0000 </r>
       <r>   -7.2766    1.0000 </r>
       <r>   -7.1590    1.0000 </r>
       <r>   -7.1560    1.0000 </r>
       <r>   -7.1166    1.0000 </r>
       <r>   -7.1137    1.0000 </r>
       <r>   -6.9202    1.0000 </r>
       <r>   -6.9152    1.0000 </r>
       <r>   -6.8104    1.0000 </r>
       <r>   -6.8102    1.0000 </r>
       <r>   -6.6074    1.0000 </r>
       <r>   -6.6030    1.0000 </r>
       <r>   -6.5126    1.0000 </r>
       <r>   -6.5110    1.0000 </r>
       <r>   -4.4354    1.0000 </r>
       <r>   -4.4312    1.0000 </r>
       <r>   -3.9185    1.0000 </r>
       <r>   -3.9131    1.0000 </r>
       <r>   -3.6277    1.0000 </r>
       <r>   -3.6241    1.0000 </r>
       <r>   -3.3665    1.0000 </r>
       <r>   -3.3632    1.0000 </r>
       <r>   -3.3186    1.0000 </r>
       <r>   -3.3168    1.0000 </r>
       <r>   -3.1754    1.0000 </r>
       <r>   -3.1753    1.0000 </r>
       <r>   -3.0770    1.0000 </r>
       <r>   -3.0764    1.0000 </r>
       <r>   -3.0671    1.0000 </r>
       <r>   -3.0667    1.0000 </r>
       <r>   -3.0147    1.0000 </r>
       <r>   -3.0130    1.0000 </r>
       <r>   -2.9503    1.0000 </r>
       <r>   -2.9488    1.0000 </r>
       <r>   -2.9427    1.0000 </r>
       <r>   -2.9404    1.0000 </r>
       <r>   -2.8743    1.0000 </r>
       <r>   -2.8739    1.0000 </r>
       <r>   -2.6558    1.0000 </r>
       <r>   -2.6524    1.0000 </r>
       <r>   -2.6156    1.0000 </r>
       <r>   -2.6132    1.0000 </r>
       <r>   -2.5384    1.0000 </r>
       <r>   -2.5366    1.0000 </r>
       <r>   -2.5000    1.0000 </r>
       <r>   -2.4986    1.0000 </r>
       <r>   -2.4962    1.0000 </r>
       <r>   -2.4955    1.0000 </r>
       <r>   -2.4254    1.0000 </r>
       <r>   -2.4234    1.0000 </r>
       <r>   -2.4015    1.0000 </r>
       <r>   -2.4003    1.0000 </r>
       <r>   -2.1947    1.0000 </r>
       <r>   -2.1934    1.0000 </r>
       <r>   -1.7843    1.0000 </r>
       <r>   -1.7819    1.0000 </r>
       <r>   -1.7064    1.0000 </r>
       <r>   -1.7053    1.0000 </r>
       <r>   -1.6929    1.0000 </r>
       <r>   -1.6886    1.0000 </r>
       <r>   -1.5977    1.0000 </r>
       <r>   -1.5949    1.0000 </r>
       <r>    3.4500    0.0000 </r>
       <r>    3.4502    0.0000 </r>
       <r>    3.6848    0.0000 </r>
       <r>    3.6852    0.0000 </r>
       <r>    3.7153    0.0000 </r>
       <r>    3.7174    0.0000 </r>
       <r>    3.8244    0.0000 </r>
       <r>    3.8246    0.0000 </r>
       <r>    3.8450    0.0000 </r>
       <r>    3.8480    0.0000 </r>
       <r>    3.9373    0.0000 </r>
       <r>    3.9383    0.0000 </r>
       <r>    4.0558    0.0000 </r>
       <r>    4.0559    0.0000 </r>
       <r>    4.1035    0.0000 </r>
       <r>    4.1054    0.0000 </r>
       <r>    6.7116    0.0000 </r>
       <r>    6.7213    0.0000 </r>
       <r>    7.5067    0.0000 </r>
       <r>    7.5080    0.0000 </r>
       <r>    7.7902    0.0000 </r>
       <r>    7.7969    0.0000 </r>
       <r>    7.9446    0.0000 </r>
       <r>    7.9478    0.0000 </r>
      </set>
      <set comment="kpoint 3">
       <r>  -24.2224    1.0000 </r>
       <r>  -24.2224    1.0000 </r>
       <r>  -24.1790    1.0000 </r>
       <r>  -24.1790    1.0000 </r>
       <r>  -24.1686    1.0000 </r>
       <r>  -24.1686    1.0000 </r>
       <r>  -24.1615    1.0000 </r>
       <r>  -24.1615    1.0000 </r>
       <r>  -18.5339    1.0000 </r>
       <r>  -18.5339    1.0000 </r>
       <r>  -18.4906    1.0000 </r>
       <r>  -18.4906    1.0000 </r>
       <r>  -18.4831    1.0000 </r>
       <r>  -18.4831    1.0000 </r>
       <r>  -18.3821    1.0000 </r>
       <r>  -18.3821    1.0000 </r>
       <r>  -18.1682    1.0000 </r>
       <r>  -18.1682    1.0000 </r>
       <r>  -18.1299    1.0000 </r>
       <r>  -18.1299    1.0000 </r>
       <r>  -18.0630    1.0000 </r>
       <r>  -18.0630    1.0000 </r>
       <r>  -18.0419    1.0000 </r>
       <r>  -18.0419    1.0000 </r>
       <r>  -11.5834    1.0000 </r>
       <r>  -11.5834    1.0000 </r>
       <r>  -11.5682    1.0000 </r>
       <r>  -11.5682    1.0000 </r>
       <r>  -11.5308    1.0000 </r>
       <r>  -11.5308    1.0000 </r>
       <r>  -11.4512    1.0000 </r>
       <r>  -11.4512    1.0000 </r>
       <r>  -11.4364    1.0000 </r>
       <r>  -11.4364    1.0000 </r>
       <r>  -11.3228    1.0000 </r>
       <r>  -11.3228    1.0000 </r>
       <r>  -11.3159    1.0000 </r>
       <r>  -11.3159    1.0000 </r>
       <r>  -11.2969    1.0000 </r>
       <r>  -11.2969    1.0000 </r>
       <r>   -7.6539    1.0000 </r>
       <r>   -7.6539    1.0000 </r>
       <r>   -7.3637    1.0000 </r>
       <r>   -7.3637    1.0000 </r>
       <r>   -7.2323    1.0000 </r>
       <r>   -7.2323    1.0000 </r>
       <r>   -7.0846    1.0000 </r>
       <r>   -7.0846    1.0000 </r>
       <r>   -6.9198    1.0000 </r>
       <r>   -6.9198    1.0000 </r>
       <r>   -6.7874    1.0000 </r>
       <r>   -6.7874    1.0000 </r>
       <r>   -6.5618    1.0000 </r>
       <r>   -6.5618    1.0000 </r>
       <r>   -6.3612    1.0000 </r>
       <r>   -6.3612    1.0000 </r>
       <r>   -4.6045    1.0000 </r>
       <r>   -4.6045    1.0000 </r>
       <r>   -3.8079    1.0000 </r>
       <r>   -3.8079    1.0000 </r>
       <r>   -3.5640    1.0000 </r>
       <r>   -3.5640    1.0000 </r>
       <r>   -3.4989    1.0000 </r>
       <r>   -3.4989    1.0000 </r>
       <r>   -3.1844    1.0000 </r>
       <r>   -3.1844    1.0000 </r>
       <r>   -3.1820    1.0000 </r>
       <r>   -3.1820    1.0000 </r>
       <r>   -3.1247    1.0000 </r>
       <r>   -3.1247    1.0000 </r>
       <r>   -3.1226    1.0000 </r>
       <r>   -3.1226    1.0000 </r>
       <r>   -2.9901    1.0000 </r>
       <r>   -2.9901    1.0000 </r>
       <r>   -2.9500    1.0000 </r>
       <r>   -2.9500    1.0000 </r>
       <r>   -2.8346    1.0000 </r>
       <r>   -2.8346    1.0000 </r>
       <r>   -2.8184    1.0000 </r>
       <r>   -2.8184    1.0000 </r>
       <r>   -2.7565    1.0000 </r>
       <r>   -2.7565    1.0000 </r>
       <r>   -2.7215    1.0000 </r>
       <r>   -2.7215    1.0000 </r>
       <r>   -2.5299    1.0000 </r>
       <r>   -2.5299    1.0000 </r>
       <r>   -2.5064    1.0000 </r>
       <r>   -2.5064    1.0000 </r>
       <r>   -2.4541    1.0000 </r>
       <r>   -2.4541    1.0000 </r>
       <r>   -2.4377    1.0000 </r>
       <r>   -2.4377    1.0000 </r>
       <r>   -2.3016    1.0000 </r>
       <r>   -2.3016    1.0000 </r>
       <r>   -2.2488    1.0000 </r>
       <r>   -2.2488    1.0000 </r>
       <r>   -1.9144    1.0000 </r>
       <r>   -1.9144    1.0000 </r>
       <r>   -1.9050    1.0000 </r>
       <r>   -1.9050    1.0000 </r>
       <r>   -1.5219    1.0000 </r>
       <r>   -1.5219    1.0000 </r>
       <r>   -1.4652    1.0000 </r>
       <r>   -1.4652    1.0000 </r>
       <r>    3.4516    0.0000 </r>
       <r>    3.4516    0.0000 </r>
       <r>    3.5993    0.0000 </r>
       <r>    3.5993    0.0000 </r>
       <r>    3.6920    0.0000 </r>
       <r>    3.6920    0.0000 </r>
       <r>    3.8507    0.0000 </r>
       <r>    3.8507    0.0000 </r>
       <r>    3.9429    0.0000 </r>
       <r>    3.9429    0.0000 </r>
       <r>    3.9824    0.0000 </r>
       <r>    3.9824    0.0000 </r>
       <r>    4.0130    0.0000 </r>
       <r>    4.0130    0.0000 </r>
       <r>    4.1427    0.0000 </r>
       <r>    4.1427    0.0000 </r>
       <r>    6.6774    0.0000 </r>
       <r>    6.6774    0.0000 </r>
       <r>    7.4679    0.0000 </r>
       <r>    7.4679    0.0000 </r>
       <r>    7.5931    0.0000 </r>
       <r>    7.5931    0.0000 </r>
       <r>    8.1717    0.0000 </r>
       <r>    8.1717    0.0000 </r>
      </set>
      <set comment="kpoint 4">
       <r>  -24.1949    1.0000 </r>
       <r>  -24.1949    1.0000 </r>
       <r>  -24.1940    1.0000 </r>
       <r>  -24.1940    1.0000 </r>
       <r>  -24.1720    1.0000 </r>
       <r>  -24.1720    1.0000 </r>
       <r>  -24.1711    1.0000 </r>
       <r>  -24.1711    1.0000 </r>
       <r>  -18.4996    1.0000 </r>
       <r>  -18.4996    1.0000 </r>
       <r>  -18.4979    1.0000 </r>
       <r>  -18.4979    1.0000 </r>
       <r>  -18.4518    1.0000 </r>
       <r>  -18.4518    1.0000 </r>
       <r>  -18.4499    1.0000 </r>
       <r>  -18.4499    1.0000 </r>
       <r>  -18.1388    1.0000 </r>
       <r>  -18.1388    1.0000 </r>
       <r>  -18.1384    1.0000 </r>
       <r>  -18.1384    1.0000 </r>
       <r>  -18.0581    1.0000 </r>
       <r>  -18.0581    1.0000 </r>
       <r>  -18.0578    1.0000 </r>
       <r>  -18.0578    1.0000 </r>
       <r>  -11.5918    1.0000 </r>
       <r>  -11.5918    1.0000 </r>
       <r>  -11.5908    1.0000 </r>
       <r>  -11.5908    1.0000 </r>
       <r>  -11.4931    1.0000 </r>
       <r>  -11.4931    1.0000 </r>
       <r>  -11.4911    1.0000 </r>
       <r>  -11.4911    1.0000 </r>
       <r>  -11.3964    1.0000 </r>
       <r>  -11.3964    1.0000 </r>
       <r>  -11.3954    1.0000 </r>
       <r>  -11.3954    1.0000 </r>
       <r>  -11.2764    1.0000 </r>
       <r>  -11.2764    1.0000 </r>
       <r>  -11.2745    1.0000 </r>
       <r>  -11.2745    1.0000 </r>
       <r>   -7.4394    1.0000 </r>
       <r>   -7.4394    1.0000 </r>
       <r>   -7.4361    1.0000 </r>
       <r>   -7.4361    1.0000 </r>
       <r>   -7.1647    1.0000 </r>
       <r>   -7.1647    1.0000 </r>
       <r>   -7.1634    1.0000 </r>
       <r>   -7.1634    1.0000 </r>
       <r>   -6.8750    1.0000 </r>
       <r>   -6.8750    1.0000 </r>
       <r>   -6.8702    1.0000 </r>
       <r>   -6.8702    1.0000 </r>
       <r>   -6.5615    1.0000 </r>
       <r>   -6.5615    1.0000 </r>
       <r>   -6.5592    1.0000 </r>
       <r>   -6.5592    1.0000 </r>
       <r>   -4.2693    1.0000 </r>
       <r>   -4.2693    1.0000 </r>
       <r>   -4.2671    1.0000 </r>
       <r>   -4.2671    1.0000 </r>
       <r>   -3.3614    1.0000 </r>
       <r>   -3.3614    1.0000 </r>
       <r>   -3.3570    1.0000 </r>
       <r>   -3.3570    1.0000 </r>
       <r>   -3.1143    1.0000 </r>
       <r>   -3.1143    1.0000 </r>
       <r>   -3.1131    1.0000 </r>
       <r>   -3.1131    1.0000 </r>
       <r>   -3.0814    1.0000 </r>
       <r>   -3.0814    1.0000 </r>
       <r>   -3.0804    1.0000 </r>
       <r>   -3.0804    1.0000 </r>
       <r>   -3.0519    1.0000 </r>
       <r>   -3.0519    1.0000 </r>
       <r>   -3.0506    1.0000 </r>
       <r>   -3.0506    1.0000 </r>
       <r>   -2.9374    1.0000 </r>
       <r>   -2.9374    1.0000 </r>
       <r>   -2.9351    1.0000 </r>
       <r>   -2.9351    1.0000 </r>
       <r>   -2.7247    1.0000 </r>
       <r>   -2.7247    1.0000 </r>
       <r>   -2.7215    1.0000 </r>
       <r>   -2.7215    1.0000 </r>
       <r>   -2.5223    1.0000 </r>
       <r>   -2.5223    1.0000 </r>
       <r>   -2.5205    1.0000 </r>
       <r>   -2.5205    1.0000 </r>
       <r>   -2.4645    1.0000 </r>
       <r>   -2.4645    1.0000 </r>
       <r>   -2.4626    1.0000 </r>
       <r>   -2.4626    1.0000 </r>
       <r>   -2.2497    1.0000 </r>
       <r>   -2.2497    1.0000 </r>
       <r>   -2.2482    1.0000 </r>
       <r>   -2.2482    1.0000 </r>
       <r>   -1.7784    1.0000 </r>
       <r>   -1.7784    1.0000 </r>
       <r>   -1.7743    1.0000 </r>
       <r>   -1.7743    1.0000 </r>
       <r>   -1.6264    1.0000 </r>
       <r>   -1.6264    1.0000 </r>
       <r>   -1.6226    1.0000 </r>
       <r>   -1.6226    1.0000 </r>
       <r>    3.5399    0.0000 </r>
       <r>    3.5399    0.0000 </r>
       <r>    3.5424    0.0000 </r>
       <r>    3.5424    0.0000 </r>
       <r>    3.8549    0.0000 </r>
       <r>    3.8549    0.0000 </r>
       <r>    3.8589    0.0000 </r>
       <r>    3.8589    0.0000 </r>
       <r>    3.8896    0.0000 </r>
       <r>    3.8896    0.0000 </r>
       <r>    3.8909    0.0000 </r>
       <r>    3.8909    0.0000 </r>
       <r>    4.0241    0.0000 </r>
       <r>    4.0241    0.0000 </r>
       <r>    4.0274    0.0000 </r>
       <r>    4.0274    0.0000 </r>
       <r>    7.0245    0.0000 </r>
       <r>    7.0245    0.0000 </r>
       <r>    7.0324    0.0000 </r>
       <r>    7.0324    0.0000 </r>
       <r>    7.7475    0.0000 </r>
       <r>    7.7475    0.0000 </r>
       <r>    7.7545    0.0000 </r>
       <r>    7.7545    0.0000 </r>
      </set>
      <set comment="kpoint 5">
       <r>  -24.2182    1.0000 </r>
       <r>  -24.2178    1.0000 </r>
       <r>  -24.1899    1.0000 </r>
       <r>  -24.1895    1.0000 </r>
       <r>  -24.1632    1.0000 </r>
       <r>  -24.1628    1.0000 </r>
       <r>  -24.1612    1.0000 </r>
       <r>  -24.1608    1.0000 </r>
       <r>  -18.5271    1.0000 </r>
       <r>  -18.5268    1.0000 </r>
       <r>  -18.5122    1.0000 </r>
       <r>  -18.5119    1.0000 </r>
       <r>  -18.4330    1.0000 </r>
       <r>  -18.4328    1.0000 </r>
       <r>  -18.4111    1.0000 </r>
       <r>  -18.4108    1.0000 </r>
       <r>  -18.1881    1.0000 </r>
       <r>  -18.1875    1.0000 </r>
       <r>  -18.1024    1.0000 </r>
       <r>  -18.1022    1.0000 </r>
       <r>  -18.0722    1.0000 </r>
       <r>  -18.0715    1.0000 </r>
       <r>  -18.0497    1.0000 </r>
       <r>  -18.0494    1.0000 </r>
       <r>  -11.5713    1.0000 </r>
       <r>  -11.5709    1.0000 </r>
       <r>  -11.5197    1.0000 </r>
       <r>  -11.5196    1.0000 </r>
       <r>  -11.5176    1.0000 </r>
       <r>  -11.5172    1.0000 </r>
       <r>  -11.4800    1.0000 </r>
       <r>  -11.4799    1.0000 </r>
       <r>  -11.4228    1.0000 </r>
       <r>  -11.4225    1.0000 </r>
       <r>  -11.3858    1.0000 </r>
       <r>  -11.3853    1.0000 </r>
       <r>  -11.3404    1.0000 </r>
       <r>  -11.3401    1.0000 </r>
       <r>  -11.2645    1.0000 </r>
       <r>  -11.2643    1.0000 </r>
       <r>   -7.7954    1.0000 </r>
       <r>   -7.7950    1.0000 </r>
       <r>   -7.2080    1.0000 </r>
       <r>   -7.2079    1.0000 </r>
       <r>   -7.1943    1.0000 </r>
       <r>   -7.1927    1.0000 </r>
       <r>   -7.0286    1.0000 </r>
       <r>   -7.0282    1.0000 </r>
       <r>   -7.0215    1.0000 </r>
       <r>   -7.0211    1.0000 </r>
       <r>   -6.6449    1.0000 </r>
       <r>   -6.6449    1.0000 </r>
       <r>   -6.6018    1.0000 </r>
       <r>   -6.6016    1.0000 </r>
       <r>   -6.4850    1.0000 </r>
       <r>   -6.4848    1.0000 </r>
       <r>   -4.6121    1.0000 </r>
       <r>   -4.6118    1.0000 </r>
       <r>   -3.8030    1.0000 </r>
       <r>   -3.8028    1.0000 </r>
       <r>   -3.6466    1.0000 </r>
       <r>   -3.6466    1.0000 </r>
       <r>   -3.3079    1.0000 </r>
       <r>   -3.3076    1.0000 </r>
       <r>   -3.3007    1.0000 </r>
       <r>   -3.3001    1.0000 </r>
       <r>   -3.1622    1.0000 </r>
       <r>   -3.1621    1.0000 </r>
       <r>   -3.0514    1.0000 </r>
       <r>   -3.0509    1.0000 </r>
       <r>   -3.0319    1.0000 </r>
       <r>   -3.0315    1.0000 </r>
       <r>   -3.0043    1.0000 </r>
       <r>   -3.0035    1.0000 </r>
       <r>   -2.9852    1.0000 </r>
       <r>   -2.9851    1.0000 </r>
       <r>   -2.9157    1.0000 </r>
       <r>   -2.9150    1.0000 </r>
       <r>   -2.8429    1.0000 </r>
       <r>   -2.8425    1.0000 </r>
       <r>   -2.7141    1.0000 </r>
       <r>   -2.7139    1.0000 </r>
       <r>   -2.6525    1.0000 </r>
       <r>   -2.6518    1.0000 </r>
       <r>   -2.6464    1.0000 </r>
       <r>   -2.6457    1.0000 </r>
       <r>   -2.5654    1.0000 </r>
       <r>   -2.5644    1.0000 </r>
       <r>   -2.5191    1.0000 </r>
       <r>   -2.5189    1.0000 </r>
       <r>   -2.4440    1.0000 </r>
       <r>   -2.4434    1.0000 </r>
       <r>   -2.2059    1.0000 </r>
       <r>   -2.2055    1.0000 </r>
       <r>   -2.1256    1.0000 </r>
       <r>   -2.1252    1.0000 </r>
       <r>   -2.0340    1.0000 </r>
       <r>   -2.0331    1.0000 </r>
       <r>   -1.8891    1.0000 </r>
       <r>   -1.8884    1.0000 </r>
       <r>   -1.5145    1.0000 </r>
       <r>   -1.5138    1.0000 </r>
       <r>   -1.4642    1.0000 </r>
       <r>   -1.4633    1.0000 </r>
       <r>    3.4628    0.0000 </r>
       <r>    3.4640    0.0000 </r>
       <r>    3.6322    0.0000 </r>
       <r>    3.6326    0.0000 </r>
       <r>    3.6815    0.0000 </r>
       <r>    3.6819    0.0000 </r>
       <r>    3.8224    0.0000 </r>
       <r>    3.8227    0.0000 </r>
       <r>    3.8448    0.0000 </r>
       <r>    3.8452    0.0000 </r>
       <r>    3.9811    0.0000 </r>
       <r>    3.9816    0.0000 </r>
       <r>    4.0968    0.0000 </r>
       <r>    4.0971    0.0000 </r>
       <r>    4.1091    0.0000 </r>
       <r>    4.1091    0.0000 </r>
       <r>    6.5978    0.0000 </r>
       <r>    6.5994    0.0000 </r>
       <r>    7.6111    0.0000 </r>
       <r>    7.6116    0.0000 </r>
       <r>    7.9237    0.0000 </r>
       <r>    7.9243    0.0000 </r>
       <r>    8.1486    0.0000 </r>
       <r>    8.1517    0.0000 </r>
      </set>
      <set comment="kpoint 6">
       <r>  -24.1938    1.0000 </r>
       <r>  -24.1930    1.0000 </r>
       <r>  -24.1927    1.0000 </r>
       <r>  -24.1927    1.0000 </r>
       <r>  -24.1737    1.0000 </r>
       <r>  -24.1730    1.0000 </r>
       <r>  -24.1728    1.0000 </r>
       <r>  -24.1727    1.0000 </r>
       <r>  -18.4832    1.0000 </r>
       <r>  -18.4820    1.0000 </r>
       <r>  -18.4813    1.0000 </r>
       <r>  -18.4806    1.0000 </r>
       <r>  -18.4636    1.0000 </r>
       <r>  -18.4625    1.0000 </r>
       <r>  -18.4619    1.0000 </r>
       <r>  -18.4611    1.0000 </r>
       <r>  -18.1506    1.0000 </r>
       <r>  -18.1494    1.0000 </r>
       <r>  -18.1494    1.0000 </r>
       <r>  -18.1491    1.0000 </r>
       <r>  -18.0540    1.0000 </r>
       <r>  -18.0533    1.0000 </r>
       <r>  -18.0532    1.0000 </r>
       <r>  -18.0524    1.0000 </r>
       <r>  -11.5537    1.0000 </r>
       <r>  -11.5535    1.0000 </r>
       <r>  -11.5522    1.0000 </r>
       <r>  -11.5519    1.0000 </r>
       <r>  -11.5287    1.0000 </r>
       <r>  -11.5282    1.0000 </r>
       <r>  -11.5268    1.0000 </r>
       <r>  -11.5264    1.0000 </r>
       <r>  -11.3679    1.0000 </r>
       <r>  -11.3678    1.0000 </r>
       <r>  -11.3659    1.0000 </r>
       <r>  -11.3656    1.0000 </r>
       <r>  -11.3061    1.0000 </r>
       <r>  -11.3060    1.0000 </r>
       <r>  -11.3036    1.0000 </r>
       <r>  -11.3034    1.0000 </r>
       <r>   -7.4622    1.0000 </r>
       <r>   -7.4618    1.0000 </r>
       <r>   -7.4581    1.0000 </r>
       <r>   -7.4579    1.0000 </r>
       <r>   -7.1354    1.0000 </r>
       <r>   -7.1354    1.0000 </r>
       <r>   -7.1332    1.0000 </r>
       <r>   -7.1328    1.0000 </r>
       <r>   -6.9606    1.0000 </r>
       <r>   -6.9603    1.0000 </r>
       <r>   -6.9566    1.0000 </r>
       <r>   -6.9565    1.0000 </r>
       <r>   -6.4800    1.0000 </r>
       <r>   -6.4796    1.0000 </r>
       <r>   -6.4787    1.0000 </r>
       <r>   -6.4780    1.0000 </r>
       <r>   -4.1940    1.0000 </r>
       <r>   -4.1938    1.0000 </r>
       <r>   -4.1901    1.0000 </r>
       <r>   -4.1895    1.0000 </r>
       <r>   -3.4713    1.0000 </r>
       <r>   -3.4711    1.0000 </r>
       <r>   -3.4708    1.0000 </r>
       <r>   -3.4707    1.0000 </r>
       <r>   -3.2353    1.0000 </r>
       <r>   -3.2352    1.0000 </r>
       <r>   -3.2336    1.0000 </r>
       <r>   -3.2333    1.0000 </r>
       <r>   -3.0980    1.0000 </r>
       <r>   -3.0977    1.0000 </r>
       <r>   -3.0961    1.0000 </r>
       <r>   -3.0959    1.0000 </r>
       <r>   -3.0195    1.0000 </r>
       <r>   -3.0192    1.0000 </r>
       <r>   -3.0168    1.0000 </r>
       <r>   -3.0166    1.0000 </r>
       <r>   -2.8140    1.0000 </r>
       <r>   -2.8134    1.0000 </r>
       <r>   -2.8117    1.0000 </r>
       <r>   -2.8117    1.0000 </r>
       <r>   -2.6850    1.0000 </r>
       <r>   -2.6849    1.0000 </r>
       <r>   -2.6839    1.0000 </r>
       <r>   -2.6837    1.0000 </r>
       <r>   -2.5762    1.0000 </r>
       <r>   -2.5761    1.0000 </r>
       <r>   -2.5735    1.0000 </r>
       <r>   -2.5733    1.0000 </r>
       <r>   -2.4228    1.0000 </r>
       <r>   -2.4225    1.0000 </r>
       <r>   -2.4211    1.0000 </r>
       <r>   -2.4206    1.0000 </r>
       <r>   -2.2942    1.0000 </r>
       <r>   -2.2935    1.0000 </r>
       <r>   -2.2912    1.0000 </r>
       <r>   -2.2911    1.0000 </r>
       <r>   -1.7248    1.0000 </r>
       <r>   -1.7246    1.0000 </r>
       <r>   -1.7209    1.0000 </r>
       <r>   -1.7200    1.0000 </r>
       <r>   -1.6504    1.0000 </r>
       <r>   -1.6500    1.0000 </r>
       <r>   -1.6475    1.0000 </r>
       <r>   -1.6466    1.0000 </r>
       <r>    3.5597    0.0000 </r>
       <r>    3.5604    0.0000 </r>
       <r>    3.5608    0.0000 </r>
       <r>    3.5610    0.0000 </r>
       <r>    3.8012    0.0000 </r>
       <r>    3.8014    0.0000 </r>
       <r>    3.8019    0.0000 </r>
       <r>    3.8023    0.0000 </r>
       <r>    3.8769    0.0000 </r>
       <r>    3.8775    0.0000 </r>
       <r>    3.8792    0.0000 </r>
       <r>    3.8802    0.0000 </r>
       <r>    4.0458    0.0000 </r>
       <r>    4.0460    0.0000 </r>
       <r>    4.0501    0.0000 </r>
       <r>    4.0502    0.0000 </r>
       <r>    7.0113    0.0000 </r>
       <r>    7.0123    0.0000 </r>
       <r>    7.0186    0.0000 </r>
       <r>    7.0198    0.0000 </r>
       <r>    7.9665    0.0000 </r>
       <r>    7.9670    0.0000 </r>
       <r>    7.9683    0.0000 </r>
       <r>    7.9693    0.0000 </r>
      </set>
      <set comment="kpoint 7">
       <r>  -24.2096    1.0000 </r>
       <r>  -24.2096    1.0000 </r>
       <r>  -24.1980    1.0000 </r>
       <r>  -24.1980    1.0000 </r>
       <r>  -24.1674    1.0000 </r>
       <r>  -24.1674    1.0000 </r>
       <r>  -24.1567    1.0000 </r>
       <r>  -24.1567    1.0000 </r>
       <r>  -18.5257    1.0000 </r>
       <r>  -18.5257    1.0000 </r>
       <r>  -18.5153    1.0000 </r>
       <r>  -18.5153    1.0000 </r>
       <r>  -18.4234    1.0000 </r>
       <r>  -18.4234    1.0000 </r>
       <r>  -18.4221    1.0000 </r>
       <r>  -18.4221    1.0000 </r>
       <r>  -18.1576    1.0000 </r>
       <r>  -18.1576    1.0000 </r>
       <r>  -18.1160    1.0000 </r>
       <r>  -18.1160    1.0000 </r>
       <r>  -18.0909    1.0000 </r>
       <r>  -18.0909    1.0000 </r>
       <r>  -18.0435    1.0000 </r>
       <r>  -18.0435    1.0000 </r>
       <r>  -11.5754    1.0000 </r>
       <r>  -11.5754    1.0000 </r>
       <r>  -11.5426    1.0000 </r>
       <r>  -11.5426    1.0000 </r>
       <r>  -11.4972    1.0000 </r>
       <r>  -11.4972    1.0000 </r>
       <r>  -11.4545    1.0000 </r>
       <r>  -11.4545    1.0000 </r>
       <r>  -11.4540    1.0000 </r>
       <r>  -11.4540    1.0000 </r>
       <r>  -11.3777    1.0000 </r>
       <r>  -11.3777    1.0000 </r>
       <r>  -11.3258    1.0000 </r>
       <r>  -11.3258    1.0000 </r>
       <r>  -11.2767    1.0000 </r>
       <r>  -11.2767    1.0000 </r>
       <r>   -7.5701    1.0000 </r>
       <r>   -7.5701    1.0000 </r>
       <r>   -7.4806    1.0000 </r>
       <r>   -7.4806    1.0000 </r>
       <r>   -7.1250    1.0000 </r>
       <r>   -7.1250    1.0000 </r>
       <r>   -7.0479    1.0000 </r>
       <r>   -7.0479    1.0000 </r>
       <r>   -6.9581    1.0000 </r>
       <r>   -6.9581    1.0000 </r>
       <r>   -6.8142    1.0000 </r>
       <r>   -6.8142    1.0000 </r>
       <r>   -6.7130    1.0000 </r>
       <r>   -6.7130    1.0000 </r>
       <r>   -6.3123    1.0000 </r>
       <r>   -6.3123    1.0000 </r>
       <r>   -4.4697    1.0000 </r>
       <r>   -4.4697    1.0000 </r>
       <r>   -3.7104    1.0000 </r>
       <r>   -3.7104    1.0000 </r>
       <r>   -3.6209    1.0000 </r>
       <r>   -3.6209    1.0000 </r>
       <r>   -3.4760    1.0000 </r>
       <r>   -3.4760    1.0000 </r>
       <r>   -3.3153    1.0000 </r>
       <r>   -3.3153    1.0000 </r>
       <r>   -3.2786    1.0000 </r>
       <r>   -3.2786    1.0000 </r>
       <r>   -3.1038    1.0000 </r>
       <r>   -3.1038    1.0000 </r>
       <r>   -3.0290    1.0000 </r>
       <r>   -3.0290    1.0000 </r>
       <r>   -2.9969    1.0000 </r>
       <r>   -2.9969    1.0000 </r>
       <r>   -2.9267    1.0000 </r>
       <r>   -2.9267    1.0000 </r>
       <r>   -2.8747    1.0000 </r>
       <r>   -2.8747    1.0000 </r>
       <r>   -2.8714    1.0000 </r>
       <r>   -2.8714    1.0000 </r>
       <r>   -2.7348    1.0000 </r>
       <r>   -2.7348    1.0000 </r>
       <r>   -2.6907    1.0000 </r>
       <r>   -2.6907    1.0000 </r>
       <r>   -2.6199    1.0000 </r>
       <r>   -2.6199    1.0000 </r>
       <r>   -2.5560    1.0000 </r>
       <r>   -2.5560    1.0000 </r>
       <r>   -2.5201    1.0000 </r>
       <r>   -2.5201    1.0000 </r>
       <r>   -2.3048    1.0000 </r>
       <r>   -2.3048    1.0000 </r>
       <r>   -2.2330    1.0000 </r>
       <r>   -2.2330    1.0000 </r>
       <r>   -2.2189    1.0000 </r>
       <r>   -2.2189    1.0000 </r>
       <r>   -1.9828    1.0000 </r>
       <r>   -1.9828    1.0000 </r>
       <r>   -1.8867    1.0000 </r>
       <r>   -1.8867    1.0000 </r>
       <r>   -1.5032    1.0000 </r>
       <r>   -1.5032    1.0000 </r>
       <r>   -1.4679    1.0000 </r>
       <r>   -1.4679    1.0000 </r>
       <r>    3.5191    0.0000 </r>
       <r>    3.5191    0.0000 </r>
       <r>    3.5992    0.0000 </r>
       <r>    3.5992    0.0000 </r>
       <r>    3.7635    0.0000 </r>
       <r>    3.7635    0.0000 </r>
       <r>    3.8252    0.0000 </r>
       <r>    3.8252    0.0000 </r>
       <r>    3.8281    0.0000 </r>
       <r>    3.8281    0.0000 </r>
       <r>    3.9234    0.0000 </r>
       <r>    3.9234    0.0000 </r>
       <r>    4.0530    0.0000 </r>
       <r>    4.0530    0.0000 </r>
       <r>    4.1322    0.0000 </r>
       <r>    4.1322    0.0000 </r>
       <r>    6.7649    0.0000 </r>
       <r>    6.7649    0.0000 </r>
       <r>    7.4230    0.0000 </r>
       <r>    7.4230    0.0000 </r>
       <r>    7.6173    0.0000 </r>
       <r>    7.6173    0.0000 </r>
       <r>    8.2432    0.0000 </r>
       <r>    8.2432    0.0000 </r>
      </set>
      <set comment="kpoint 8">
       <r>  -24.1891    1.0000 </r>
       <r>  -24.1891    1.0000 </r>
       <r>  -24.1882    1.0000 </r>
       <r>  -24.1882    1.0000 </r>
       <r>  -24.1779    1.0000 </r>
       <r>  -24.1779    1.0000 </r>
       <r>  -24.1770    1.0000 </r>
       <r>  -24.1770    1.0000 </r>
       <r>  -18.4815    1.0000 </r>
       <r>  -18.4815    1.0000 </r>
       <r>  -18.4796    1.0000 </r>
       <r>  -18.4796    1.0000 </r>
       <r>  -18.4666    1.0000 </r>
       <r>  -18.4666    1.0000 </r>
       <r>  -18.4648    1.0000 </r>
       <r>  -18.4648    1.0000 </r>
       <r>  -18.1350    1.0000 </r>
       <r>  -18.1350    1.0000 </r>
       <r>  -18.1347    1.0000 </r>
       <r>  -18.1347    1.0000 </r>
       <r>  -18.0658    1.0000 </r>
       <r>  -18.0658    1.0000 </r>
       <r>  -18.0654    1.0000 </r>
       <r>  -18.0654    1.0000 </r>
       <r>  -11.5762    1.0000 </r>
       <r>  -11.5762    1.0000 </r>
       <r>  -11.5755    1.0000 </r>
       <r>  -11.5755    1.0000 </r>
       <r>  -11.4849    1.0000 </r>
       <r>  -11.4849    1.0000 </r>
       <r>  -11.4837    1.0000 </r>
       <r>  -11.4837    1.0000 </r>
       <r>  -11.4080    1.0000 </r>
       <r>  -11.4080    1.0000 </r>
       <r>  -11.4072    1.0000 </r>
       <r>  -11.4072    1.0000 </r>
       <r>  -11.2867    1.0000 </r>
       <r>  -11.2867    1.0000 </r>
       <r>  -11.2856    1.0000 </r>
       <r>  -11.2856    1.0000 </r>
       <r>   -7.3921    1.0000 </r>
       <r>   -7.3921    1.0000 </r>
       <r>   -7.3902    1.0000 </r>
       <r>   -7.3902    1.0000 </r>
       <r>   -7.1756    1.0000 </r>
       <r>   -7.1756    1.0000 </r>
       <r>   -7.1730    1.0000 </r>
       <r>   -7.1730    1.0000 </r>
       <r>   -6.9402    1.0000 </r>
       <r>   -6.9402    1.0000 </r>
       <r>   -6.9375    1.0000 </r>
       <r>   -6.9375    1.0000 </r>
       <r>   -6.5536    1.0000 </r>
       <r>   -6.5536    1.0000 </r>
       <r>   -6.5532    1.0000 </r>
       <r>   -6.5532    1.0000 </r>
       <r>   -4.1504    1.0000 </r>
       <r>   -4.1504    1.0000 </r>
       <r>   -4.1479    1.0000 </r>
       <r>   -4.1479    1.0000 </r>
       <r>   -3.4593    1.0000 </r>
       <r>   -3.4593    1.0000 </r>
       <r>   -3.4585    1.0000 </r>
       <r>   -3.4585    1.0000 </r>
       <r>   -3.2566    1.0000 </r>
       <r>   -3.2566    1.0000 </r>
       <r>   -3.2558    1.0000 </r>
       <r>   -3.2558    1.0000 </r>
       <r>   -3.0728    1.0000 </r>
       <r>   -3.0728    1.0000 </r>
       <r>   -3.0726    1.0000 </r>
       <r>   -3.0726    1.0000 </r>
       <r>   -2.9686    1.0000 </r>
       <r>   -2.9686    1.0000 </r>
       <r>   -2.9681    1.0000 </r>
       <r>   -2.9681    1.0000 </r>
       <r>   -2.8459    1.0000 </r>
       <r>   -2.8459    1.0000 </r>
       <r>   -2.8443    1.0000 </r>
       <r>   -2.8443    1.0000 </r>
       <r>   -2.7303    1.0000 </r>
       <r>   -2.7303    1.0000 </r>
       <r>   -2.7291    1.0000 </r>
       <r>   -2.7291    1.0000 </r>
       <r>   -2.5886    1.0000 </r>
       <r>   -2.5886    1.0000 </r>
       <r>   -2.5872    1.0000 </r>
       <r>   -2.5872    1.0000 </r>
       <r>   -2.4498    1.0000 </r>
       <r>   -2.4498    1.0000 </r>
       <r>   -2.4484    1.0000 </r>
       <r>   -2.4484    1.0000 </r>
       <r>   -2.2478    1.0000 </r>
       <r>   -2.2478    1.0000 </r>
       <r>   -2.2468    1.0000 </r>
       <r>   -2.2468    1.0000 </r>
       <r>   -1.7165    1.0000 </r>
       <r>   -1.7165    1.0000 </r>
       <r>   -1.7143    1.0000 </r>
       <r>   -1.7143    1.0000 </r>
       <r>   -1.6648    1.0000 </r>
       <r>   -1.6648    1.0000 </r>
       <r>   -1.6634    1.0000 </r>
       <r>   -1.6634    1.0000 </r>
       <r>    3.5930    0.0000 </r>
       <r>    3.5930    0.0000 </r>
       <r>    3.5938    0.0000 </r>
       <r>    3.5938    0.0000 </r>
       <r>    3.7959    0.0000 </r>
       <r>    3.7959    0.0000 </r>
       <r>    3.8002    0.0000 </r>
       <r>    3.8002    0.0000 </r>
       <r>    3.9032    0.0000 </r>
       <r>    3.9032    0.0000 </r>
       <r>    3.9046    0.0000 </r>
       <r>    3.9046    0.0000 </r>
       <r>    3.9960    0.0000 </r>
       <r>    3.9960    0.0000 </r>
       <r>    3.9982    0.0000 </r>
       <r>    3.9982    0.0000 </r>
       <r>    7.0482    0.0000 </r>
       <r>    7.0482    0.0000 </r>
       <r>    7.0544    0.0000 </r>
       <r>    7.0544    0.0000 </r>
       <r>    7.8442    0.0000 </r>
       <r>    7.8442    0.0000 </r>
       <r>    7.8454    0.0000 </r>
       <r>    7.8454    0.0000 </r>
      </set>
     </set>
    </set>
   </array>
  </eigenvalues>
  <separator name="orbital magnetization" >
   <v name="MAGDIPOLOUT">      0.00000000      0.00000000      0.00000000</v>
  </separator>
  <dos>
   <i name="efermi">     -0.45750197 </i>
   <total>
    <array>
     <dimension dim="1">gridpoints</dimension>
     <dimension dim="2">spin</dimension>
     <field>energy</field>
     <field>total</field>
     <field>integrated</field>
     <set>
      <set comment="spin 1">
       <r>   -26.2396     0.0000     0.0000 </r>
       <r>   -26.1180     0.0000     0.0000 </r>
       <r>   -25.9964     0.0000     0.0000 </r>
       <r>   -25.8748     0.0000     0.0000 </r>
       <r>   -25.7532     0.0000     0.0000 </r>
       <r>   -25.6315     0.0000     0.0000 </r>
       <r>   -25.5099     0.0000     0.0000 </r>
       <r>   -25.3883     0.0000     0.0000 </r>
       <r>   -25.2667     0.0000     0.0000 </r>
       <r>   -25.1451     0.0000     0.0000 </r>
       <r>   -25.0235     0.0000     0.0000 </r>
       <r>   -24.9019     0.0000     0.0000 </r>
       <r>   -24.7803     0.0019     0.0002 </r>
       <r>   -24.6587     0.0546     0.0069 </r>
       <r>   -24.5371     0.8036     0.1046 </r>
       <r>   -24.4155     5.9232     0.8249 </r>
       <r>   -24.2938    21.9480     3.4940 </r>
       <r>   -24.1722    40.9856     8.4782 </r>
       <r>   -24.0506    38.6070    13.1732 </r>
       <r>   -23.9290    18.3240    15.4015 </r>
       <r>   -23.8074     4.3687    15.9328 </r>
       <r>   -23.6858     0.5208    15.9961 </r>
       <r>   -23.5642     0.0309    15.9999 </r>
       <r>   -23.4426     0.0009    16.0000 </r>
       <r>   -23.3210     0.0000    16.0000 </r>
       <r>   -23.1994     0.0000    16.0000 </r>
       <r>   -23.0778     0.0000    16.0000 </r>
       <r>   -22.9561     0.0000    16.0000 </r>
       <r>   -22.8345     0.0000    16.0000 </r>
       <r>   -22.7129     0.0000    16.0000 </r>
       <r>   -22.5913     0.0000    16.0000 </r>
       <r>   -22.4697     0.0000    16.0000 </r>
       <r>   -22.3481     0.0000    16.0000 </r>
       <r>   -22.2265     0.0000    16.0000 </r>
       <r>   -22.1049     0.0000    16.0000 </r>
       <r>   -21.9833     0.0000    16.0000 </r>
       <r>   -21.8617     0.0000    16.0000 </r>
       <r>   -21.7401     0.0000    16.0000 </r>
       <r>   -21.6184     0.0000    16.0000 </r>
       <r>   -21.4968     0.0000    16.0000 </r>
       <r>   -21.3752     0.0000    16.0000 </r>
       <r>   -21.2536     0.0000    16.0000 </r>
       <r>   -21.1320     0.0000    16.0000 </r>
       <r>   -21.0104     0.0000    16.0000 </r>
       <r>   -20.8888     0.0000    16.0000 </r>
       <r>   -20.7672     0.0000    16.0000 </r>
       <r>   -20.6456     0.0000    16.0000 </r>
       <r>   -20.5240     0.0000    16.0000 </r>
       <r>   -20.4024     0.0000    16.0000 </r>
       <r>   -20.2807     0.0000    16.0000 </r>
       <r>   -20.1591     0.0000    16.0000 </r>
       <r>   -20.0375     0.0000    16.0000 </r>
       <r>   -19.9159     0.0000    16.0000 </r>
       <r>   -19.7943     0.0000    16.0000 </r>
       <r>   -19.6727     0.0000    16.0000 </r>
       <r>   -19.5511     0.0000    16.0000 </r>
       <r>   -19.4295     0.0000    16.0000 </r>
       <r>   -19.3079     0.0000    16.0000 </r>
       <r>   -19.1863     0.0001    16.0000 </r>
       <r>   -19.0647     0.0032    16.0004 </r>
       <r>   -18.9430     0.0804    16.0102 </r>
       <r>   -18.8214     1.0378    16.1364 </r>
       <r>   -18.6998     6.8305    16.9670 </r>
       <r>   -18.5782    23.1870    19.7868 </r>
       <r>   -18.4566    41.5805    24.8433 </r>
       <r>   -18.3350    43.6931    30.1568 </r>
       <r>   -18.2134    39.6852    34.9829 </r>
       <r>   -18.0918    43.6153    40.2869 </r>
       <r>   -17.9702    38.2068    44.9332 </r>
       <r>   -17.8486    19.2813    47.2780 </r>
       <r>   -17.7270     5.1671    47.9064 </r>
       <r>   -17.6053     0.7172    47.9936 </r>
       <r>   -17.4837     0.0508    47.9998 </r>
       <r>   -17.3621     0.0018    48.0000 </r>
       <r>   -17.2405     0.0000    48.0000 </r>
       <r>   -17.1189     0.0000    48.0000 </r>
       <r>   -16.9973     0.0000    48.0000 </r>
       <r>   -16.8757     0.0000    48.0000 </r>
       <r>   -16.7541     0.0000    48.0000 </r>
       <r>   -16.6325     0.0000    48.0000 </r>
       <r>   -16.5109     0.0000    48.0000 </r>
       <r>   -16.3893     0.0000    48.0000 </r>
       <r>   -16.2676     0.0000    48.0000 </r>
       <r>   -16.1460     0.0000    48.0000 </r>
       <r>   -16.0244     0.0000    48.0000 </r>
       <r>   -15.9028     0.0000    48.0000 </r>
       <r>   -15.7812     0.0000    48.0000 </r>
       <r>   -15.6596     0.0000    48.0000 </r>
       <r>   -15.5380     0.0000    48.0000 </r>
       <r>   -15.4164     0.0000    48.0000 </r>
       <r>   -15.2948     0.0000    48.0000 </r>
       <r>   -15.1732     0.0000    48.0000 </r>
       <r>   -15.0515     0.0000    48.0000 </r>
       <r>   -14.9299     0.0000    48.0000 </r>
       <r>   -14.8083     0.0000    48.0000 </r>
       <r>   -14.6867     0.0000    48.0000 </r>
       <r>   -14.5651     0.0000    48.0000 </r>
       <r>   -14.4435     0.0000    48.0000 </r>
       <r>   -14.3219     0.0000    48.0000 </r>
       <r>   -14.2003     0.0000    48.0000 </r>
       <r>   -14.0787     0.0000    48.0000 </r>
       <r>   -13.9571     0.0000    48.0000 </r>
       <r>   -13.8355     0.0000    48.0000 </r>
       <r>   -13.7138     0.0000    48.0000 </r>
       <r>   -13.5922     0.0000    48.0000 </r>
       <r>   -13.4706     0.0000    48.0000 </r>
       <r>   -13.3490     0.0000    48.0000 </r>
       <r>   -13.2274     0.0000    48.0000 </r>
       <r>   -13.1058     0.0000    48.0000 </r>
       <r>   -12.9842     0.0000    48.0000 </r>
       <r>   -12.8626     0.0000    48.0000 </r>
       <r>   -12.7410     0.0000    48.0000 </r>
       <r>   -12.6194     0.0000    48.0000 </r>
       <r>   -12.4978     0.0000    48.0000 </r>
       <r>   -12.3761     0.0000    48.0000 </r>
       <r>   -12.2545     0.0001    48.0000 </r>
       <r>   -12.1329     0.0031    48.0004 </r>
       <r>   -12.0113     0.0772    48.0098 </r>
       <r>   -11.8897     0.9827    48.1293 </r>
       <r>   -11.7681     6.6265    48.9351 </r>
       <r>   -11.6465    24.4198    51.9048 </r>
       <r>   -11.5249    51.8033    58.2046 </r>
       <r>   -11.4033    68.2737    66.5073 </r>
       <r>   -11.2817    59.9875    73.8023 </r>
       <r>   -11.1601    35.1841    78.0810 </r>
       <r>   -11.0384    12.8047    79.6382 </r>
       <r>   -10.9168     2.6597    79.9616 </r>
       <r>   -10.7952     0.2978    79.9978 </r>
       <r>   -10.6736     0.0174    79.9999 </r>
       <r>   -10.5520     0.0005    80.0000 </r>
       <r>   -10.4304     0.0000    80.0000 </r>
       <r>   -10.3088     0.0000    80.0000 </r>
       <r>   -10.1872     0.0000    80.0000 </r>
       <r>   -10.0656     0.0000    80.0000 </r>
       <r>    -9.9440     0.0000    80.0000 </r>
       <r>    -9.8224     0.0000    80.0000 </r>
       <r>    -9.7007     0.0000    80.0000 </r>
       <r>    -9.5791     0.0000    80.0000 </r>
       <r>    -9.4575     0.0000    80.0000 </r>
       <r>    -9.3359     0.0000    80.0000 </r>
       <r>    -9.2143     0.0000    80.0000 </r>
       <r>    -9.0927     0.0000    80.0000 </r>
       <r>    -8.9711     0.0000    80.0000 </r>
       <r>    -8.8495     0.0000    80.0000 </r>
       <r>    -8.7279     0.0000    80.0000 </r>
       <r>    -8.6063     0.0001    80.0000 </r>
       <r>    -8.4847     0.0017    80.0002 </r>
       <r>    -8.3630     0.0219    80.0029 </r>
       <r>    -8.2414     0.1412    80.0200 </r>
       <r>    -8.1198     0.4790    80.0783 </r>
       <r>    -7.9982     1.0096    80.2011 </r>
       <r>    -7.8766     1.8896    80.4309 </r>
       <r>    -7.7550     3.7760    80.8900 </r>
       <r>    -7.6334     7.1130    81.7550 </r>
       <r>    -7.5118    12.0149    83.2162 </r>
       <r>    -7.3902    17.6147    85.3583 </r>
       <r>    -7.2686    23.1490    88.1734 </r>
       <r>    -7.1470    28.8647    91.6836 </r>
       <r>    -7.0253    31.8526    95.5572 </r>
       <r>    -6.9037    30.0987    99.2175 </r>
       <r>    -6.7821    25.2720   102.2908 </r>
       <r>    -6.6605    21.7908   104.9407 </r>
       <r>    -6.5389    21.5665   107.5634 </r>
       <r>    -6.4173    18.8082   109.8507 </r>
       <r>    -6.2957    11.4701   111.2455 </r>
       <r>    -6.1741     4.6985   111.8169 </r>
       <r>    -6.0525     1.2726   111.9717 </r>
       <r>    -5.9309     0.2120   111.9975 </r>
       <r>    -5.8093     0.0198   111.9999 </r>
       <r>    -5.6876     0.0010   112.0000 </r>
       <r>    -5.5660     0.0000   112.0000 </r>
       <r>    -5.4444     0.0000   112.0000 </r>
       <r>    -5.3228     0.0000   112.0000 </r>
       <r>    -5.2012     0.0005   112.0001 </r>
       <r>    -5.0796     0.0098   112.0012 </r>
       <r>    -4.9580     0.1109   112.0147 </r>
       <r>    -4.8364     0.6731   112.0966 </r>
       <r>    -4.7148     2.2650   112.3720 </r>
       <r>    -4.5932     4.5490   112.9252 </r>
       <r>    -4.4716     6.4170   113.7056 </r>
       <r>    -4.3499     8.0822   114.6885 </r>
       <r>    -4.2283     9.7037   115.8685 </r>
       <r>    -4.1067     9.2237   116.9902 </r>
       <r>    -3.9851     6.7962   117.8167 </r>
       <r>    -3.8635     6.3148   118.5846 </r>
       <r>    -3.7419     9.0300   119.6828 </r>
       <r>    -3.6203    13.7003   121.3488 </r>
       <r>    -3.4987    20.0106   123.7823 </r>
       <r>    -3.3771    27.7755   127.1601 </r>
       <r>    -3.2555    37.7793   131.7544 </r>
       <r>    -3.1339    51.2963   137.9925 </r>
       <r>    -3.0122    62.8820   145.6395 </r>
       <r>    -2.8906    64.1338   153.4388 </r>
       <r>    -2.7690    59.1826   160.6359 </r>
       <r>    -2.6474    56.9700   167.5640 </r>
       <r>    -2.5258    56.4673   174.4309 </r>
       <r>    -2.4042    51.8048   180.7309 </r>
       <r>    -2.2826    42.4131   185.8887 </r>
       <r>    -2.1610    31.5189   189.7217 </r>
       <r>    -2.0394    21.8645   192.3806 </r>
       <r>    -1.9178    18.5116   194.6318 </r>
       <r>    -1.7962    22.0778   197.3166 </r>
       <r>    -1.6745    27.0755   200.6093 </r>
       <r>    -1.5529    26.9361   203.8849 </r>
       <r>    -1.4313    19.9148   206.3068 </r>
       <r>    -1.3097    10.1392   207.5398 </r>
       <r>    -1.1881     3.1758   207.9260 </r>
       <r>    -1.0665     0.5550   207.9935 </r>
       <r>    -0.9449     0.0511   207.9997 </r>
       <r>    -0.8233     0.0024   208.0000 </r>
       <r>    -0.7017     0.0001   208.0000 </r>
       <r>    -0.5801     0.0000   208.0000 </r>
       <r>    -0.4585     0.0000   208.0000 </r>
       <r>    -0.3368     0.0000   208.0000 </r>
       <r>    -0.2152     0.0000   208.0000 </r>
       <r>    -0.0936     0.0000   208.0000 </r>
       <r>     0.0280     0.0000   208.0000 </r>
       <r>     0.1496     0.0000   208.0000 </r>
       <r>     0.2712     0.0000   208.0000 </r>
       <r>     0.3928     0.0000   208.0000 </r>
       <r>     0.5144     0.0000   208.0000 </r>
       <r>     0.6360     0.0000   208.0000 </r>
       <r>     0.7576     0.0000   208.0000 </r>
       <r>     0.8792     0.0000   208.0000 </r>
       <r>     1.0009     0.0000   208.0000 </r>
       <r>     1.1225     0.0000   208.0000 </r>
       <r>     1.2441     0.0000   208.0000 </r>
       <r>     1.3657     0.0000   208.0000 </r>
       <r>     1.4873     0.0000   208.0000 </r>
       <r>     1.6089     0.0000   208.0000 </r>
       <r>     1.7305     0.0000   208.0000 </r>
       <r>     1.8521     0.0000   208.0000 </r>
       <r>     1.9737     0.0000   208.0000 </r>
       <r>     2.0953     0.0000   208.0000 </r>
       <r>     2.2169     0.0000   208.0000 </r>
       <r>     2.3386     0.0000   208.0000 </r>
       <r>     2.4602     0.0000   208.0000 </r>
       <r>     2.5818     0.0000   208.0000 </r>
       <r>     2.7034     0.0000   208.0000 </r>
       <r>     2.8250     0.0002   208.0000 </r>
       <r>     2.9466     0.0053   208.0007 </r>
       <r>     3.0682     0.0853   208.0110 </r>
       <r>     3.1898     0.7508   208.1023 </r>
       <r>     3.3114     3.7648   208.5602 </r>
       <r>     3.4330    11.3443   209.9397 </r>
       <r>     3.5546    22.2537   212.6460 </r>
       <r>     3.6763    32.7934   216.6340 </r>
       <r>     3.7979    42.9004   221.8511 </r>
       <r>     3.9195    49.9362   227.9237 </r>
       <r>     4.0411    46.3910   233.5653 </r>
       <r>     4.1627    32.1254   237.4721 </r>
       <r>     4.2843    15.3473   239.3384 </r>
       <r>     4.4059     4.5767   239.8950 </r>
       <r>     4.5275     0.7858   239.9906 </r>
       <r>     4.6491     0.0738   239.9995 </r>
       <r>     4.7707     0.0037   240.0000 </r>
       <r>     4.8924     0.0001   240.0000 </r>
       <r>     5.0140     0.0000   240.0000 </r>
       <r>     5.1356     0.0000   240.0000 </r>
       <r>     5.2572     0.0000   240.0000 </r>
       <r>     5.3788     0.0000   240.0000 </r>
       <r>     5.5004     0.0000   240.0000 </r>
       <r>     5.6220     0.0001   240.0000 </r>
       <r>     5.7436     0.0017   240.0002 </r>
       <r>     5.8652     0.0220   240.0029 </r>
       <r>     5.9868     0.1388   240.0198 </r>
       <r>     6.1084     0.4362   240.0728 </r>
       <r>     6.2301     0.7017   240.1582 </r>
       <r>     6.3517     0.7433   240.2486 </r>
       <r>     6.4733     1.3043   240.4072 </r>
       <r>     6.5949     3.1666   240.7923 </r>
       <r>     6.7165     5.2140   241.4263 </r>
       <r>     6.8381     6.1547   242.1748 </r>
       <r>     6.9597     7.5396   243.0917 </r>
       <r>     7.0813     8.7590   244.1568 </r>
       <r>     7.2029     6.7458   244.9772 </r>
       <r>     7.3245     4.6688   245.5450 </r>
       <r>     7.4461     6.4136   246.3249 </r>
       <r>     7.5678     9.8061   247.5174 </r>
       <r>     7.6894    12.3251   249.0163 </r>
       <r>     7.8110    14.3044   250.7558 </r>
       <r>     7.9326    14.7486   252.5494 </r>
       <r>     8.0542    12.1228   254.0236 </r>
       <r>     8.1758     8.2585   255.0279 </r>
       <r>     8.2974     4.9848   255.6341 </r>
       <r>     8.4190     2.2733   255.9106 </r>
       <r>     8.5406     0.6314   255.9874 </r>
       <r>     8.6622     0.0959   255.9990 </r>
       <r>     8.7838     0.0076   256.0000 </r>
       <r>     8.9055     0.0003   256.0000 </r>
       <r>     9.0271     0.0000   256.0000 </r>
       <r>     9.1487     0.0000   256.0000 </r>
       <r>     9.2703     0.0000   256.0000 </r>
       <r>     9.3919     0.0000   256.0000 </r>
       <r>     9.5135     0.0000   256.0000 </r>
       <r>     9.6351     0.0000   256.0000 </r>
       <r>     9.7567     0.0000   256.0000 </r>
       <r>     9.8783     0.0000   256.0000 </r>
       <r>     9.9999     0.0000   256.0000 </r>
       <r>    10.1215     0.0000   256.0000 </r>
       <r>    10.2432     0.0000   256.0000 </r>
      </set>
     </set>
    </array>
   </total>
  </dos>
 </calculation>
 <structure name="finalpos" >
  <crystal>
   <varray name="basis" >
    <v>       7.76707687       0.00000000       0.07228526 </v>
    <v>       0.00000000       8.34524944       0.00000000 </v>
    <v>      -0.07871569       0.00000000       9.22073173 </v>
   </varray>
   <i name="volume">    597.71866116 </i>
   <varray name="rec_basis" >
    <v>       0.12873834       0.00000000       0.00109902 </v>
    <v>       0.00000000       0.11982865       0.00000000 </v>
    <v>      -0.00100923       0.00000000       0.10844265 </v>
   </varray>
  </crystal>
  <varray name="positions" >
   <v>       0.25023308       0.34729054       0.11404815 </v>
   <v>       0.74976692       0.84729054       0.88595185 </v>
   <v>       0.25021825       0.84715353       0.61410184 </v>
   <v>       0.74978175       0.34715353       0.38589816 </v>
   <v>       0.35611883       0.19167812       0.94104807 </v>
   <v>       0.27834096       0.13034176       0.82559226 </v>
   <v>       0.36931632       0.00627421       0.78370240 </v>
   <v>       0.50584795       0.99227959       0.87284380 </v>
   <v>       0.49643494       0.10722967       0.96920140 </v>
   <v>       0.64388117       0.69167812       0.05895193 </v>
   <v>       0.72165904       0.63034176       0.17440774 </v>
   <v>       0.63068368       0.50627421       0.21629760 </v>
   <v>       0.49415205       0.49227959       0.12715620 </v>
   <v>       0.50356506       0.60722967       0.03079860 </v>
   <v>       0.35594171       0.00294704       0.44116524 </v>
   <v>       0.49619400       0.08745939       0.46937069 </v>
   <v>       0.50572314       0.20228858       0.37291263 </v>
   <v>       0.36929724       0.18815843       0.28364007 </v>
   <v>       0.27829256       0.06413140       0.32557912 </v>
   <v>       0.64405829       0.50294704       0.55883476 </v>
   <v>       0.50380600       0.58745939       0.53062931 </v>
   <v>       0.49427686       0.70228858       0.62708737 </v>
   <v>       0.63070276       0.68815843       0.71635993 </v>
   <v>       0.72170744       0.56413140       0.67442088 </v>
   <v>       0.00613793       0.99173705       0.62628540 </v>
   <v>       0.99639070       0.10632699       0.52958852 </v>
   <v>       0.85553395       0.19019492       0.55744737 </v>
   <v>       0.77777649       0.12887084       0.67300441 </v>
   <v>       0.86929403       0.00538884       0.71531225 </v>
   <v>       0.99386207       0.49173705       0.37371460 </v>
   <v>       0.00360930       0.60632699       0.47041148 </v>
   <v>       0.14446605       0.69019492       0.44255263 </v>
   <v>       0.22222351       0.62887084       0.32699559 </v>
   <v>       0.13070597       0.50538884       0.28468775 </v>
   <v>       0.00625889       0.20255590       0.12631432 </v>
   <v>       0.86931175       0.18901565       0.21528843 </v>
   <v>       0.77781720       0.06551145       0.17303482 </v>
   <v>       0.85565303       0.00407776       0.05754834 </v>
   <v>       0.99655969       0.08788836       0.02970835 </v>
   <v>       0.99374111       0.70255590       0.87368568 </v>
   <v>       0.13068825       0.68901565       0.78471157 </v>
   <v>       0.22218280       0.56551145       0.82696518 </v>
   <v>       0.14434697       0.50407776       0.94245166 </v>
   <v>       0.00344031       0.58788836       0.97029165 </v>
  </varray>
 </structure>
</modeling>
