qvasp                                   
           1
     7.777685    0.000000    0.079147
     0.000000    8.366855    0.000000
    -0.070266    0.000000    9.176312
   Mg   N 
   4  40
Direct configuration=     1
   0.25032716  0.34739310  0.11395157
   0.74967284  0.84739310  0.88604843
   0.25036241  0.84713224  0.61400436
   0.74963759  0.34713224  0.38599564
   0.35652844  0.19200549  0.94069372
   0.27864790  0.13018277  0.82519896
   0.36929210  0.00608147  0.78357073
   0.50568956  0.99244188  0.87296578
   0.49657822  0.10774948  0.96915140
   0.64347156  0.69200549  0.05930628
   0.72135210  0.63018277  0.17480104
   0.63070790  0.50608147  0.21642927
   0.49431044  0.49244188  0.12703422
   0.50342178  0.60774948  0.03084860
   0.35625800  0.00273301  0.44086724
   0.49619723  0.08710243  0.46943701
   0.50549256  0.20220604  0.37305203
   0.36928427  0.18838143  0.28349871
   0.27861337  0.06429951  0.32514872
   0.64374200  0.50273301  0.55913276
   0.50380277  0.58710243  0.53056299
   0.49450744  0.70220604  0.62694797
   0.63071573  0.68838143  0.71650129
   0.72138663  0.56429951  0.67485128
   0.00604655  0.99183747  0.62595121
   0.99656401  0.10658089  0.52924634
   0.85577404  0.19009497  0.55747216
   0.77778548  0.12838236  0.67325484
   0.86905122  0.00500669  0.71530796
   0.99395345  0.49183747  0.37404879
   0.00343599  0.60658089  0.47075366
   0.14422596  0.69009497  0.44252784
   0.22221452  0.62838236  0.32674516
   0.13094878  0.50500669  0.28469204
   0.00614714  0.20240691  0.12600626
   0.86915640  0.18928381  0.21533995
   0.77786682  0.06588922  0.17333215
   0.85596641  0.00405771  0.05765358
   0.99675770  0.08755112  0.02938676
   0.99385286  0.70240691  0.87399374
   0.13084360  0.68928381  0.78466005
   0.22213318  0.56588922  0.82666785
   0.14403359  0.50405771  0.94234642
   0.00324230  0.58755112  0.97061324
qvasp                                   
           1
     7.777144    0.000000    0.078177
     0.000000    8.366616    0.000000
    -0.071471    0.000000    9.182784
   Mg   N 
   4  40
Direct configuration=     2
   0.25031938  0.34737190  0.11395193
   0.74968062  0.84737190  0.88604807
   0.25034313  0.84711936  0.61401680
   0.74965687  0.34711936  0.38598320
   0.35652626  0.19198492  0.94070874
   0.27867741  0.13019694  0.82520005
   0.36927422  0.00604234  0.78359491
   0.50567706  0.99247267  0.87293969
   0.49655912  0.10772851  0.96917549
   0.64347374  0.69198492  0.05929126
   0.72132259  0.63019694  0.17479995
   0.63072578  0.50604234  0.21640509
   0.49432294  0.49247267  0.12706031
   0.50344088  0.60772851  0.03082451
   0.35627170  0.00274487  0.44087892
   0.49618342  0.08710792  0.46943477
   0.50549074  0.20219302  0.37305292
   0.36926671  0.18840408  0.28349528
   0.27863227  0.06429738  0.32516331
   0.64372830  0.50274487  0.55912108
   0.50381658  0.58710792  0.53056523
   0.49450926  0.70219302  0.62694708
   0.63073329  0.68840408  0.71650472
   0.72136773  0.56429738  0.67483669
   0.00601249  0.99184626  0.62596750
   0.99657423  0.10659799  0.52924143
   0.85578323  0.19009366  0.55748094
   0.77778040  0.12839102  0.67325437
   0.86907679  0.00502489  0.71531318
   0.99398751  0.49184626  0.37403250
   0.00342577  0.60659799  0.47075857
   0.14421677  0.69009366  0.44251906
   0.22221960  0.62839102  0.32674563
   0.13092321  0.50502489  0.28468682
   0.00615214  0.20238855  0.12601774
   0.86912454  0.18930163  0.21534299
   0.77791765  0.06588319  0.17334074
   0.85594819  0.00405638  0.05762584
   0.99674565  0.08755252  0.02941011
   0.99384786  0.70238855  0.87398226
   0.13087546  0.68930163  0.78465701
   0.22208235  0.56588319  0.82665926
   0.14405181  0.50405638  0.94237416
   0.00325435  0.58755252  0.97058989
qvasp                                   
           1
     7.777129    0.000000    0.078151
     0.000000    8.366610    0.000000
    -0.071504    0.000000    9.182960
   Mg   N 
   4  40
Direct configuration=     3
   0.25031917  0.34737133  0.11395194
   0.74968083  0.84737133  0.88604806
   0.25034260  0.84711901  0.61401714
   0.74965740  0.34711901  0.38598286
   0.35652620  0.19198436  0.94070915
   0.27867822  0.13019732  0.82520008
   0.36927373  0.00604127  0.78359557
   0.50567672  0.99247351  0.87293898
   0.49655860  0.10772793  0.96917615
   0.64347380  0.69198436  0.05929085
   0.72132178  0.63019732  0.17479992
   0.63072627  0.50604127  0.21640443
   0.49432328  0.49247351  0.12706102
   0.50344140  0.60772793  0.03082385
   0.35627208  0.00274519  0.44087923
   0.49618304  0.08710807  0.46943470
   0.50549070  0.20219266  0.37305294
   0.36926623  0.18840470  0.28349519
   0.27863278  0.06429732  0.32516371
   0.64372792  0.50274519  0.55912077
   0.50381696  0.58710807  0.53056530
   0.49450930  0.70219266  0.62694706
   0.63073377  0.68840470  0.71650481
   0.72136722  0.56429732  0.67483629
   0.00601156  0.99184650  0.62596794
   0.99657450  0.10659846  0.52924130
   0.85578348  0.19009362  0.55748118
   0.77778026  0.12839126  0.67325436
   0.86907749  0.00502539  0.71531332
   0.99398844  0.49184650  0.37403206
   0.00342550  0.60659846  0.47075870
   0.14421652  0.69009362  0.44251882
   0.22221974  0.62839126  0.32674564
   0.13092251  0.50502539  0.28468668
   0.00615228  0.20238804  0.12601805
   0.86912368  0.18930211  0.21534308
   0.77791904  0.06588303  0.17334098
   0.85594769  0.00405634  0.05762508
   0.99674532  0.08755256  0.02941074
   0.99384772  0.70238804  0.87398195
   0.13087632  0.68930211  0.78465692
   0.22208096  0.56588303  0.82665902
   0.14405231  0.50405634  0.94237492
   0.00325468  0.58755256  0.97058926
qvasp                                   
           1
     7.776863    0.000000    0.077834
     0.000000    8.366221    0.000000
    -0.071899    0.000000    9.185271
   Mg   N 
   4  40
Direct configuration=     4
   0.25031536  0.34736193  0.11395049
   0.74968464  0.84736193  0.88604951
   0.25033311  0.84711337  0.61401992
   0.74966689  0.34711337  0.38598008
   0.35651672  0.19196878  0.94070547
   0.27867941  0.13020733  0.82520586
   0.36927282  0.00604898  0.78362049
   0.50568592  0.99247592  0.87293908
   0.49654852  0.10770522  0.96917016
   0.64348328  0.69196878  0.05929453
   0.72132059  0.63020733  0.17479414
   0.63072718  0.50604898  0.21637951
   0.49431408  0.49247592  0.12706092
   0.50345148  0.60770522  0.03082984
   0.35626593  0.00275593  0.44087278
   0.49618093  0.08712571  0.46942236
   0.50549774  0.20219336  0.37305583
   0.36926804  0.18839176  0.28351668
   0.27863211  0.06429271  0.32517157
   0.64373407  0.50275593  0.55912722
   0.50381907  0.58712571  0.53057764
   0.49450226  0.70219336  0.62694417
   0.63073196  0.68839176  0.71648332
   0.72136789  0.56429271  0.67482843
   0.00601293  0.99184723  0.62596982
   0.99655703  0.10658933  0.52926944
   0.85577557  0.19009247  0.55749295
   0.77778922  0.12840533  0.67323918
   0.86909654  0.00504629  0.71529742
   0.99398707  0.49184723  0.37403018
   0.00344297  0.60658933  0.47073056
   0.14422443  0.69009247  0.44250705
   0.22221078  0.62840533  0.32676082
   0.13090346  0.50504629  0.28470258
   0.00615852  0.20238698  0.12602293
   0.86913264  0.18929046  0.21532032
   0.77793184  0.06586816  0.17333056
   0.85593493  0.00406709  0.05763261
   0.99672847  0.08756566  0.02943876
   0.99384148  0.70238698  0.87397707
   0.13086736  0.68929046  0.78467968
   0.22206816  0.56586816  0.82666944
   0.14406507  0.50406709  0.94236739
   0.00327153  0.58756566  0.97056124
qvasp                                   
           1
     7.776063    0.000000    0.076883
     0.000000    8.365055    0.000000
    -0.073083    0.000000    9.192202
   Mg   N 
   4  40
Direct configuration=     5
   0.25030394  0.34733373  0.11394616
   0.74969606  0.84733373  0.88605384
   0.25030463  0.84709646  0.61402828
   0.74969537  0.34709646  0.38597172
   0.35648830  0.19192203  0.94069441
   0.27868298  0.13023734  0.82522320
   0.36927011  0.00607212  0.78369524
   0.50571353  0.99248314  0.87293938
   0.49651828  0.10763706  0.96915219
   0.64351170  0.69192203  0.05930559
   0.72131702  0.63023734  0.17477680
   0.63072989  0.50607212  0.21630476
   0.49428647  0.49248314  0.12706062
   0.50348172  0.60763706  0.03084781
   0.35624751  0.00278815  0.44085343
   0.49617459  0.08717861  0.46938535
   0.50551889  0.20219544  0.37306448
   0.36927347  0.18835293  0.28358114
   0.27863008  0.06427887  0.32519515
   0.64375249  0.50278815  0.55914657
   0.50382541  0.58717861  0.53061465
   0.49448111  0.70219544  0.62693552
   0.63072653  0.68835293  0.71641886
   0.72136992  0.56427887  0.67480485
   0.00601707  0.99184940  0.62597546
   0.99650462  0.10656195  0.52935385
   0.85575184  0.19008902  0.55752826
   0.77781611  0.12844753  0.67319367
   0.86915370  0.00510903  0.71524973
   0.99398293  0.49184940  0.37402454
   0.00349538  0.60656195  0.47064615
   0.14424816  0.69008902  0.44247174
   0.22218389  0.62844753  0.32680633
   0.13084630  0.50510903  0.28475027
   0.00617726  0.20238377  0.12603755
   0.86915952  0.18925552  0.21525206
   0.77797022  0.06582357  0.17329931
   0.85589666  0.00409936  0.05765519
   0.99667792  0.08760497  0.02952278
   0.99382274  0.70238377  0.87396245
   0.13084048  0.68925552  0.78474794
   0.22202978  0.56582357  0.82670069
   0.14410334  0.50409936  0.94234481
   0.00332208  0.58760497  0.97047722
qvasp                                   
           1
     7.774463    0.000000    0.074982
     0.000000    8.362724    0.000000
    -0.075453    0.000000    9.206065
   Mg   N 
   4  40
Direct configuration=     6
   0.25028110  0.34727732  0.11393749
   0.74971890  0.84727732  0.88606251
   0.25024766  0.84706262  0.61404497
   0.74975234  0.34706262  0.38595503
   0.35643144  0.19182852  0.94067232
   0.27869012  0.13029737  0.82525786
   0.36926470  0.00611841  0.78384462
   0.50576875  0.99249758  0.87293998
   0.49645778  0.10750073  0.96911628
   0.64356856  0.69182852  0.05932768
   0.72130988  0.63029737  0.17474214
   0.63073530  0.50611841  0.21615538
   0.49423125  0.49249758  0.12706002
   0.50354222  0.60750073  0.03088372
   0.35621064  0.00285259  0.44081475
   0.49616190  0.08728444  0.46931139
   0.50556118  0.20219961  0.37308178
   0.36928435  0.18827526  0.28370997
   0.27862604  0.06425120  0.32524227
   0.64378936  0.50285259  0.55918525
   0.50383810  0.58728444  0.53068861
   0.49443882  0.70219961  0.62691822
   0.63071565  0.68827526  0.71629003
   0.72137396  0.56425120  0.67475773
   0.00602533  0.99185375  0.62598673
   0.99639980  0.10650718  0.52952252
   0.85570438  0.19008212  0.55759882
   0.77786987  0.12853196  0.67310272
   0.86926802  0.00523451  0.71515443
   0.99397467  0.49185375  0.37401327
   0.00360020  0.60650718  0.47047748
   0.14429562  0.69008212  0.44240118
   0.22213013  0.62853196  0.32689728
   0.13073198  0.50523451  0.28484557
   0.00621473  0.20237736  0.12606677
   0.86921326  0.18918562  0.21511565
   0.77804700  0.06573436  0.17323688
   0.85582010  0.00416390  0.05770030
   0.99657684  0.08768359  0.02969069
   0.99378527  0.70237736  0.87393323
   0.13078674  0.68918562  0.78488435
   0.22195300  0.56573436  0.82676312
   0.14417990  0.50416390  0.94229970
   0.00342316  0.58768359  0.97030931
qvasp                                   
           1
     7.775449    0.000000    0.076154
     0.000000    8.364160    0.000000
    -0.073993    0.000000    9.197523
   Mg   N 
   4  40
Direct configuration=     7
   0.25029518  0.34731209  0.11394282
   0.74970482  0.84731209  0.88605718
   0.25028276  0.84708347  0.61403471
   0.74971724  0.34708347  0.38596529
   0.35646649  0.19188616  0.94068592
   0.27868571  0.13026037  0.82523654
   0.36926801  0.00608988  0.78375272
   0.50573472  0.99248868  0.87293960
   0.49649507  0.10758476  0.96913838
   0.64353351  0.69188616  0.05931408
   0.72131429  0.63026037  0.17476346
   0.63073199  0.50608988  0.21624728
   0.49426528  0.49248868  0.12706040
   0.50350493  0.60758476  0.03086162
   0.35623337  0.00281287  0.44083855
   0.49616973  0.08721921  0.46935690
   0.50553511  0.20219704  0.37307113
   0.36927762  0.18832313  0.28363071
   0.27862852  0.06426826  0.32521328
   0.64376663  0.50281287  0.55916145
   0.50383027  0.58721921  0.53064310
   0.49446489  0.70219704  0.62692887
   0.63072238  0.68832313  0.71636929
   0.72137148  0.56426826  0.67478672
   0.00602024  0.99185107  0.62597979
   0.99646437  0.10654094  0.52941876
   0.85573361  0.19008637  0.55755541
   0.77783675  0.12847993  0.67315867
   0.86919758  0.00515717  0.71521305
   0.99397976  0.49185107  0.37402021
   0.00353563  0.60654094  0.47058124
   0.14426639  0.69008637  0.44244459
   0.22216325  0.62847993  0.32684133
   0.13080242  0.50515717  0.28478695
   0.00619163  0.20238131  0.12604879
   0.86918016  0.18922870  0.21519957
   0.77799969  0.06578934  0.17327528
   0.85586727  0.00412412  0.05767256
   0.99663911  0.08763513  0.02958739
   0.99380837  0.70238131  0.87395121
   0.13081984  0.68922870  0.78480043
   0.22200031  0.56578934  0.82672472
   0.14413273  0.50412412  0.94232744
   0.00336089  0.58763513  0.97041261
qvasp                                   
           1
     7.775210    0.000000    0.075527
     0.000000    8.363633    0.000000
    -0.074776    0.000000    9.201960
   Mg   N 
   4  40
Direct configuration=     8
   0.25028769  0.34729845  0.11394161
   0.74971231  0.84729845  0.88605839
   0.25026620  0.84707775  0.61403702
   0.74973380  0.34707775  0.38596298
   0.35642852  0.19188207  0.94069622
   0.27864868  0.13027737  0.82526837
   0.36928342  0.00611368  0.78375698
   0.50576509  0.99244501  0.87295477
   0.49649524  0.10754776  0.96912767
   0.64357148  0.69188207  0.05930378
   0.72135132  0.63027737  0.17473163
   0.63071658  0.50611368  0.21624302
   0.49423491  0.49244501  0.12704523
   0.50350476  0.60754776  0.03087233
   0.35620055  0.00281364  0.44084193
   0.49617846  0.08724722  0.46934553
   0.50556415  0.20222887  0.37306834
   0.36929749  0.18831382  0.28364793
   0.27859413  0.06424029  0.32524411
   0.64379945  0.50281364  0.55915807
   0.50382154  0.58724722  0.53065447
   0.49443585  0.70222887  0.62693166
   0.63070251  0.68831382  0.71635207
   0.72140587  0.56424029  0.67475589
   0.00605757  0.99182755  0.62599918
   0.99644952  0.10651954  0.52945273
   0.85569022  0.19011709  0.55755807
   0.77784083  0.12852579  0.67313373
   0.86921993  0.00517285  0.71520567
   0.99394243  0.49182755  0.37400082
   0.00355048  0.60651954  0.47054727
   0.14430978  0.69011709  0.44244193
   0.22215917  0.62852579  0.32686627
   0.13078007  0.50517285  0.28479433
   0.00620392  0.20241770  0.12607570
   0.86923178  0.18921365  0.21518487
   0.77796757  0.06575154  0.17324093
   0.85583269  0.00411012  0.05768755
   0.99663460  0.08765826  0.02960682
   0.99379608  0.70241770  0.87392430
   0.13076822  0.68921365  0.78481513
   0.22203243  0.56575154  0.82675907
   0.14416731  0.50411012  0.94231245
   0.00336540  0.58765826  0.97039318
qvasp                                   
           1
     7.775117    0.000000    0.075283
     0.000000    8.363429    0.000000
    -0.075080    0.000000    9.203685
   Mg   N 
   4  40
Direct configuration=     9
   0.25028478  0.34729315  0.11394114
   0.74971522  0.84729315  0.88605886
   0.25025977  0.84707553  0.61403792
   0.74974023  0.34707553  0.38596208
   0.35641377  0.19188048  0.94070021
   0.27863429  0.13028398  0.82528073
   0.36928941  0.00612293  0.78375864
   0.50577690  0.99242804  0.87296066
   0.49649531  0.10753338  0.96912350
   0.64358623  0.69188048  0.05929979
   0.72136571  0.63028398  0.17471927
   0.63071059  0.50612293  0.21624136
   0.49422310  0.49242804  0.12703934
   0.50350469  0.60753338  0.03087650
   0.35618779  0.00281393  0.44084324
   0.49618186  0.08725810  0.46934112
   0.50557543  0.20224124  0.37306725
   0.36930521  0.18831020  0.28365461
   0.27858076  0.06422942  0.32525608
   0.64381221  0.50281393  0.55915676
   0.50381814  0.58725810  0.53065888
   0.49442457  0.70224124  0.62693275
   0.63069479  0.68831020  0.71634539
   0.72141924  0.56422942  0.67474392
   0.00607208  0.99181841  0.62600671
   0.99644375  0.10651122  0.52946592
   0.85567336  0.19012902  0.55755910
   0.77784241  0.12854362  0.67312404
   0.86922862  0.00517894  0.71520281
   0.99392792  0.49181841  0.37399329
   0.00355625  0.60651122  0.47053408
   0.14432664  0.69012902  0.44244090
   0.22215759  0.62854362  0.32687596
   0.13077138  0.50517894  0.28479719
   0.00620870  0.20243185  0.12608616
   0.86925185  0.18920780  0.21517915
   0.77795509  0.06573684  0.17322759
   0.85581925  0.00410468  0.05769337
   0.99663286  0.08766724  0.02961436
   0.99379130  0.70243185  0.87391384
   0.13074815  0.68920780  0.78482085
   0.22204491  0.56573684  0.82677241
   0.14418075  0.50410468  0.94230663
   0.00336714  0.58766724  0.97038564
qvasp                                   
           1
     7.774200    0.000000    0.074845
     0.000000    8.361982    0.000000
    -0.075612    0.000000    9.206013
   Mg   N 
   4  40
Direct configuration=    10
   0.25027972  0.34728887  0.11394544
   0.74972028  0.84728887  0.88605456
   0.25025211  0.84707848  0.61404097
   0.74974789  0.34707848  0.38595903
   0.35639593  0.19186668  0.94071732
   0.27860978  0.13027093  0.82531958
   0.36930738  0.00615485  0.78373729
   0.50576468  0.99240230  0.87297823
   0.49649802  0.10751487  0.96911488
   0.64360407  0.69186668  0.05928268
   0.72139022  0.63027093  0.17468042
   0.63069262  0.50615485  0.21626271
   0.49423532  0.49240230  0.12702177
   0.50350198  0.60751487  0.03088512
   0.35617263  0.00282644  0.44085725
   0.49618245  0.08727192  0.46933533
   0.50557477  0.20224826  0.37306335
   0.36931636  0.18829821  0.28365262
   0.27856493  0.06422471  0.32529031
   0.64382737  0.50282644  0.55914275
   0.50381755  0.58727192  0.53066467
   0.49442523  0.70224826  0.62693665
   0.63068364  0.68829821  0.71634738
   0.72143507  0.56422471  0.67470969
   0.00608035  0.99182376  0.62602713
   0.99643910  0.10649465  0.52947746
   0.85565829  0.19013278  0.55755622
   0.77785162  0.12856793  0.67311490
   0.86922914  0.00519070  0.71520408
   0.99391965  0.49182376  0.37397287
   0.00356090  0.60649465  0.47052254
   0.14434171  0.69013278  0.44244378
   0.22214838  0.62856793  0.32688510
   0.13077086  0.50519070  0.28479592
   0.00619251  0.20244448  0.12610267
   0.86928560  0.18918467  0.21519149
   0.77793553  0.06573496  0.17319277
   0.85581411  0.00409462  0.05770086
   0.99662704  0.08768493  0.02962086
   0.99380749  0.70244448  0.87389733
   0.13071440  0.68918467  0.78480851
   0.22206447  0.56573496  0.82680723
   0.14418589  0.50409462  0.94229914
   0.00337296  0.58768493  0.97037914
qvasp                                   
           1
     7.772558    0.000000    0.074060
     0.000000    8.359389    0.000000
    -0.076566    0.000000    9.210187
   Mg   N 
   4  40
Direct configuration=    11
   0.25027065  0.34728120  0.11395315
   0.74972935  0.84728120  0.88604685
   0.25023837  0.84708378  0.61404642
   0.74976163  0.34708378  0.38595358
   0.35636394  0.19184194  0.94074798
   0.27856582  0.13024754  0.82538921
   0.36933961  0.00621210  0.78369903
   0.50574278  0.99235614  0.87300972
   0.49650289  0.10748169  0.96909941
   0.64363606  0.69184194  0.05925202
   0.72143418  0.63024754  0.17461079
   0.63066039  0.50621210  0.21630097
   0.49425722  0.49235614  0.12699028
   0.50349711  0.60748169  0.03090059
   0.35614545  0.00284888  0.44088235
   0.49618350  0.08729670  0.46932494
   0.50557357  0.20226085  0.37305636
   0.36933636  0.18827669  0.28364903
   0.27853656  0.06421627  0.32535167
   0.64385455  0.50284888  0.55911765
   0.50381650  0.58729670  0.53067506
   0.49442643  0.70226085  0.62694364
   0.63066364  0.68827669  0.71635097
   0.72146344  0.56421627  0.67464833
   0.00609519  0.99183334  0.62606372
   0.99643077  0.10646494  0.52949815
   0.85563128  0.19013951  0.55755106
   0.77786812  0.12861151  0.67309851
   0.86923006  0.00521178  0.71520635
   0.99390481  0.49183334  0.37393628
   0.00356923  0.60646494  0.47050185
   0.14436872  0.69013951  0.44244894
   0.22213188  0.62861151  0.32690149
   0.13076994  0.50521178  0.28479365
   0.00616348  0.20246714  0.12613227
   0.86934613  0.18914320  0.21521360
   0.77790045  0.06573158  0.17313036
   0.85580489  0.00407658  0.05771428
   0.99661662  0.08771664  0.02963251
   0.99383652  0.70246714  0.87386773
   0.13065387  0.68914320  0.78478640
   0.22209955  0.56573158  0.82686964
   0.14419511  0.50407658  0.94228572
   0.00338338  0.58771664  0.97036749
qvasp                                   
           1
     7.771598    0.000000    0.073841
     0.000000    8.357047    0.000000
    -0.076834    0.000000    9.212124
   Mg   N 
   4  40
Direct configuration=    12
   0.25026407  0.34728055  0.11396299
   0.74973593  0.84728055  0.88603701
   0.25023374  0.84709449  0.61405156
   0.74976626  0.34709449  0.38594844
   0.35633323  0.19181642  0.94078797
   0.27851051  0.13025500  0.82541446
   0.36935006  0.00623165  0.78369387
   0.50574974  0.99233019  0.87299332
   0.49651061  0.10745092  0.96911974
   0.64366677  0.69181642  0.05921203
   0.72148949  0.63025500  0.17458554
   0.63064994  0.50623165  0.21630613
   0.49425026  0.49233019  0.12700668
   0.50348939  0.60745092  0.03088026
   0.35611677  0.00285944  0.44092402
   0.49620143  0.08732333  0.46933633
   0.50560063  0.20227312  0.37304102
   0.36932698  0.18824728  0.28365011
   0.27848834  0.06421477  0.32537023
   0.64388323  0.50285944  0.55907598
   0.50379857  0.58732333  0.53066367
   0.49439937  0.70227312  0.62695898
   0.63067302  0.68824728  0.71634989
   0.72151166  0.56421477  0.67462977
   0.00610774  0.99182155  0.62609628
   0.99641655  0.10644353  0.52951805
   0.85562636  0.19013548  0.55754021
   0.77784420  0.12865744  0.67308865
   0.86924973  0.00523845  0.71520607
   0.99389226  0.49182155  0.37390372
   0.00358345  0.60644353  0.47048195
   0.14437364  0.69013548  0.44245979
   0.22215580  0.62865744  0.32691135
   0.13075027  0.50523845  0.28479393
   0.00619382  0.20248575  0.12614312
   0.86933977  0.18910996  0.21522930
   0.77789013  0.06571346  0.17310590
   0.85579168  0.00407028  0.05769212
   0.99658900  0.08774694  0.02966232
   0.99380618  0.70248575  0.87385688
   0.13066023  0.68910996  0.78477070
   0.22210987  0.56571346  0.82689410
   0.14420832  0.50407028  0.94230788
   0.00341100  0.58774694  0.97033768
qvasp                                   
           1
     7.770406    0.000000    0.073570
     0.000000    8.354136    0.000000
    -0.077167    0.000000    9.214533
   Mg   N 
   4  40
Direct configuration=    13
   0.25025589  0.34727975  0.11397521
   0.74974411  0.84727975  0.88602479
   0.25022798  0.84710781  0.61405795
   0.74977202  0.34710781  0.38594205
   0.35629506  0.19178468  0.94083767
   0.27844174  0.13026427  0.82544584
   0.36936305  0.00625596  0.78368746
   0.50575839  0.99229793  0.87297292
   0.49652021  0.10741267  0.96914500
   0.64370494  0.69178468  0.05916233
   0.72155826  0.63026427  0.17455416
   0.63063695  0.50625596  0.21631254
   0.49424161  0.49229793  0.12702708
   0.50347979  0.60741267  0.03085500
   0.35608112  0.00287257  0.44097579
   0.49622371  0.08735644  0.46935049
   0.50563426  0.20228838  0.37302196
   0.36931532  0.18821070  0.28365144
   0.27842840  0.06421291  0.32539330
   0.64391888  0.50287257  0.55902421
   0.50377629  0.58735644  0.53064951
   0.49436574  0.70228838  0.62697804
   0.63068468  0.68821070  0.71634856
   0.72157160  0.56421291  0.67460670
   0.00612334  0.99180689  0.62613676
   0.99639887  0.10641690  0.52954279
   0.85562024  0.19013047  0.55752672
   0.77781447  0.12871455  0.67307640
   0.86927420  0.00527160  0.71520573
   0.99387666  0.49180689  0.37386324
   0.00360113  0.60641690  0.47045721
   0.14437976  0.69013047  0.44247328
   0.22218553  0.62871455  0.32692360
   0.13072580  0.50527160  0.28479427
   0.00623154  0.20250888  0.12615660
   0.86933187  0.18906864  0.21524881
   0.77787729  0.06569093  0.17307549
   0.85577526  0.00406245  0.05766457
   0.99655467  0.08778462  0.02969937
   0.99376846  0.70250888  0.87384340
   0.13066813  0.68906864  0.78475119
   0.22212271  0.56569093  0.82692451
   0.14422474  0.50406245  0.94233543
   0.00344533  0.58778462  0.97030063
qvasp                                   
           1
     7.769713    0.000000    0.073254
     0.000000    8.352376    0.000000
    -0.077547    0.000000    9.215851
   Mg   N 
   4  40
Direct configuration=    14
   0.25025109  0.34728148  0.11398767
   0.74974891  0.84728148  0.88601233
   0.25022566  0.84711714  0.61406462
   0.74977434  0.34711714  0.38593538
   0.35626018  0.19176508  0.94087886
   0.27841859  0.13028179  0.82547495
   0.36935866  0.00625769  0.78369156
   0.50577820  0.99228906  0.87294645
   0.49650272  0.10737797  0.96915514
   0.64373982  0.69176508  0.05912114
   0.72158141  0.63028179  0.17452505
   0.63064134  0.50625769  0.21630844
   0.49422180  0.49228906  0.12705355
   0.50349728  0.60737797  0.03084486
   0.35605478  0.00288591  0.44101389
   0.49621641  0.08737674  0.46935245
   0.50565851  0.20229212  0.37300296
   0.36931172  0.18820221  0.28364785
   0.27839808  0.06419474  0.32542903
   0.64394522  0.50288591  0.55898611
   0.50378359  0.58737674  0.53064755
   0.49434149  0.70229212  0.62699704
   0.63068828  0.68820221  0.71635215
   0.72160192  0.56419474  0.67457097
   0.00613157  0.99178598  0.62616916
   0.99640019  0.10640126  0.52954834
   0.85560094  0.19014667  0.55750948
   0.77780108  0.12874669  0.67306471
   0.86928073  0.00529256  0.71522567
   0.99386843  0.49178598  0.37383084
   0.00359981  0.60640126  0.47045166
   0.14439906  0.69014667  0.44249052
   0.22219892  0.62874669  0.32693529
   0.13071927  0.50529256  0.28477433
   0.00624824  0.20252399  0.12618443
   0.86932323  0.18905844  0.21526020
   0.77786103  0.06565732  0.17307067
   0.85574923  0.00405979  0.05763831
   0.99655827  0.08780537  0.02970047
   0.99375176  0.70252399  0.87381557
   0.13067677  0.68905844  0.78473980
   0.22213897  0.56565732  0.82692933
   0.14425077  0.50405979  0.94236169
   0.00344173  0.58780537  0.97029953
qvasp                                   
           1
     7.767869    0.000000    0.072414
     0.000000    8.347689    0.000000
    -0.078558    0.000000    9.219362
   Mg   N 
   4  40
Direct configuration=    15
   0.25023829  0.34728607  0.11402082
   0.74976171  0.84728607  0.88597918
   0.25021950  0.84714199  0.61408237
   0.74978050  0.34714199  0.38591763
   0.35616732  0.19171287  0.94098853
   0.27835695  0.13032846  0.82555245
   0.36934696  0.00626231  0.78370245
   0.50583097  0.99226544  0.87287595
   0.49645614  0.10728555  0.96918214
   0.64383268  0.69171287  0.05901147
   0.72164305  0.63032846  0.17444755
   0.63065304  0.50626231  0.21629755
   0.49416903  0.49226544  0.12712405
   0.50354386  0.60728555  0.03081786
   0.35598463  0.00292144  0.44111531
   0.49619696  0.08743081  0.46935767
   0.50572310  0.20230211  0.37295238
   0.36930214  0.18817961  0.28363830
   0.27831734  0.06414636  0.32552415
   0.64401537  0.50292144  0.55888469
   0.50380304  0.58743081  0.53064233
   0.49427690  0.70230211  0.62704762
   0.63069786  0.68817961  0.71636170
   0.72168266  0.56414636  0.67447585
   0.00615347  0.99173026  0.62625543
   0.99640370  0.10635961  0.52956310
   0.85554953  0.19018982  0.55746357
   0.77776541  0.12883228  0.67303358
   0.86929812  0.00534839  0.71527875
   0.99384653  0.49173026  0.37374457
   0.00359630  0.60635961  0.47043690
   0.14445047  0.69018982  0.44253643
   0.22223459  0.62883228  0.32696642
   0.13070188  0.50534839  0.28472125
   0.00629274  0.20256424  0.12625852
   0.86930024  0.18903129  0.21529054
   0.77781772  0.06556778  0.17305782
   0.85567993  0.00405270  0.05756840
   0.99656786  0.08786062  0.02970341
   0.99370726  0.70256424  0.87374148
   0.13069976  0.68903129  0.78470946
   0.22218228  0.56556778  0.82694218
   0.14432007  0.50405270  0.94243160
   0.00343214  0.58786062  0.97029659
qvasp                                   
           1
     7.767077    0.000000    0.072285
     0.000000    8.345249    0.000000
    -0.078716    0.000000    9.220732
   Mg   N 
   4  40
Direct configuration=    16
   0.25023308  0.34729054  0.11404815
   0.74976692  0.84729054  0.88595185
   0.25021825  0.84715353  0.61410184
   0.74978175  0.34715353  0.38589816
   0.35611883  0.19167812  0.94104807
   0.27834096  0.13034176  0.82559226
   0.36931632  0.00627421  0.78370240
   0.50584795  0.99227959  0.87284380
   0.49643494  0.10722967  0.96920140
   0.64388117  0.69167812  0.05895193
   0.72165904  0.63034176  0.17440774
   0.63068368  0.50627421  0.21629760
   0.49415205  0.49227959  0.12715620
   0.50356506  0.60722967  0.03079860
   0.35594171  0.00294704  0.44116524
   0.49619400  0.08745939  0.46937069
   0.50572314  0.20228858  0.37291263
   0.36929724  0.18815843  0.28364007
   0.27829256  0.06413140  0.32557912
   0.64405829  0.50294704  0.55883476
   0.50380600  0.58745939  0.53062931
   0.49427686  0.70228858  0.62708737
   0.63070276  0.68815843  0.71635993
   0.72170744  0.56413140  0.67442088
   0.00613793  0.99173705  0.62628540
   0.99639070  0.10632699  0.52958852
   0.85553395  0.19019492  0.55744737
   0.77777649  0.12887084  0.67300441
   0.86929403  0.00538884  0.71531225
   0.99386207  0.49173705  0.37371460
   0.00360930  0.60632699  0.47041148
   0.14446605  0.69019492  0.44255263
   0.22222351  0.62887084  0.32699559
   0.13070597  0.50538884  0.28468775
   0.00625889  0.20255590  0.12631432
   0.86931175  0.18901565  0.21528843
   0.77781720  0.06551145  0.17303482
   0.85565303  0.00407776  0.05754834
   0.99655969  0.08788836  0.02970835
   0.99374111  0.70255590  0.87368568
   0.13068825  0.68901565  0.78471157
   0.22218280  0.56551145  0.82696518
   0.14434697  0.50407776  0.94245166
   0.00344031  0.58788836  0.97029165
