Wencai
1.00000000
   13.1498307379974246    0.0000000000000000    0.0000000000000000
    2.8477021061036489    3.2579879845269812    0.0000000000000000
    0.0000000000000000    0.0000000000000000   25.0580593308642250
 P C
 12 16
Direct
  0.1666666666666667  0.7566666556666664  0.3580073866102738
  0.5000000000000000  0.0899999889999998  0.3580073866102738
  0.8333333333333331  0.4233333223333333  0.3580073866102738
  0.0000000000000000  0.5899999889999997  0.4401390195388181
  0.3333333333333333  0.9233333223333331  0.4401390195388181
  0.6666666666666665  0.2566666556666666  0.4401390195388181
  0.0000000000000000  0.4100000110000001  0.3580073866102738
  0.3333333333333334  0.7433333443333333  0.3580073866102738
  0.6666666666666666  0.0766666776666669  0.3580073866102738
  0.1666666666666667  0.5766666776666668  0.4401390195388181
  0.4999999999999999  0.9100000110000001  0.4401390195388181
  0.8333333333333331  0.2433333443333336  0.4401390195388181
 -0.0000000000000000  0.3333333333333334  0.5598609804611818
  0.7500000000000000  0.8333333333333331  0.5598609804611818
  0.5000000000000000  0.3333333333333334  0.5598609804611818
  0.2500000000000000  0.8333333333333334  0.5598609804611818
  0.1250000000000000  0.5833333333333333  0.5598609804611818
  0.8750000000000000  0.0833333333333333  0.5598609804611818
  0.6250000000000000  0.5833333333333334  0.5598609804611818
  0.3750000000000001  0.0833333333333335  0.5598609804611818
  0.8750000000000000  0.4166666666666667  0.5598609804611818
  0.6250000000000000  0.9166666666666666  0.5598609804611818
  0.3749999999999999  0.4166666666666667  0.5598609804611818
  0.1250000000000000  0.9166666666666666  0.5598609804611818
  0.0000000000000000  0.6666666666666666  0.5598609804611818
  0.7500000000000000  0.1666666666666667  0.5598609804611818
  0.4999999999999999  0.6666666666666666  0.5598609804611818
  0.2499999999999999  0.1666666666666670  0.5598609804611818
