Wencai
1.00000000
    9.9004471302462509    0.0000000000000000    0.0000000000000000
   -0.0000014140782135    4.3271113912663886    0.0000000000000000
    0.0000000000000000    0.0000000000000000   25.0580593308642250
 P C
 12 16
Direct
  0.1666666666666667  0.0899999889999998  0.3580073866102738
  0.4999999999999999  0.0899999889999998  0.3580073866102738
  0.8333333333333333  0.0899999889999998  0.3580073866102738
  0.0000000000000000  0.5899999889999998  0.4401390195388181
  0.3333333333333333  0.5899999889999998  0.4401390195388181
  0.6666666666666667  0.5899999889999998  0.4401390195388181
  0.0000000000000000  0.4100000110000002  0.3580073866102738
  0.3333333333333333  0.4100000110000002  0.3580073866102738
  0.6666666666666666  0.4100000110000002  0.3580073866102738
  0.1666666666666667  0.9100000110000002  0.4401390195388181
  0.5000000000000001  0.9100000110000002  0.4401390195388181
  0.8333333333333333  0.9100000110000002  0.4401390195388181
  0.1250000000000000  0.1666666666666667  0.5598609804611818
  0.2500000000000000  0.6666666666666669  0.5598609804611818
  0.3750000000000001  0.1666666666666666  0.5598609804611818
  0.5000000000000000  0.6666666666666666  0.5598609804611818
  0.6250000000000000  0.1666666666666670  0.5598609804611818
  0.7500000000000000  0.6666666666666670  0.5598609804611818
  0.8750000000000000  0.1666666666666670  0.5598609804611818
  0.0000000000000000  0.6666666666666670  0.5598609804611818
  0.1250000000000000  0.8333333333333333  0.5598609804611818
  0.2500000000000001  0.3333333333333334  0.5598609804611818
  0.3750000000000002  0.8333333333333333  0.5598609804611818
  0.5000000000000000  0.3333333333333334  0.5598609804611818
  0.6250000000000000  0.8333333333333330  0.5598609804611818
  0.7500000000000000  0.3333333333333330  0.5598609804611818
  0.8750000000000000  0.8333333333333330  0.5598609804611818
  0.0000000000000000  0.3333333333333330  0.5598609804611818
