<?xml version="1.0" encoding="UTF-8"?>
<xrdMeasurements xmlns="http://www.xrdml.com/XRDMeasurement/1.6" xmlns:xsi="http://www.w3.org/2001/XMLSchema-instance" xsi:schemaLocation="http://www.xrdml.com/XRDMeasurement/1.6 http://www.xrdml.com/XRDMeasurement/1.6/XRDMeasurement.xsd" status="Completed">
	<comment>
		<entry>Configuration=Reflection Transmission Spinner, Owner=User-1, Creation date=2/18/2016 10:30:15 AM</entry>
		<entry>Goniometer=PW3050/60 (Theta/Theta); Minimum step size 2Theta:0.001; Minimum step size Omega:0.001</entry>
		<entry>Sample stage=Reflection-Transmission Spinner PW3064/60; Minimum step size Phi:0.1</entry>
		<entry>Diffractometer system=XPERT-3</entry>
		<entry>Measurement program=C:\PANalytical\Data Collector\Programs\10-24_GenMin_5-70.xrdmp, Identifier={59D745C8-D919-4167-85FF-AEFCA6533036}</entry>
		<entry>Batch program=C:\PANalytical\Data Collector\Programs\6-14 Mariana.xrdmp, Identifier={1F12CA5B-6AC1-4AD7-977A-35702C9468DB}</entry>
	</comment>
	<sample type="To be analyzed">
		<id>2973_RGR1_D09_003 #1</id>
		<name>2973_RGR1_D09_003 #1</name>
		<preparedBy></preparedBy>
	</sample>
	<xrdMeasurement measurementType="Scan" status="Completed" sampleMode="Reflection">
		<comment>
			<entry>PHD Lower Level = 7.24 (keV), PHD Upper Level = 12.88 (keV)</entry>
		</comment>
		<usedWavelength intended="K-Alpha 1">
			<kAlpha1 unit="Angstrom">1.5405980</kAlpha1>
			<kAlpha2 unit="Angstrom">1.5444260</kAlpha2>
			<kBeta unit="Angstrom">1.3922500</kBeta>
			<ratioKAlpha2KAlpha1>0.5000</ratioKAlpha2KAlpha1>
		</usedWavelength>
		<incidentBeamPath>
			<radius unit="mm">240.00</radius>
			<xRayTube id="1010041" name="Empyrean Cu LFF (9430 033 7300x) DK409083">
				<tension unit="kV">45.0</tension>
				<current unit="mA">40.0</current>
				<anodeMaterial>Cu</anodeMaterial>
				<focus type="Line">
					<length unit="mm">12.0</length>
					<width unit="mm">0.4</width>
					<takeOffAngle unit="deg">6.0</takeOffAngle>
				</focus>
			</xRayTube>
			<sollerSlit id="21010002" name="Soller slits 0.04 rad.">
				<opening unit="rad">0.0400</opening>
			</sollerSlit>
			<mask id="22080002" name="Fixed incident beam mask 10 mm">
				<width unit="mm">6.60</width>
			</mask>
			<antiScatterSlit id="22010005" name="Fixed slit 1/4°" xsi:type="fixedAntiScatterSlitType">
				<height unit="mm">0.38</height>
			</antiScatterSlit>
			<divergenceSlit id="22010007" name="Fixed slit 1/8°" xsi:type="fixedDivergenceSlitType">
				<distanceToSample unit="mm">140.00</distanceToSample>
				<height unit="mm">0.19</height>
			</divergenceSlit>
		</incidentBeamPath>
		<sampleMovement xsi:type="spinningSampleMovementType">
			<spinnerRevolutionTime unit="seconds">2.0</spinnerRevolutionTime>
		</sampleMovement>
		<diffractedBeamPath>
			<radius unit="mm">240.00</radius>
			<antiScatterSlit id="22090004" name="AS slit 5.5 mm (X'Celerator)" xsi:type="fixedAntiScatterSlitType">
				<height unit="mm">5.50</height>
			</antiScatterSlit>
			<sollerSlit id="21010001" name="Soller slits 0.02 rad.">
				<opening unit="rad">0.0200</opening>
			</sollerSlit>
			<monochromator id="23010036" name="1D Standard diffracted beam monochr. Cu" hybrid="false">
				<crystal type="Symmetric" shape="Flat">C</crystal>
				<numberOfReflections>1</numberOfReflections>
				<hkl>
					<h>0</h>
					<k>0</k>
					<l>2</l>
				</hkl>
			</monochromator>
			<detector id="7010012" name="X'Celerator Scientific" xsi:type="rtmsDetectorType">
				<phd>
					<lowerLevel unit="%">45.0</lowerLevel>
					<upperLevel unit="%">80.0</upperLevel>
				</phd>
				<mode>Scanning</mode>
				<activeLength unit="deg">2.122</activeLength>
			</detector>
		</diffractedBeamPath>
		<scan appendNumber="0" mode="Continuous" scanAxis="Gonio" status="Completed">
			<header>
				<startTimeStamp>2018-06-14T13:34:02-07:00</startTimeStamp>
				<endTimeStamp>2018-06-14T14:39:19-07:00</endTimeStamp>
				<author>
					<name>labuser</name>
				</author>
				<source>
					<applicationSoftware version="5.3">Data Collector</applicationSoftware>
					<instrumentControlSoftware version="7.3f 20150929">XPERT-3</instrumentControlSoftware>
					<instrumentID>0000000011178681</instrumentID>
				</source>
			</header>
			<dataPoints>
				<positions axis="2Theta" unit="deg">
					<startPosition>3.00835563</startPosition>
					<endPosition>70.00383296</endPosition>
				</positions>
				<positions axis="Omega" unit="deg">
					<startPosition>1.50417782</startPosition>
					<endPosition>35.00191648</endPosition>
				</positions>
				<positions axis="Phi" unit="deg">
					<commonPosition>210.5</commonPosition>
				</positions>
				<commonCountingTime unit="seconds">120.015</commonCountingTime>
				<intensities unit="counts">435 425 411 370 425 383 385 424 405 426 433 384 410 381 400 358 390 401 363 421 362 385 341 344 386 413 353 361 354 362 358 378 352 352 401 351 349 336 366 383 367 307 355 350 346 331 344 342 344 321 368 312 355 349 316 384 386 372 313 334 352 379 324 375 316 361 340 352 337 314 329 345 336 314 298 337 310 334 300 307 314 331 300 294 305 315 320 305 297 337 294 295 259 309 286 293 303 290 287 318 283 284 287 313 320 292 324 293 316 324 291 272 297 299 293 307 304 275 289 270 299 302 289 278 295 291 305 319 272 304 293 291 288 277 293 261 295 297 329 305 256 286 299 267 289 295 312 293 276 259 257 279 276 276 263 283 281 281 265 276 261 263 273 280 259 287 282 264 260 265 266 259 238 263 258 255 291 247 278 300 249 261 268 274 248 261 263 254 250 298 256 261 248 225 265 245 242 246 256 244 234 254 238 250 240 277 264 240 268 243 252 262 254 262 258 236 262 252 256 242 224 232 241 239 234 267 217 227 226 241 240 231 256 259 264 241 242 209 231 230 257 223 245 219 213 212 221 251 232 238 233 242 246 240 202 224 251 205 272 232 203 209 230 204 236 215 216 250 199 196 227 203 234 234 226 203 189 214 228 217 228 195 239 211 208 209 218 200 217 220 198 220 196 211 211 232 178 214 216 199 214 186 180 201 197 184 198 202 188 193 226 216 212 194 218 214 188 185 182 183 192 192 200 199 215 178 198 175 194 183 168 185 192 191 212 166 188 178 203 170 181 195 165 173 208 185 202 162 203 188 201 189 161 198 171 196 192 198 193 185 179 183 193 191 196 178 170 166 157 168 183 215 172 160 167 160 171 147 157 154 165 182 169 176 168 153 145 166 166 161 166 159 136 157 177 159 175 157 157 176 164 165 169 152 129 137 169 164 154 185 147 154 155 159 160 152 175 155 150 139 135 146 176 152 148 156 148 148 171 159 169 161 147 150 161 137 164 150 129 151 176 144 147 159 148 166 128 152 140 169 129 159 136 132 155 149 140 145 128 141 153 138 145 155 145 138 127 148 160 152 149 141 146 135 134 139 130 136 130 149 131 140 149 135 121 144 163 109 136 134 132 145 132 141 119 110 141 139 144 140 134 137 133 134 141 102 146 122 143 107 140 137 134 159 133 147 135 125 135 138 99 131 128 125 133 104 145 105 97 120 134 121 109 116 135 137 146 123 119 117 125 130 114 125 144 114 100 124 130 108 94 135 127 115 103 114 117 119 127 127 129 144 125 127 115 130 125 113 138 113 115 130 106 117 118 134 127 115 100 115 115 117 115 119 129 116 112 118 94 133 117 113 120 120 105 98 108 112 105 117 135 100 115 106 112 127 109 104 100 118 108 117 106 100 94 115 96 120 114 121 103 122 100 103 101 98 107 105 65 114 93 94 120 107 108 89 96 103 103 114 116 106 93 103 91 103 106 91 105 97 109 98 120 97 109 112 106 107 105 103 100 94 104 102 93 107 102 85 105 98 91 89 99 90 112 109 100 78 92 105 106 100 85 109 100 104 92 94 106 76 110 108 102 115 89 93 96 99 100 106 106 90 110 82 100 102 76 101 108 76 101 83 90 89 80 92 114 92 81 104 94 100 99 100 93 87 97 89 106 113 76 83 106 96 114 80 78 89 85 89 105 98 75 86 81 75 94 107 81 92 88 69 81 72 97 91 81 66 84 84 81 107 90 89 83 93 102 93 68 71 80 88 88 77 91 97 82 83 78 90 87 81 89 67 69 103 65 98 87 74 97 78 65 98 72 78 87 66 78 75 82 74 92 67 75 82 89 89 71 83 87 67 75 94 83 76 73 74 91 87 75 66 74 86 69 66 83 74 66 80 105 88 76 83 80 81 61 83 78 86 65 89 77 65 87 70 73 81 73 81 74 77 70 58 71 71 73 62 74 60 68 69 68 92 66 68 80 71 82 73 65 75 98 74 62 49 73 74 60 70 66 67 66 78 73 73 68 71 62 50 74 56 65 65 77 69 77 72 67 81 67 62 61 74 61 58 62 77 68 68 62 76 64 64 75 67 55 74 72 72 66 72 75 76 68 59 78 69 67 62 58 62 56 58 66 76 56 69 68 49 56 69 66 57 38 69 66 64 70 73 67 62 50 64 82 77 75 50 77 53 55 70 56 50 58 68 72 70 56 62 66 83 59 62 59 48 66 45 65 65 72 50 58 61 59 58 46 67 52 61 56 54 59 51 66 58 70 49 57 73 74 69 48 52 66 71 53 70 68 61 68 56 43 62 54 66 57 56 66 52 50 49 56 50 80 51 62 64 53 61 56 51 43 59 59 75 66 46 62 54 57 66 61 70 70 66 72 58 60 78 60 73 53 48 69 73 49 74 68 65 64 75 73 52 65 68 53 75 60 70 67 56 57 51 56 54 70 65 53 54 57 78 59 65 68 49 75 54 48 67 59 57 43 55 52 61 64 54 72 45 57 60 49 56 49 52 59 54 50 51 58 59 69 64 56 60 61 75 61 54 43 53 73 59 54 55 39 42 61 51 50 59 64 61 49 69 48 60 57 53 59 55 45 48 61 59 65 61 61 60 43 57 55 52 51 61 61 54 41 69 66 61 59 54 50 54 54 60 66 54 72 77 78 54 74 62 66 84 74 87 73 84 101 98 100 99 104 130 119 112 133 141 145 133 144 177 156 193 195 191 180 180 178 191 183 171 156 147 167 130 103 116 112 82 100 104 112 90 86 70 64 72 77 75 59 62 84 55 58 70 59 57 70 51 52 60 62 50 46 46 52 60 53 57 45 50 56 49 43 49 59 49 51 38 45 42 50 54 45 66 38 46 59 49 38 57 38 38 41 38 55 53 46 53 36 46 40 35 45 55 49 49 43 42 55 56 40 49 46 48 35 53 54 48 42 52 51 40 38 44 38 40 43 45 46 39 34 43 43 37 46 58 40 43 39 42 43 33 46 38 42 41 46 46 43 62 48 53 44 53 57 58 52 62 39 44 52 46 41 40 37 52 49 41 39 53 42 49 46 56 39 50 43 39 49 45 58 43 60 53 60 57 53 49 54 68 66 67 49 51 61 60 86 69 58 64 89 69 78 102 100 94 99 117 115 122 152 149 123 132 132 170 160 165 175 183 183 180 194 210 215 223 201 226 220 200 214 224 199 191 171 181 177 153 129 146 128 123 124 105 99 88 84 115 89 100 69 78 93 77 84 73 75 69 86 70 76 58 77 66 71 81 84 78 92 67 66 70 60 86 72 58 64 66 66 64 58 57 75 59 54 73 60 57 65 64 57 69 62 67 60 65 58 72 66 70 64 68 59 68 69 71 65 65 67 69 78 69 83 76 60 65 83 74 82 81 87 97 91 90 86 89 86 92 87 92 82 87 88 89 90 77 90 75 100 93 91 107 81 92 86 75 101 80 103 86 85 83 86 101 87 93 107 115 116 101 101 113 103 105 101 128 123 131 139 135 154 155 183 181 183 202 196 218 231 235 278 276 310 403 405 448 421 535 536 609 648 715 773 896 1026 1080 1179 1208 1337 1428 1493 1539 1598 1703 1678 1757 1675 1731 1710 1668 1672 1566 1464 1470 1327 1144 1047 985 910 830 771 662 595 544 500 486 439 441 374 335 287 293 261 248 244 223 182 187 185 180 166 154 150 133 132 118 125 125 121 113 98 105 96 76 91 88 91 77 88 76 77 68 67 76 61 73 85 75 55 80 64 56 55 69 60 50 61 66 68 56 60 52 50 65 64 54 65 60 44 51 43 52 43 35 41 66 51 41 40 54 55 53 43 42 45 52 48 48 61 59 53 70 53 71 73 86 57 56 70 72 81 72 68 85 71 80 86 66 78 76 61 67 76 69 62 61 74 55 77 51 53 56 62 51 65 57 66 50 52 44 46 46 32 42 61 46 54 44 39 40 46 33 43 40 39 43 50 45 43 42 49 58 57 46 44 56 48 65 59 48 58 53 50 38 52 67 53 66 42 41 55 48 39 44 44 42 45 44 34 41 42 44 38 41 57 38 28 38 46 46 42 54 38 30 43 37 38 35 48 30 38 33 53 28 45 42 36 39 40 36 41 36 41 32 32 36 35 39 37 32 24 26 42 35 32 28 27 33 36 24 42 28 28 33 41 39 18 35 35 32 33 40 34 27 29 27 39 28 30 32 30 28 40 43 35 35 29 22 28 26 27 34 42 39 24 21 38 29 35 35 44 28 39 37 37 46 46 32 34 38 37 30 40 37 28 37 32 33 37 29 42 32 37 39 40 33 30 36 20 39 11 33 26 42 30 38 28 24 38 35 35 30 27 33 30 32 39 42 36 32 34 33 46 40 42 43 43 40 48 44 46 45 60 51 43 46 49 69 59 76 60 72 80 64 59 56 60 82 61 71 78 61 77 92 85 66 78 75 85 86 96 83 131 100 114 121 112 139 130 132 132 134 194 173 197 214 183 211 196 193 183 199 202 195 200 200 180 179 182 178 160 139 140 132 144 129 113 114 94 75 100 81 80 86 75 72 58 65 72 65 65 55 60 60 41 52 59 49 44 35 41 39 39 35 34 29 36 48 41 30 33 24 43 40 39 42 38 43 40 36 34 32 32 28 41 35 43 28 33 35 35 37 36 38 42 20 43 38 20 40 33 42 32 53 36 29 50 38 35 41 42 21 35 33 36 41 33 32 38 27 38 50 30 51 48 40 35 44 39 29 39 40 28 35 35 27 34 41 51 34 46 38 36 33 28 45 36 32 48 37 25 43 41 34 38 36 41 53 38 49 36 40 42 25 41 50 45 43 45 49 42 48 51 49 60 51 57 66 66 50 60 64 77 70 69 75 73 66 74 86 60 84 83 82 80 75 93 77 96 71 75 85 87 106 91 97 119 103 101 122 134 149 157 162 199 194 148 203 196 242 218 215 240 254 255 275 239 239 294 240 244 256 248 232 261 257 228 180 189 208 205 168 156 160 143 120 128 135 114 109 94 112 96 93 87 81 55 92 76 77 69 80 52 70 59 65 53 52 64 56 52 46 53 51 41 43 38 41 34 36 44 42 40 41 39 39 49 51 43 43 35 36 46 43 34 38 39 30 38 41 26 37 23 39 28 49 37 25 44 29 40 36 53 42 29 32 33 36 39 32 24 42 28 38 30 26 27 28 34 34 36 30 35 37 37 40 27 24 37 29 36 26 41 44 36 37 35 41 42 28 45 25 32 38 28 43 27 24 35 42 25 35 39 34 29 21 40 40 26 28 32 46 40 34 28 33 41 39 24 34 40 55 39 36 37 36 51 44 41 36 43 64 50 62 56 56 42 54 53 51 41 36 60 68 58 57 52 81 64 73 71 75 62 71 68 80 67 70 77 70 78 86 77 88 75 109 89 97 107 81 103 102 112 120 109 148 122 133 150 184 176 209 208 193 198 224 232 228 242 241 259 265 243 275 272 233 278 232 265 230 284 229 243 232 200 184 194 181 178 160 153 153 140 134 129 117 130 133 134 107 100 98 80 94 96 81 76 90 77 62 62 73 69 75 57 65 61 57 66 45 54 51 46 55 46 55 62 40 37 53 42 39 44 45 38 46 56 35 39 42 36 53 41 33 37 44 38 52 45 32 44 40 44 40 41 38 32 29 45 46 38 38 45 44 41 46 37 40 33 48 39 22 30 38 29 32 43 34 46 45 37 36 26 38 50 29 35 49 41 33 37 43 29 42 36 41 40 39 44 36 39 29 40 36 49 39 36 36 44 46 37 49 40 40 44 51 45 45 52 55 53 46 52 37 48 50 52 45 44 48 49 42 37 49 50 38 64 44 45 38 40 50 44 64 55 54 52 52 50 48 50 58 50 45 55 45 50 65 57 57 57 48 69 43 58 55 48 77 71 59 64 78 55 51 55 52 62 67 86 73 86 80 84 82 89 100 83 103 91 94 109 127 108 132 128 121 121 159 121 138 145 150 152 148 147 183 166 175 175 198 221 221 208 230 230 232 224 238 243 272 258 232 225 264 251 277 257 257 293 259 263 297 257 260 277 284 302 248 268 275 234 268 241 263 260 282 279 203 239 239 194 234 236 210 199 200 170 211 179 180 212 150 166 186 177 191 159 173 179 184 188 184 176 151 194 197 209 214 193 197 252 234 233 229 233 210 244 262 234 227 240 250 229 254 273 229 224 228 255 238 234 238 241 223 214 227 199 213 217 156 183 188 155 147 150 151 123 137 118 139 117 121 116 109 103 96 82 94 84 97 89 76 68 77 81 67 71 67 56 61 55 48 60 67 46 48 49 48 41 44 42 40 35 55 35 38 42 37 44 50 40 45 36 30 33 24 37 29 40 36 37 44 38 34 41 39 35 36 40 38 36 34 36 38 30 29 48 33 46 39 39 22 32 27 32 35 21 28 37 28 30 28 29 30 35 34 35 28 26 36 39 27 20 26 30 33 28 27 16 25 14 21 32 27 29 25 27 44 32 28 27 30 30 25 17 30 34 26 22 34 22 26 28 28 33 27 29 28 37 35 29 44 29 20 18 29 22 23 38 34 39 33 35 24 28 38 24 25 24 30 28 30 25 34 26 34 29 25 40 38 34 33 20 28 32 36 30 23 32 22 24 19 30 24 40 32 21 18 32 33 21 25 26 21 28 21 28 27 26 38 22 26 24 23 27 16 23 28 25 22 37 26 30 24 30 29 17 25 19 24 17 19 37 27 28 33 24 16 21 34 20 26 25 23 23 18 18 30 11 24 19 20 30 23 18 26 25 22 19 24 24 21 17 21 25 22 18 24 17 18 16 17 20 35 14 23 12 19 25 20 12 23 25 29 16 20 18 30 34 24 13 20 16 24 24 24 33 24 21 24 13 32 23 25 14 22 19 25 21 19 28 23 18 21 24 24 19 30 28 23 22 32 33 22 25 26 27 29 29 32 9 27 28 40 25 28 32 24 25 33 26 33 36 23 41 29 29 18 36 22 21 24 23 24 30 27 22 33 34 32 23 35 24 19 28 26 42 24 35 28 32 37 20 28 23 25 20 32 18 19 29 26 25 34 19 27 29 24 25 21 26 27 23 16 21 16 26 37 13 23 25 30 36 24 25 20 25 13 24 18 27 19 20 29 21 33 27 20 19 33 18 30 18 20 23 28 23 40 21 22 27 25 26 26 22 14 33 20 32 35 28 23 27 25 28 19 23 23 32 36 30 50 43 40 39 25 41 40 43 40 44 46 49 49 46 41 49 61 41 46 56 55 68 53 75 51 64 49 55 62 72 71 55 78 61 70 59 55 74 42 57 62 64 71 58 73 77 56 72 62 67 70 61 62 74 67 68 68 78 74 90 81 75 90 105 89 81 90 83 77 99 106 101 100 83 93 98 108 110 90 94 106 105 118 106 103 99 103 103 97 99 107 86 94 98 91 78 82 83 77 81 71 67 67 70 67 76 81 69 55 68 68 48 57 53 58 40 54 53 42 56 53 43 49 54 56 43 44 50 49 32 38 34 40 37 41 34 42 35 46 35 48 40 26 50 42 32 37 29 30 21 44 30 32 28 32 35 27 25 24 33 21 35 26 21 34 37 36 24 24 29 38 25 24 18 18 35 39 24 21 23 23 22 29 20 16 22 24 29 17 29 27 20 12 20 24 16 20 27 20 24 22 27 21 34 23 17 19 32 25 28 21 35 13 36 18 18 17 21 27 17 28 28 20 27 25 23 29 24 20 17 25 32 27 30 35 23 25 32 29 32 30 32 29 30 35 28 39 38 34 37 35 42 49 55 44 53 51 52 52 61 46 66 48 62 57 71 57 70 76 84 75 60 71 71 77 73 71 89 93 103 99 69 81 85 83 87 90 105 70 88 84 75 89 75 78 92 93 84 70 84 74 83 94 91 74 60 72 71 56 60 72 74 64 70 61 56 62 58 49 52 68 66 51 65 64 58 58 51 50 54 51 46 46 50 45 48 42 39 50 41 44 38 40 48 40 50 35 29 32 28 23 18 38 28 33 24 40 30 26 23 34 35 29 27 38 28 32 36 29 34 25 34 30 25 24 32 19 35 30 38 32 28 29 27 23 32 19 26 30 26 26 32 25 21 27 36 29 20 26 36 25 37 43 33 37 33 27 32 34 33 35 39 30 41 23 25 33 35 32 44 29 23 40 34 36 25 30 26 40 29 30 34 26 30 36 34 23 35 40 27 30 34 22 38 36 30 24 25 37 35 29 23 26 30 30 29 38 20 21 32 34 29 29 23 27 27 20 27 25 28 26 29 25 26 32 38 28 29 29 32 54 25 33 35 32 34 40 26 30 38 43 49 38 52 56 44 50 46 52 53 52 50 56 55 78 66 62 67 69 64 70 58 55 83 57 76 76 69 69 75 61 65 70 58 61 66 71 67 82 61 44 66 59 65 54 75 70 78 73 64 50 60 61 56 51 60 53 51 50 64 62 54 54 59 46 67 56 49 59 51 52 64 46 64 59 49 51 66 52 61 69 52 57 52 51 57 61 59 56 48 69 39 44 46 42 45 46 48 43 48 40 49 51 35 32 48 43 43 40 40 35 45 34 22 24 32 29 44 25 40 25 28 26 30 28 23 18 24 33 21 29 19 26 18 11 22 19 20 24 27 18 21 12 13 18 16 26 22 21 18 24 29 20 18 21 24 21 16 28 22 17 19 18 19 12 13 14 19 20 23 19 25 19 18 19 19 17 9 16 19 23 16 22 23 20 20 20 12 14 17 16 26 14 19 19 19 16 29 22 14 17 10 17 14 18 17 11 24 11 20 21 18 23 16 16 19 20 17 11 19 16 17 19 23 17 30 13 19 14 20 24 21 19 12 23 13 21 14 26 13 18 28 19 22 24 32 23 21 11 24 25 18 23 19 22 20 16 30 20 13 26 19 11 18 20 23 24 14 24 23 19 21 22 25 30 28 23 23 14 22 18 33 26 19 17 26 23 32 26 26 24 26 29 24 37 29 30 24 30 25 29 26 21 35 35 35 26 30 27 21 37 21 35 37 34 27 24 30 23 23 22 27 34 23 26 33 30 24 32 20 23 20 18</intensities>
			</dataPoints>
		</scan>
	</xrdMeasurement>
</xrdMeasurements>
