Cu   C    O    H 
   1.00000000000000     
   5.1119999886000000   0.0000000000000000   0.0000000000000000
  -0.0000088492000000   5.1119999885000000   0.0000000000000000
  -0.0000266965000000  -0.0000266965000000  15.4221000671000006
Cu   C    O    H 
16  1  1  1  
Selective dynamics
Direct
  0.0000300000000024  0.0013300000000029  0.1797900050000010 F F F
  0.0002423882920155  0.0040165197787800  0.4108868518053870 T T T
  0.2500000000000000  0.2500000000000000  0.0648399960000035 F F F
  0.2550650898177910  0.2509103559275940  0.2988906387216300 T T T
  0.5000100139999970  0.0004199999999983  0.1793099940000000 F F F
  0.4994401554657630  0.0011519568779832  0.4219066530636580 T T T
  0.7500000000000000  0.2500000000000000  0.0648399960000035 F F F
  0.7430799745620790  0.2508927367251990  0.3002585525401430 T T T
  0.0000199999999992  0.4999800029999970  0.1809100059999980 F F F
  0.0002084359630174  0.4995440165943850  0.4147571040659700 T T T
  0.2500000000000000  0.7500000000000000  0.0648399960000035 F F F
  0.2528795962069880  0.7507188914317310  0.2986021272070050 T T T
  0.5000200269999980  0.5008000139999990  0.1798200010000030 F F F
  0.4995416640489760  0.4926103290680360  0.4236972068934290 T T T
  0.7500000000000000  0.7500000000000000  0.0648399960000035 F F F
  0.7478442869346220  0.7508110322588520  0.2993723550804930 T T T
  0.5041821424586320  0.6685044417129760  0.5341878870056860 T T T
  0.5050844506580390  0.8436961503703700  0.5667868357063740 T T T
  0.4285956849023480  0.4311138956452960  0.5553617702523110 T T T
