!BIOSYM archive 3
PBC=ON
                                                                          0.0000
!DATE     May 15 21:11:07 2019
PBC   15.845   16.830   21.258   90.000   90.000   87.648
P        5.057740000    1.608470000   11.686830000 XXXX 1      xx      P   0.000
P       10.338010000    1.724950000   11.686820000 XXXX 1      xx      P   0.000
P       15.618280000    1.841420000   11.686820000 XXXX 1      xx      P   0.000
P        5.164250000    7.217420000   11.686830000 XXXX 1      xx      P   0.000
P       10.444530000    7.333900000   11.686820000 XXXX 1      xx      P   0.000
P       15.724800000    7.450370000   11.686820000 XXXX 1      xx      P   0.000
P        5.270770000   12.826370000   11.686830000 XXXX 1      xx      P   0.000
P       10.551040000   12.942850000   11.686820000 XXXX 1      xx      P   0.000
P       15.831320000   13.059320000   11.686820000 XXXX 1      xx      P   0.000
P        0.105730000    3.892550000    9.124290000 XXXX 1      xx      P   0.000
P        5.386000000    4.009020000    9.124280000 XXXX 1      xx      P   0.000
P       10.666270000    4.125500000    9.124280000 XXXX 1      xx      P   0.000
P        0.212240000    9.501500000    9.124290000 XXXX 1      xx      P   0.000
P        5.492520000    9.617970000    9.124280000 XXXX 1      xx      P   0.000
P       10.772790000    9.734450000    9.124280000 XXXX 1      xx      P   0.000
P        0.318760000   15.110450000    9.124290000 XXXX 1      xx      P   0.000
P        5.599030000   15.226920000    9.124280000 XXXX 1      xx      P   0.000
P       10.879310000   15.343400000    9.124280000 XXXX 1      xx      P   0.000
P        2.417600000    1.550240000    9.571540000 XXXX 1      xx      P   0.000
P        7.697870000    1.666710000    9.571530000 XXXX 1      xx      P   0.000
P       12.978140000    1.783190000    9.571530000 XXXX 1      xx      P   0.000
P        2.524120000    7.159190000    9.571540000 XXXX 1      xx      P   0.000
P        7.804390000    7.275660000    9.571530000 XXXX 1      xx      P   0.000
P       13.084660000    7.392140000    9.571530000 XXXX 1      xx      P   0.000
P        2.630640000   12.768140000    9.571540000 XXXX 1      xx      P   0.000
P        7.910910000   12.884610000    9.571530000 XXXX 1      xx      P   0.000
P       13.191180000   13.001090000    9.571530000 XXXX 1      xx      P   0.000
P        2.745860000    3.950780000   12.134080000 XXXX 1      xx      P   0.000
P        8.026130000    4.067260000   12.134080000 XXXX 1      xx      P   0.000
P       13.306400000    4.183730000   12.134070000 XXXX 1      xx      P   0.000
P        2.852380000    9.559730000   12.134080000 XXXX 1      xx      P   0.000
P        8.132650000    9.676210000   12.134080000 XXXX 1      xx      P   0.000
P       13.412920000    9.792680000   12.134070000 XXXX 1      xx      P   0.000
P        2.958900000   15.168680000   12.134080000 XXXX 1      xx      P   0.000
P        8.239170000   15.285160000   12.134080000 XXXX 1      xx      P   0.000
P       13.519440000   15.401630000   12.134070000 XXXX 1      xx      P   0.000
P        2.835180000    1.765850000   11.760130000 XXXX 1      xx      P   0.000
P        8.115450000    1.882320000   11.760130000 XXXX 1      xx      P   0.000
P       13.395720000    1.998790000   11.760120000 XXXX 1      xx      P   0.000
P        2.941700000    7.374800000   11.760130000 XXXX 1      xx      P   0.000
P        8.221970000    7.491270000   11.760130000 XXXX 1      xx      P   0.000
P       13.502240000    7.607740000   11.760120000 XXXX 1      xx      P   0.000
P        3.048210000   12.983750000   11.760130000 XXXX 1      xx      P   0.000
P        8.328490000   13.100220000   11.760130000 XXXX 1      xx      P   0.000
P       13.608760000   13.216700000   11.760120000 XXXX 1      xx      P   0.000
P        0.195040000    1.707610000    9.498240000 XXXX 1      xx      P   0.000
P        5.475310000    1.824080000    9.498240000 XXXX 1      xx      P   0.000
P       10.755580000    1.940560000    9.498230000 XXXX 1      xx      P   0.000
P        0.301560000    7.316560000    9.498240000 XXXX 1      xx      P   0.000
P        5.581830000    7.433030000    9.498240000 XXXX 1      xx      P   0.000
P       10.862100000    7.549510000    9.498230000 XXXX 1      xx      P   0.000
P        0.408080000   12.925510000    9.498240000 XXXX 1      xx      P   0.000
P        5.688350000   13.041980000    9.498240000 XXXX 1      xx      P   0.000
P       10.968620000   13.158460000    9.498230000 XXXX 1      xx      P   0.000
In       2.780790000    4.491450000    9.483980000 XXXX 1      xx      In  0.000
In       8.061060000    4.607930000    9.483980000 XXXX 1      xx      In  0.000
In      13.341330000    4.724400000    9.483970000 XXXX 1      xx      In  0.000
In       2.887310000   10.100400000    9.483980000 XXXX 1      xx      In  0.000
In       8.167580000   10.216880000    9.483980000 XXXX 1      xx      In  0.000
In      13.447850000   10.333350000    9.483970000 XXXX 1      xx      In  0.000
In       2.993830000   15.709350000    9.483980000 XXXX 1      xx      In  0.000
In       8.274100000   15.825830000    9.483980000 XXXX 1      xx      In  0.000
In      13.554370000   15.942300000    9.483970000 XXXX 1      xx      In  0.000
In       0.140660000    4.433210000   11.774390000 XXXX 1      xx      In  0.000
In       5.420930000    4.549690000   11.774390000 XXXX 1      xx      In  0.000
In      10.701200000    4.666160000   11.774380000 XXXX 1      xx      In  0.000
In       0.247170000   10.042160000   11.774390000 XXXX 1      xx      In  0.000
In       5.527450000   10.158640000   11.774390000 XXXX 1      xx      In  0.000
In      10.807720000   10.275110000   11.774380000 XXXX 1      xx      In  0.000
In       0.353690000   15.651120000   11.774390000 XXXX 1      xx      In  0.000
In       5.633960000   15.767590000   11.774390000 XXXX 1      xx      In  0.000
In      10.914240000   15.884060000   11.774380000 XXXX 1      xx      In  0.000
end
end
                                                                          0.0000
!DATE     May 15 21:11:07 2019
PBC   15.845   16.830   21.258   90.000   90.000   87.648
P        5.055400000    1.615730000   11.691820000 XXXX 1      xx      P   0.000
P       10.331700000    1.729900000   11.687610000 XXXX 1      xx      P   0.000
P       15.614480000    1.843190000   11.688500000 XXXX 1      xx      P   0.000
P        5.175730000    7.212220000   11.681250000 XXXX 1      xx      P   0.000
P       10.448640000    7.342830000   11.685100000 XXXX 1      xx      P   0.000
P       15.725060000    7.442960000   11.684350000 XXXX 1      xx      P   0.000
P        5.267490000   12.830420000   11.682870000 XXXX 1      xx      P   0.000
P       10.551460000   12.939400000   11.680810000 XXXX 1      xx      P   0.000
P       15.833030000   13.062710000   11.693340000 XXXX 1      xx      P   0.000
P        0.105650000    3.896180000    9.123580000 XXXX 1      xx      P   0.000
P        5.384120000    4.001650000    9.118310000 XXXX 1      xx      P   0.000
P       10.674240000    4.111990000    9.121760000 XXXX 1      xx      P   0.000
P        0.215200000    9.495690000    9.122520000 XXXX 1      xx      P   0.000
P        5.481680000    9.625100000    9.135460000 XXXX 1      xx      P   0.000
P       10.778900000    9.732510000    9.124000000 XXXX 1      xx      P   0.000
P        0.319320000   15.105690000    9.129530000 XXXX 1      xx      P   0.000
P        5.606080000   15.231520000    9.131380000 XXXX 1      xx      P   0.000
P       10.875460000   15.348630000    9.126050000 XXXX 1      xx      P   0.000
P        2.428800000    1.548410000    9.583580000 XXXX 1      xx      P   0.000
P        7.698620000    1.664460000    9.569840000 XXXX 1      xx      P   0.000
P       12.974130000    1.778470000    9.572010000 XXXX 1      xx      P   0.000
P        2.527680000    7.153950000    9.576260000 XXXX 1      xx      P   0.000
P        7.803970000    7.279040000    9.564910000 XXXX 1      xx      P   0.000
P       13.071170000    7.389480000    9.569720000 XXXX 1      xx      P   0.000
P        2.634160000   12.772120000    9.575230000 XXXX 1      xx      P   0.000
P        7.908220000   12.891410000    9.570320000 XXXX 1      xx      P   0.000
P       13.195740000   12.997290000    9.573280000 XXXX 1      xx      P   0.000
P        2.748420000    3.954760000   12.122920000 XXXX 1      xx      P   0.000
P        8.038120000    4.063860000   12.129850000 XXXX 1      xx      P   0.000
P       13.302340000    4.188830000   12.125060000 XXXX 1      xx      P   0.000
P        2.857090000    9.560300000   12.140820000 XXXX 1      xx      P   0.000
P        8.131910000    9.667770000   12.142690000 XXXX 1      xx      P   0.000
P       13.410810000    9.796990000   12.138320000 XXXX 1      xx      P   0.000
P        2.951950000   15.162850000   12.130710000 XXXX 1      xx      P   0.000
P        8.237100000   15.285150000   12.136230000 XXXX 1      xx      P   0.000
P       13.525760000   15.409840000   12.138000000 XXXX 1      xx      P   0.000
P        2.844200000    1.762930000   11.752320000 XXXX 1      xx      P   0.000
P        8.109880000    1.875670000   11.749160000 XXXX 1      xx      P   0.000
P       13.395510000    2.002730000   11.760240000 XXXX 1      xx      P   0.000
P        2.942110000    7.376780000   11.774800000 XXXX 1      xx      P   0.000
P        8.228070000    7.497010000   11.765940000 XXXX 1      xx      P   0.000
P       13.498440000    7.593050000   11.751400000 XXXX 1      xx      P   0.000
P        3.054260000   12.984770000   11.756300000 XXXX 1      xx      P   0.000
P        8.329110000   13.114170000   11.769010000 XXXX 1      xx      P   0.000
P       13.604110000   13.220820000   11.761200000 XXXX 1      xx      P   0.000
P        0.193520000    1.714940000    9.493870000 XXXX 1      xx      P   0.000
P        5.473990000    1.824980000    9.506810000 XXXX 1      xx      P   0.000
P       10.755600000    1.932090000    9.504250000 XXXX 1      xx      P   0.000
P        0.302650000    7.308770000    9.506060000 XXXX 1      xx      P   0.000
P        5.580020000    7.437610000    9.493340000 XXXX 1      xx      P   0.000
P       10.862990000    7.550030000    9.496310000 XXXX 1      xx      P   0.000
P        0.416810000   12.932420000    9.498050000 XXXX 1      xx      P   0.000
P        5.694520000   13.043740000    9.494940000 XXXX 1      xx      P   0.000
P       10.969600000   13.149950000    9.496660000 XXXX 1      xx      P   0.000
In       2.780220000    4.493490000    9.484340000 XXXX 1      xx      In  0.000
In       8.063890000    4.604470000    9.485900000 XXXX 1      xx      In  0.000
In      13.338530000    4.721250000    9.486940000 XXXX 1      xx      In  0.000
In       2.883380000   10.103490000    9.486950000 XXXX 1      xx      In  0.000
In       8.167760000   10.211240000    9.482290000 XXXX 1      xx      In  0.000
In      13.443510000   10.329260000    9.479170000 XXXX 1      xx      In  0.000
In       2.994420000   15.704900000    9.483800000 XXXX 1      xx      In  0.000
In       8.272620000   15.826730000    9.482520000 XXXX 1      xx      In  0.000
In      13.554310000   15.946330000    9.482240000 XXXX 1      xx      In  0.000
In       0.140190000    4.430140000   11.774010000 XXXX 1      xx      In  0.000
In       5.419810000    4.554360000   11.774360000 XXXX 1      xx      In  0.000
In      10.699870000    4.667190000   11.771560000 XXXX 1      xx      In  0.000
In       0.245100000   10.043110000   11.780290000 XXXX 1      xx      In  0.000
In       5.529130000   10.158520000   11.773200000 XXXX 1      xx      In  0.000
In      10.805940000   10.273730000   11.774500000 XXXX 1      xx      In  0.000
In       0.350590000   15.650650000   11.770260000 XXXX 1      xx      In  0.000
In       5.638690000   15.771830000   11.773110000 XXXX 1      xx      In  0.000
In      10.915360000   15.888040000   11.773660000 XXXX 1      xx      In  0.000
end
end
                                                                          0.0000
!DATE     May 15 21:11:07 2019
PBC   15.845   16.830   21.258   90.000   90.000   87.648
P        5.053210000    1.622940000   11.696840000 XXXX 1      xx      P   0.000
P       10.325440000    1.734760000   11.688430000 XXXX 1      xx      P   0.000
P       15.610740000    1.844960000   11.690080000 XXXX 1      xx      P   0.000
P        5.187060000    7.207090000   11.675700000 XXXX 1      xx      P   0.000
P       10.452770000    7.351670000   11.683360000 XXXX 1      xx      P   0.000
P       15.725270000    7.435600000   11.681960000 XXXX 1      xx      P   0.000
P        5.264330000   12.834410000   11.678890000 XXXX 1      xx      P   0.000
P       10.551870000   12.936010000   11.674840000 XXXX 1      xx      P   0.000
P       15.834700000   13.066060000   11.699780000 XXXX 1      xx      P   0.000
P        0.105530000    3.899820000    9.122870000 XXXX 1      xx      P   0.000
P        5.382260000    3.994340000    9.112380000 XXXX 1      xx      P   0.000
P       10.682100000    4.098570000    9.119250000 XXXX 1      xx      P   0.000
P        0.218090000    9.489840000    9.120820000 XXXX 1      xx      P   0.000
P        5.470910000    9.632190000    9.146570000 XXXX 1      xx      P   0.000
P       10.784940000    9.730590000    9.123710000 XXXX 1      xx      P   0.000
P        0.319850000   15.101060000    9.134710000 XXXX 1      xx      P   0.000
P        5.613040000   15.236090000    9.138430000 XXXX 1      xx      P   0.000
P       10.871650000   15.353710000    9.127850000 XXXX 1      xx      P   0.000
P        2.439840000    1.546610000    9.595380000 XXXX 1      xx      P   0.000
P        7.699350000    1.662220000    9.568070000 XXXX 1      xx      P   0.000
P       12.970180000    1.773780000    9.572530000 XXXX 1      xx      P   0.000
P        2.531220000    7.148770000    9.581090000 XXXX 1      xx      P   0.000
P        7.803580000    7.282400000    9.558430000 XXXX 1      xx      P   0.000
P       13.057890000    7.386790000    9.567860000 XXXX 1      xx      P   0.000
P        2.637730000   12.776070000    9.578850000 XXXX 1      xx      P   0.000
P        7.905630000   12.898120000    9.569230000 XXXX 1      xx      P   0.000
P       13.200260000   12.993530000    9.575030000 XXXX 1      xx      P   0.000
P        2.750950000    3.958640000   12.111800000 XXXX 1      xx      P   0.000
P        8.049940000    4.060440000   12.125630000 XXXX 1      xx      P   0.000
P       13.298290000    4.193910000   12.116110000 XXXX 1      xx      P   0.000
P        2.861760000    9.560870000   12.147530000 XXXX 1      xx      P   0.000
P        8.131170000    9.659490000   12.151250000 XXXX 1      xx      P   0.000
P       13.408690000    9.801070000   12.142490000 XXXX 1      xx      P   0.000
P        2.945070000   15.157110000   12.127350000 XXXX 1      xx      P   0.000
P        8.235050000   15.285280000   12.138390000 XXXX 1      xx      P   0.000
P       13.531980000   15.417960000   12.141890000 XXXX 1      xx      P   0.000
P        2.853100000    1.760120000   11.744740000 XXXX 1      xx      P   0.000
P        8.104360000    1.869130000   11.738330000 XXXX 1      xx      P   0.000
P       13.395260000    2.006660000   11.760360000 XXXX 1      xx      P   0.000
P        2.942630000    7.378730000   11.789330000 XXXX 1      xx      P   0.000
P        8.234100000    7.502630000   11.771620000 XXXX 1      xx      P   0.000
P       13.494680000    7.578620000   11.742810000 XXXX 1      xx      P   0.000
P        3.060210000   12.985770000   11.752540000 XXXX 1      xx      P   0.000
P        8.329720000   13.127940000   11.777740000 XXXX 1      xx      P   0.000
P       13.599580000   13.224980000   11.762310000 XXXX 1      xx      P   0.000
P        0.192130000    1.722220000    9.489590000 XXXX 1      xx      P   0.000
P        5.472710000    1.825840000    9.515300000 XXXX 1      xx      P   0.000
P       10.755590000    1.923630000    9.510220000 XXXX 1      xx      P   0.000
P        0.303800000    7.301040000    9.513740000 XXXX 1      xx      P   0.000
P        5.578220000    7.442200000    9.488420000 XXXX 1      xx      P   0.000
P       10.863750000    7.550580000    9.494400000 XXXX 1      xx      P   0.000
P        0.425460000   12.939220000    9.497950000 XXXX 1      xx      P   0.000
P        5.700610000   13.045550000    9.491650000 XXXX 1      xx      P   0.000
P       10.970600000   13.141610000    9.495020000 XXXX 1      xx      P   0.000
In       2.779660000    4.495520000    9.484680000 XXXX 1      xx      In  0.000
In       8.066730000    4.601020000    9.487800000 XXXX 1      xx      In  0.000
In      13.335740000    4.718110000    9.489890000 XXXX 1      xx      In  0.000
In       2.879430000   10.106560000    9.489920000 XXXX 1      xx      In  0.000
In       8.167940000   10.205620000    9.480620000 XXXX 1      xx      In  0.000
In      13.439180000   10.325170000    9.474390000 XXXX 1      xx      In  0.000
In       2.995030000   15.700460000    9.483610000 XXXX 1      xx      In  0.000
In       8.271150000   15.827620000    9.481060000 XXXX 1      xx      In  0.000
In      13.554250000   15.950340000    9.480520000 XXXX 1      xx      In  0.000
In       0.139730000    4.427070000   11.773630000 XXXX 1      xx      In  0.000
In       5.418720000    4.559030000   11.774320000 XXXX 1      xx      In  0.000
In      10.698550000    4.668220000   11.768740000 XXXX 1      xx      In  0.000
In       0.243040000   10.044040000   11.786180000 XXXX 1      xx      In  0.000
In       5.530810000   10.158400000   11.772030000 XXXX 1      xx      In  0.000
In      10.804170000   10.272350000   11.774610000 XXXX 1      xx      In  0.000
In       0.347500000   15.650200000   11.766140000 XXXX 1      xx      In  0.000
In       5.643390000   15.776060000   11.771850000 XXXX 1      xx      In  0.000
In      10.916500000   15.892000000   11.772940000 XXXX 1      xx      In  0.000
end
end
                                                                          0.0000
!DATE     May 15 21:11:07 2019
PBC   15.845   16.830   21.258   90.000   90.000   87.648
P        5.051290000    1.630010000   11.701900000 XXXX 1      xx      P   0.000
P       10.319280000    1.739450000   11.689340000 XXXX 1      xx      P   0.000
P       15.607090000    1.846730000   11.691480000 XXXX 1      xx      P   0.000
P        5.198120000    7.202100000   11.670240000 XXXX 1      xx      P   0.000
P       10.456900000    7.360330000   11.681640000 XXXX 1      xx      P   0.000
P       15.725370000    7.428330000   11.679720000 XXXX 1      xx      P   0.000
P        5.261410000   12.838300000   11.674900000 XXXX 1      xx      P   0.000
P       10.552270000   12.932720000   11.668990000 XXXX 1      xx      P   0.000
P       15.836290000   13.069350000   11.706070000 XXXX 1      xx      P   0.000
P        0.105360000    3.903490000    9.122160000 XXXX 1      xx      P   0.000
P        5.380460000    3.987190000    9.106520000 XXXX 1      xx      P   0.000
P       10.689800000    4.085310000    9.116700000 XXXX 1      xx      P   0.000
P        0.220880000    9.483940000    9.119250000 XXXX 1      xx      P   0.000
P        5.460290000    9.639230000    9.157560000 XXXX 1      xx      P   0.000
P       10.790810000    9.728750000    9.123380000 XXXX 1      xx      P   0.000
P        0.320350000   15.096690000    9.139770000 XXXX 1      xx      P   0.000
P        5.619860000   15.240630000    9.145390000 XXXX 1      xx      P   0.000
P       10.867900000   15.358490000    9.129670000 XXXX 1      xx      P   0.000
P        2.450550000    1.544810000    9.606670000 XXXX 1      xx      P   0.000
P        7.700000000    1.660010000    9.566130000 XXXX 1      xx      P   0.000
P       12.966360000    1.769120000    9.573090000 XXXX 1      xx      P   0.000
P        2.534700000    7.143680000    9.586120000 XXXX 1      xx      P   0.000
P        7.803210000    7.285720000    9.552200000 XXXX 1      xx      P   0.000
P       13.045000000    7.384020000    9.565860000 XXXX 1      xx      P   0.000
P        2.641370000   12.779950000    9.582350000 XXXX 1      xx      P   0.000
P        7.903270000   12.904640000    9.568370000 XXXX 1      xx      P   0.000
P       13.204670000   12.989840000    9.576770000 XXXX 1      xx      P   0.000
P        2.753410000    3.962380000   12.100790000 XXXX 1      xx      P   0.000
P        8.061430000    4.056990000   12.121440000 XXXX 1      xx      P   0.000
P       13.294290000    4.198960000   12.107270000 XXXX 1      xx      P   0.000
P        2.866330000    9.561480000   12.154190000 XXXX 1      xx      P   0.000
P        8.130430000    9.651530000   12.159760000 XXXX 1      xx      P   0.000
P       13.406590000    9.804730000   12.146500000 XXXX 1      xx      P   0.000
P        2.938310000   15.151570000   12.124050000 XXXX 1      xx      P   0.000
P        8.233090000   15.285710000   12.140580000 XXXX 1      xx      P   0.000
P       13.538040000   15.425920000   12.145690000 XXXX 1      xx      P   0.000
P        2.861740000    1.757510000   11.737670000 XXXX 1      xx      P   0.000
P        8.098940000    1.862730000   11.727750000 XXXX 1      xx      P   0.000
P       13.394940000    2.010550000   11.760500000 XXXX 1      xx      P   0.000
P        2.943380000    7.380600000   11.803610000 XXXX 1      xx      P   0.000
P        8.240020000    7.507990000   11.777000000 XXXX 1      xx      P   0.000
P       13.491000000    7.564640000   11.734440000 XXXX 1      xx      P   0.000
P        3.065970000   12.986700000   11.748910000 XXXX 1      xx      P   0.000
P        8.330340000   13.141330000   11.786200000 XXXX 1      xx      P   0.000
P       13.595260000   13.229210000   11.763490000 XXXX 1      xx      P   0.000
P        0.190970000    1.729370000    9.485510000 XXXX 1      xx      P   0.000
P        5.471470000    1.826610000    9.523650000 XXXX 1      xx      P   0.000
P       10.755540000    1.915180000    9.516080000 XXXX 1      xx      P   0.000
P        0.305070000    7.293410000    9.521170000 XXXX 1      xx      P   0.000
P        5.576430000    7.446800000    9.483480000 XXXX 1      xx      P   0.000
P       10.864230000    7.551130000    9.492520000 XXXX 1      xx      P   0.000
P        0.433920000   12.945750000    9.498040000 XXXX 1      xx      P   0.000
P        5.706550000   13.047460000    9.488360000 XXXX 1      xx      P   0.000
P       10.971670000   13.133570000    9.493270000 XXXX 1      xx      P   0.000
In       2.779110000    4.497530000    9.485000000 XXXX 1      xx      In  0.000
In       8.069560000    4.597570000    9.489680000 XXXX 1      xx      In  0.000
In      13.332960000    4.714980000    9.492800000 XXXX 1      xx      In  0.000
In       2.875470000   10.109630000    9.492910000 XXXX 1      xx      In  0.000
In       8.168120000   10.200040000    9.478950000 XXXX 1      xx      In  0.000
In      13.434900000   10.321070000    9.469630000 XXXX 1      xx      In  0.000
In       2.995640000   15.696030000    9.483420000 XXXX 1      xx      In  0.000
In       8.269700000   15.828510000    9.479610000 XXXX 1      xx      In  0.000
In      13.554190000   15.954320000    9.478800000 XXXX 1      xx      In  0.000
In       0.139270000    4.423980000   11.773250000 XXXX 1      xx      In  0.000
In       5.417660000    4.563660000   11.774270000 XXXX 1      xx      In  0.000
In      10.697230000    4.669270000   11.765920000 XXXX 1      xx      In  0.000
In       0.240980000   10.044980000   11.792050000 XXXX 1      xx      In  0.000
In       5.532490000   10.158300000   11.770890000 XXXX 1      xx      In  0.000
In      10.802410000   10.270980000   11.774730000 XXXX 1      xx      In  0.000
In       0.344420000   15.649760000   11.762040000 XXXX 1      xx      In  0.000
In       5.648070000   15.780300000   11.770620000 XXXX 1      xx      In  0.000
In      10.917640000   15.895970000   11.772230000 XXXX 1      xx      In  0.000
end
end
                                                                          0.0000
!DATE     May 15 21:11:07 2019
PBC   15.845   16.830   21.258   90.000   90.000   87.648
P        5.049790000    1.636890000   11.707040000 XXXX 1      xx      P   0.000
P       10.313250000    1.743900000   11.690400000 XXXX 1      xx      P   0.000
P       15.603560000    1.848510000   11.692640000 XXXX 1      xx      P   0.000
P        5.208790000    7.197360000   11.664910000 XXXX 1      xx      P   0.000
P       10.461020000    7.368730000   11.679930000 XXXX 1      xx      P   0.000
P       15.725300000    7.421180000   11.677730000 XXXX 1      xx      P   0.000
P        5.258830000   12.842060000   11.670900000 XXXX 1      xx      P   0.000
P       10.552650000   12.929580000   11.663320000 XXXX 1      xx      P   0.000
P       15.837720000   13.072540000   11.712140000 XXXX 1      xx      P   0.000
P        0.105140000    3.907200000    9.121430000 XXXX 1      xx      P   0.000
P        5.378740000    3.980250000    9.100780000 XXXX 1      xx      P   0.000
P       10.697260000    4.072270000    9.114110000 XXXX 1      xx      P   0.000
P        0.223540000    9.477990000    9.117860000 XXXX 1      xx      P   0.000
P        5.449900000    9.646190000    9.168350000 XXXX 1      xx      P   0.000
P       10.796480000    9.727030000    9.122980000 XXXX 1      xx      P   0.000
P        0.320820000   15.092750000    9.144630000 XXXX 1      xx      P   0.000
P        5.626460000   15.245120000    9.152220000 XXXX 1      xx      P   0.000
P       10.864280000   15.362850000    9.131530000 XXXX 1      xx      P   0.000
P        2.460780000    1.543050000    9.617190000 XXXX 1      xx      P   0.000
P        7.700550000    1.657840000    9.563890000 XXXX 1      xx      P   0.000
P       12.962720000    1.764530000    9.573720000 XXXX 1      xx      P   0.000
P        2.538100000    7.138750000    9.591430000 XXXX 1      xx      P   0.000
P        7.802870000    7.288990000    9.546330000 XXXX 1      xx      P   0.000
P       13.032700000    7.381150000    9.563660000 XXXX 1      xx      P   0.000
P        2.645080000   12.783720000    9.585650000 XXXX 1      xx      P   0.000
P        7.901200000   12.910890000    9.567850000 XXXX 1      xx      P   0.000
P       13.208950000   12.986270000    9.578470000 XXXX 1      xx      P   0.000
P        2.755800000    3.965900000   12.089920000 XXXX 1      xx      P   0.000
P        8.072480000    4.053500000   12.117280000 XXXX 1      xx      P   0.000
P       13.290370000    4.203960000   12.098630000 XXXX 1      xx      P   0.000
P        2.870790000    9.562140000   12.160790000 XXXX 1      xx      P   0.000
P        8.129700000    9.644060000   12.168190000 XXXX 1      xx      P   0.000
P       13.404500000    9.807820000   12.150290000 XXXX 1      xx      P   0.000
P        2.931740000   15.146310000   12.120830000 XXXX 1      xx      P   0.000
P        8.231270000   15.286610000   12.142810000 XXXX 1      xx      P   0.000
P       13.543880000   15.433680000   12.149380000 XXXX 1      xx      P   0.000
P        2.870010000    1.755190000   11.731340000 XXXX 1      xx      P   0.000
P        8.093640000    1.856540000   11.717530000 XXXX 1      xx      P   0.000
P       13.394500000    2.014380000   11.760650000 XXXX 1      xx      P   0.000
P        2.944460000    7.382330000   11.817540000 XXXX 1      xx      P   0.000
P        8.245770000    7.512940000   11.781960000 XXXX 1      xx      P   0.000
P       13.487430000    7.551290000   11.726420000 XXXX 1      xx      P   0.000
P        3.071430000   12.987510000   11.745480000 XXXX 1      xx      P   0.000
P        8.330950000   13.154160000   11.794240000 XXXX 1      xx      P   0.000
P       13.591270000   13.233520000   11.764770000 XXXX 1      xx      P   0.000
P        0.190150000    1.736320000    9.481710000 XXXX 1      xx      P   0.000
P        5.470300000    1.827250000    9.531790000 XXXX 1      xx      P   0.000
P       10.755430000    1.906690000    9.521810000 XXXX 1      xx      P   0.000
P        0.306490000    7.285920000    9.528230000 XXXX 1      xx      P   0.000
P        5.574670000    7.451390000    9.478500000 XXXX 1      xx      P   0.000
P       10.864280000    7.551700000    9.490670000 XXXX 1      xx      P   0.000
P        0.442120000   12.951870000    9.498390000 XXXX 1      xx      P   0.000
P        5.712260000   13.049500000    9.485100000 XXXX 1      xx      P   0.000
P       10.972810000   13.125940000    9.491330000 XXXX 1      xx      P   0.000
In       2.778580000    4.499530000    9.485280000 XXXX 1      xx      In  0.000
In       8.072390000    4.594140000    9.491530000 XXXX 1      xx      In  0.000
In      13.330200000    4.711860000    9.495660000 XXXX 1      xx      In  0.000
In       2.871480000   10.112690000    9.495930000 XXXX 1      xx      In  0.000
In       8.168320000   10.194490000    9.477310000 XXXX 1      xx      In  0.000
In      13.430670000   10.316970000    9.464920000 XXXX 1      xx      In  0.000
In       2.996260000   15.691620000    9.483220000 XXXX 1      xx      In  0.000
In       8.268270000   15.829400000    9.478150000 XXXX 1      xx      In  0.000
In      13.554120000   15.958250000    9.477100000 XXXX 1      xx      In  0.000
In       0.138830000    4.420880000   11.772880000 XXXX 1      xx      In  0.000
In       5.416660000    4.568260000   11.774190000 XXXX 1      xx      In  0.000
In      10.695920000    4.670350000   11.763090000 XXXX 1      xx      In  0.000
In       0.238920000   10.045900000   11.797900000 XXXX 1      xx      In  0.000
In       5.534170000   10.158220000   11.769810000 XXXX 1      xx      In  0.000
In      10.800650000   10.269610000   11.774860000 XXXX 1      xx      In  0.000
In       0.341360000   15.649330000   11.757970000 XXXX 1      xx      In  0.000
In       5.652700000   15.784540000   11.769430000 XXXX 1      xx      In  0.000
In      10.918790000   15.899930000   11.771540000 XXXX 1      xx      In  0.000
end
end
                                                                          0.0000
!DATE     May 15 21:11:07 2019
PBC   15.845   16.830   21.258   90.000   90.000   87.648
P        5.048830000    1.643530000   11.712300000 XXXX 1      xx      P   0.000
P       10.307400000    1.748040000   11.691650000 XXXX 1      xx      P   0.000
P       15.600190000    1.850280000   11.693490000 XXXX 1      xx      P   0.000
P        5.218990000    7.192910000   11.659730000 XXXX 1      xx      P   0.000
P       10.465110000    7.376810000   11.678250000 XXXX 1      xx      P   0.000
P       15.725010000    7.414180000   11.676090000 XXXX 1      xx      P   0.000
P        5.256720000   12.845660000   11.666900000 XXXX 1      xx      P   0.000
P       10.552990000   12.926620000   11.657880000 XXXX 1      xx      P   0.000
P       15.838970000   13.075610000   11.717930000 XXXX 1      xx      P   0.000
P        0.104840000    3.910990000    9.120670000 XXXX 1      xx      P   0.000
P        5.377130000    3.973610000    9.095150000 XXXX 1      xx      P   0.000
P       10.704420000    4.059500000    9.111470000 XXXX 1      xx      P   0.000
P        0.226040000    9.471970000    9.116700000 XXXX 1      xx      P   0.000
P        5.439800000    9.653080000    9.178900000 XXXX 1      xx      P   0.000
P       10.801850000    9.725460000    9.122480000 XXXX 1      xx      P   0.000
P        0.321270000   15.089370000    9.149230000 XXXX 1      xx      P   0.000
P        5.632810000   15.249570000    9.158870000 XXXX 1      xx      P   0.000
P       10.860810000   15.366710000    9.133420000 XXXX 1      xx      P   0.000
P        2.470410000    1.541300000    9.626670000 XXXX 1      xx      P   0.000
P        7.700940000    1.655730000    9.561270000 XXXX 1      xx      P   0.000
P       12.959290000    1.760030000    9.574420000 XXXX 1      xx      P   0.000
P        2.541400000    7.134000000    9.597100000 XXXX 1      xx      P   0.000
P        7.802560000    7.292170000    9.540930000 XXXX 1      xx      P   0.000
P       13.021190000    7.378130000    9.561180000 XXXX 1      xx      P   0.000
P        2.648900000   12.787340000    9.588690000 XXXX 1      xx      P   0.000
P        7.899540000   12.916790000    9.567730000 XXXX 1      xx      P   0.000
P       13.213040000   12.982850000    9.580130000 XXXX 1      xx      P   0.000
P        2.758100000    3.969150000   12.079270000 XXXX 1      xx      P   0.000
P        8.082970000    4.049970000   12.113180000 XXXX 1      xx      P   0.000
P       13.286550000    4.208930000   12.090250000 XXXX 1      xx      P   0.000
P        2.875120000    9.562870000   12.167330000 XXXX 1      xx      P   0.000
P        8.129010000    9.637220000   12.176540000 XXXX 1      xx      P   0.000
P       13.402460000    9.810210000   12.153810000 XXXX 1      xx      P   0.000
P        2.925410000   15.141400000   12.117710000 XXXX 1      xx      P   0.000
P        8.229640000   15.288110000   12.145120000 XXXX 1      xx      P   0.000
P       13.549440000   15.441220000   12.152940000 XXXX 1      xx      P   0.000
P        2.877810000    1.753230000   11.725990000 XXXX 1      xx      P   0.000
P        8.088520000    1.850610000   11.707790000 XXXX 1      xx      P   0.000
P       13.393900000    2.018120000   11.760840000 XXXX 1      xx      P   0.000
P        2.945950000    7.383880000   11.831000000 XXXX 1      xx      P   0.000
P        8.251310000    7.517360000   11.786400000 XXXX 1      xx      P   0.000
P       13.484010000    7.538700000   11.718810000 XXXX 1      xx      P   0.000
P        3.076520000   12.988170000   11.742300000 XXXX 1      xx      P   0.000
P        8.331570000   13.166210000   11.801750000 XXXX 1      xx      P   0.000
P       13.587680000   13.237940000   11.766170000 XXXX 1      xx      P   0.000
P        0.189770000    1.743000000    9.478290000 XXXX 1      xx      P   0.000
P        5.469230000    1.827700000    9.539660000 XXXX 1      xx      P   0.000
P       10.755210000    1.898160000    9.527370000 XXXX 1      xx      P   0.000
P        0.308130000    7.278570000    9.534810000 XXXX 1      xx      P   0.000
P        5.572940000    7.455950000    9.473480000 XXXX 1      xx      P   0.000
P       10.863780000    7.552260000    9.488860000 XXXX 1      xx      P   0.000
P        0.449970000   12.957450000    9.499080000 XXXX 1      xx      P   0.000
P        5.717680000   13.051710000    9.481860000 XXXX 1      xx      P   0.000
P       10.974050000   13.118800000    9.489160000 XXXX 1      xx      P   0.000
In       2.778070000    4.501490000    9.485520000 XXXX 1      xx      In  0.000
In       8.075220000    4.590730000    9.493340000 XXXX 1      xx      In  0.000
In      13.327450000    4.708770000    9.498460000 XXXX 1      xx      In  0.000
In       2.867430000   10.115730000    9.498980000 XXXX 1      xx      In  0.000
In       8.168520000   10.189000000    9.475680000 XXXX 1      xx      In  0.000
In      13.426500000   10.312850000    9.460260000 XXXX 1      xx      In  0.000
In       2.996910000   15.687240000    9.483010000 XXXX 1      xx      In  0.000
In       8.266870000   15.830280000    9.476710000 XXXX 1      xx      In  0.000
In      13.554040000   15.962120000    9.475410000 XXXX 1      xx      In  0.000
In       0.138400000    4.417760000   11.772500000 XXXX 1      xx      In  0.000
In       5.415720000    4.572820000   11.774080000 XXXX 1      xx      In  0.000
In      10.694610000    4.671470000   11.760240000 XXXX 1      xx      In  0.000
In       0.236850000   10.046820000   11.803710000 XXXX 1      xx      In  0.000
In       5.535860000   10.158170000   11.768790000 XXXX 1      xx      In  0.000
In      10.798890000   10.268260000   11.774990000 XXXX 1      xx      In  0.000
In       0.338310000   15.648940000   11.753930000 XXXX 1      xx      In  0.000
In       5.657280000   15.788800000   11.768280000 XXXX 1      xx      In  0.000
In      10.919960000   15.903900000   11.770850000 XXXX 1      xx      In  0.000
end
end
                                                                          0.0000
!DATE     May 15 21:11:07 2019
PBC   15.845   16.830   21.258   90.000   90.000   87.648
P        5.048530000    1.649900000   11.717720000 XXXX 1      xx      P   0.000
P       10.301730000    1.751790000   11.693130000 XXXX 1      xx      P   0.000
P       15.597020000    1.852070000   11.693970000 XXXX 1      xx      P   0.000
P        5.228620000    7.188820000   11.654740000 XXXX 1      xx      P   0.000
P       10.469170000    7.384510000   11.676590000 XXXX 1      xx      P   0.000
P       15.724440000    7.407380000   11.674850000 XXXX 1      xx      P   0.000
P        5.255170000   12.849060000   11.662890000 XXXX 1      xx      P   0.000
P       10.553280000   12.923890000   11.652730000 XXXX 1      xx      P   0.000
P       15.839980000   13.078530000   11.723390000 XXXX 1      xx      P   0.000
P        0.104480000    3.914880000    9.119880000 XXXX 1      xx      P   0.000
P        5.375670000    3.967300000    9.089670000 XXXX 1      xx      P   0.000
P       10.711220000    4.047040000    9.108750000 XXXX 1      xx      P   0.000
P        0.228360000    9.465840000    9.115810000 XXXX 1      xx      P   0.000
P        5.430030000    9.659870000    9.189130000 XXXX 1      xx      P   0.000
P       10.806900000    9.724090000    9.121880000 XXXX 1      xx      P   0.000
P        0.321700000   15.086670000    9.153510000 XXXX 1      xx      P   0.000
P        5.638840000   15.253970000    9.165320000 XXXX 1      xx      P   0.000
P       10.857530000   15.369970000    9.135360000 XXXX 1      xx      P   0.000
P        2.479340000    1.539560000    9.634880000 XXXX 1      xx      P   0.000
P        7.701160000    1.653690000    9.558150000 XXXX 1      xx      P   0.000
P       12.956130000    1.755640000    9.575200000 XXXX 1      xx      P   0.000
P        2.544560000    7.129470000    9.603200000 XXXX 1      xx      P   0.000
P        7.802280000    7.295250000    9.536050000 XXXX 1      xx      P   0.000
P       13.010650000    7.374910000    9.558360000 XXXX 1      xx      P   0.000
P        2.652860000   12.790800000    9.591400000 XXXX 1      xx      P   0.000
P        7.898360000   12.922290000    9.568100000 XXXX 1      xx      P   0.000
P       13.216900000   12.979600000    9.581740000 XXXX 1      xx      P   0.000
P        2.760310000    3.972090000   12.068890000 XXXX 1      xx      P   0.000
P        8.092780000    4.046380000   12.109140000 XXXX 1      xx      P   0.000
P       13.282850000    4.213860000   12.082190000 XXXX 1      xx      P   0.000
P        2.879280000    9.563690000   12.173830000 XXXX 1      xx      P   0.000
P        8.128350000    9.631160000   12.184810000 XXXX 1      xx      P   0.000
P       13.400460000    9.811770000   12.157030000 XXXX 1      xx      P   0.000
P        2.919370000   15.136940000   12.114730000 XXXX 1      xx      P   0.000
P        8.228260000   15.290390000   12.147530000 XXXX 1      xx      P   0.000
P       13.554670000   15.448500000   12.156340000 XXXX 1      xx      P   0.000
P        2.885010000    1.751720000   11.721860000 XXXX 1      xx      P   0.000
P        8.083610000    1.845000000   11.698610000 XXXX 1      xx      P   0.000
P       13.393130000    2.021760000   11.761050000 XXXX 1      xx      P   0.000
P        2.947950000    7.385200000   11.843930000 XXXX 1      xx      P   0.000
P        8.256570000    7.521100000   11.790210000 XXXX 1      xx      P   0.000
P       13.480750000    7.527000000   11.711720000 XXXX 1      xx      P   0.000
P        3.081170000   12.988620000   11.739440000 XXXX 1      xx      P   0.000
P        8.332210000   13.177340000   11.808630000 XXXX 1      xx      P   0.000
P       13.584560000   13.242470000   11.767700000 XXXX 1      xx      P   0.000
P        0.189910000    1.749350000    9.475300000 XXXX 1      xx      P   0.000
P        5.468250000    1.827920000    9.547260000 XXXX 1      xx      P   0.000
P       10.754870000    1.889550000    9.532720000 XXXX 1      xx      P   0.000
P        0.310020000    7.271400000    9.540810000 XXXX 1      xx      P   0.000
P        5.571240000    7.460490000    9.468400000 XXXX 1      xx      P   0.000
P       10.862570000    7.552820000    9.487110000 XXXX 1      xx      P   0.000
P        0.457440000   12.962370000    9.500190000 XXXX 1      xx      P   0.000
P        5.722730000   13.054100000    9.478640000 XXXX 1      xx      P   0.000
P       10.975430000   13.112240000    9.486710000 XXXX 1      xx      P   0.000
In       2.777580000    4.503430000    9.485690000 XXXX 1      xx      In  0.000
In       8.078050000    4.587330000    9.495090000 XXXX 1      xx      In  0.000
In      13.324730000    4.705690000    9.501160000 XXXX 1      xx      In  0.000
In       2.863310000   10.118770000    9.502080000 XXXX 1      xx      In  0.000
In       8.168730000   10.183550000    9.474080000 XXXX 1      xx      In  0.000
In      13.422410000   10.308720000    9.455650000 XXXX 1      xx      In  0.000
In       2.997580000   15.682890000    9.482780000 XXXX 1      xx      In  0.000
In       8.265510000   15.831160000    9.475260000 XXXX 1      xx      In  0.000
In      13.553950000   15.965910000    9.473740000 XXXX 1      xx      In  0.000
In       0.137990000    4.414600000   11.772130000 XXXX 1      xx      In  0.000
In       5.414870000    4.577320000   11.773930000 XXXX 1      xx      In  0.000
In      10.693310000    4.672640000   11.757380000 XXXX 1      xx      In  0.000
In       0.234790000   10.047740000   11.809500000 XXXX 1      xx      In  0.000
In       5.537550000   10.158160000   11.767850000 XXXX 1      xx      In  0.000
In      10.797130000   10.266920000   11.775120000 XXXX 1      xx      In  0.000
In       0.335280000   15.648580000   11.749920000 XXXX 1      xx      In  0.000
In       5.661790000   15.793080000   11.767200000 XXXX 1      xx      In  0.000
In      10.921150000   15.907870000   11.770180000 XXXX 1      xx      In  0.000
end
end
                                                                          0.0000
!DATE     May 15 21:11:07 2019
PBC   15.845   16.830   21.258   90.000   90.000   87.648
P        5.049010000    1.655970000   11.723330000 XXXX 1      xx      P   0.000
P       10.296280000    1.755120000   11.694890000 XXXX 1      xx      P   0.000
P       15.594070000    1.853860000   11.694030000 XXXX 1      xx      P   0.000
P        5.237620000    7.185170000   11.649980000 XXXX 1      xx      P   0.000
P       10.473200000    7.391780000   11.674960000 XXXX 1      xx      P   0.000
P       15.723560000    7.400790000   11.674110000 XXXX 1      xx      P   0.000
P        5.254270000   12.852240000   11.658880000 XXXX 1      xx      P   0.000
P       10.553510000   12.921430000   11.647880000 XXXX 1      xx      P   0.000
P       15.840730000   13.081280000   11.728510000 XXXX 1      xx      P   0.000
P        0.104050000    3.918870000    9.119050000 XXXX 1      xx      P   0.000
P        5.374370000    3.961380000    9.084330000 XXXX 1      xx      P   0.000
P       10.717590000    4.034950000    9.105930000 XXXX 1      xx      P   0.000
P        0.230470000    9.459580000    9.115240000 XXXX 1      xx      P   0.000
P        5.420640000    9.666550000    9.198980000 XXXX 1      xx      P   0.000
P       10.811570000    9.722930000    9.121120000 XXXX 1      xx      P   0.000
P        0.322090000   15.084730000    9.157420000 XXXX 1      xx      P   0.000
P        5.644530000   15.258330000    9.171520000 XXXX 1      xx      P   0.000
P       10.854470000   15.372570000    9.137360000 XXXX 1      xx      P   0.000
P        2.487460000    1.537820000    9.641600000 XXXX 1      xx      P   0.000
P        7.701160000    1.651740000    9.554460000 XXXX 1      xx      P   0.000
P       12.953270000    1.751400000    9.576060000 XXXX 1      xx      P   0.000
P        2.547580000    7.125220000    9.609810000 XXXX 1      xx      P   0.000
P        7.802020000    7.298240000    9.531770000 XXXX 1      xx      P   0.000
P       13.001210000    7.371450000    9.555140000 XXXX 1      xx      P   0.000
P        2.656970000   12.794050000    9.593750000 XXXX 1      xx      P   0.000
P        7.897740000   12.927310000    9.569010000 XXXX 1      xx      P   0.000
P       13.220520000   12.976550000    9.583290000 XXXX 1      xx      P   0.000
P        2.762420000    3.974680000   12.058830000 XXXX 1      xx      P   0.000
P        8.101850000    4.042720000   12.105190000 XXXX 1      xx      P   0.000
P       13.279280000    4.218770000   12.074500000 XXXX 1      xx      P   0.000
P        2.883270000    9.564620000   12.180270000 XXXX 1      xx      P   0.000
P        8.127730000    9.625970000   12.193020000 XXXX 1      xx      P   0.000
P       13.398510000    9.812420000   12.159890000 XXXX 1      xx      P   0.000
P        2.913630000   15.132980000   12.111900000 XXXX 1      xx      P   0.000
P        8.227160000   15.293570000   12.150070000 XXXX 1      xx      P   0.000
P       13.559520000   15.455500000   12.159560000 XXXX 1      xx      P   0.000
P        2.891550000    1.750700000   11.719140000 XXXX 1      xx      P   0.000
P        8.078920000    1.839750000   11.690090000 XXXX 1      xx      P   0.000
P       13.392140000    2.025280000   11.761290000 XXXX 1      xx      P   0.000
P        2.950530000    7.386270000   11.856290000 XXXX 1      xx      P   0.000
P        8.261550000    7.524070000   11.793290000 XXXX 1      xx      P   0.000
P       13.477670000    7.516290000   11.705200000 XXXX 1      xx      P   0.000
P        3.085320000   12.988840000   11.736930000 XXXX 1      xx      P   0.000
P        8.332860000   13.187420000   11.814820000 XXXX 1      xx      P   0.000
P       13.581980000   13.247130000   11.769400000 XXXX 1      xx      P   0.000
P        0.190620000    1.755340000    9.472810000 XXXX 1      xx      P   0.000
P        5.467400000    1.827880000    9.554530000 XXXX 1      xx      P   0.000
P       10.754370000    1.880830000    9.537860000 XXXX 1      xx      P   0.000
P        0.312200000    7.264400000    9.546160000 XXXX 1      xx      P   0.000
P        5.569590000    7.465010000    9.463270000 XXXX 1      xx      P   0.000
P       10.860550000    7.553360000    9.485410000 XXXX 1      xx      P   0.000
P        0.464450000   12.966540000    9.501780000 XXXX 1      xx      P   0.000
P        5.727370000   13.056720000    9.475460000 XXXX 1      xx      P   0.000
P       10.976950000   13.106320000    9.483940000 XXXX 1      xx      P   0.000
In       2.777110000    4.505330000    9.485790000 XXXX 1      xx      In  0.000
In       8.080890000    4.583930000    9.496790000 XXXX 1      xx      In  0.000
In      13.322030000    4.702640000    9.503770000 XXXX 1      xx      In  0.000
In       2.859100000   10.121800000    9.505240000 XXXX 1      xx      In  0.000
In       8.168950000   10.178160000    9.472500000 XXXX 1      xx      In  0.000
In      13.418410000   10.304560000    9.451100000 XXXX 1      xx      In  0.000
In       2.998280000   15.678560000    9.482540000 XXXX 1      xx      In  0.000
In       8.264180000   15.832030000    9.473810000 XXXX 1      xx      In  0.000
In      13.553850000   15.969630000    9.472080000 XXXX 1      xx      In  0.000
In       0.137590000    4.411390000   11.771770000 XXXX 1      xx      In  0.000
In       5.414100000    4.581780000   11.773730000 XXXX 1      xx      In  0.000
In      10.692020000    4.673870000   11.754480000 XXXX 1      xx      In  0.000
In       0.232710000   10.048650000   11.815270000 XXXX 1      xx      In  0.000
In       5.539250000   10.158190000   11.767010000 XXXX 1      xx      In  0.000
In      10.795370000   10.265600000   11.775260000 XXXX 1      xx      In  0.000
In       0.332270000   15.648270000   11.745930000 XXXX 1      xx      In  0.000
In       5.666250000   15.797400000   11.766180000 XXXX 1      xx      In  0.000
In      10.922370000   15.911860000   11.769520000 XXXX 1      xx      In  0.000
end
end
                                                                          0.0000
!DATE     May 15 21:11:07 2019
PBC   15.845   16.830   21.258   90.000   90.000   87.648
P        5.050360000    1.661720000   11.729190000 XXXX 1      xx      P   0.000
P       10.291080000    1.757960000   11.696960000 XXXX 1      xx      P   0.000
P       15.591340000    1.855690000   11.693640000 XXXX 1      xx      P   0.000
P        5.245950000    7.182020000   11.645430000 XXXX 1      xx      P   0.000
P       10.477220000    7.398570000   11.673370000 XXXX 1      xx      P   0.000
P       15.722320000    7.394430000   11.673920000 XXXX 1      xx      P   0.000
P        5.254090000   12.855200000   11.654860000 XXXX 1      xx      P   0.000
P       10.553680000   12.919250000   11.643360000 XXXX 1      xx      P   0.000
P       15.841210000   13.083840000   11.733260000 XXXX 1      xx      P   0.000
P        0.103540000    3.923010000    9.118150000 XXXX 1      xx      P   0.000
P        5.373250000    3.955860000    9.079140000 XXXX 1      xx      P   0.000
P       10.723520000    4.023250000    9.102990000 XXXX 1      xx      P   0.000
P        0.232370000    9.453170000    9.115010000 XXXX 1      xx      P   0.000
P        5.411660000    9.673100000    9.208400000 XXXX 1      xx      P   0.000
P       10.815830000    9.722030000    9.120200000 XXXX 1      xx      P   0.000
P        0.322440000   15.083670000    9.160900000 XXXX 1      xx      P   0.000
P        5.649820000   15.262650000    9.177430000 XXXX 1      xx      P   0.000
P       10.851640000   15.374440000    9.139410000 XXXX 1      xx      P   0.000
P        2.494720000    1.536060000    9.646670000 XXXX 1      xx      P   0.000
P        7.700910000    1.649890000    9.550110000 XXXX 1      xx      P   0.000
P       12.950740000    1.747330000    9.577020000 XXXX 1      xx      P   0.000
P        2.550440000    7.121260000    9.617010000 XXXX 1      xx      P   0.000
P        7.801790000    7.301110000    9.528120000 XXXX 1      xx      P   0.000
P       12.993000000    7.367750000    9.551480000 XXXX 1      xx      P   0.000
P        2.661260000   12.797090000    9.595680000 XXXX 1      xx      P   0.000
P        7.897760000   12.931820000    9.570500000 XXXX 1      xx      P   0.000
P       13.223860000   12.973690000    9.584780000 XXXX 1      xx      P   0.000
P        2.764430000    3.976910000   12.049130000 XXXX 1      xx      P   0.000
P        8.110070000    4.038980000   12.101350000 XXXX 1      xx      P   0.000
P       13.275850000    4.223640000   12.067240000 XXXX 1      xx      P   0.000
P        2.887090000    9.565670000   12.186660000 XXXX 1      xx      P   0.000
P        8.127160000    9.621770000   12.201200000 XXXX 1      xx      P   0.000
P       13.396620000    9.812080000   12.162370000 XXXX 1      xx      P   0.000
P        2.908210000   15.129550000   12.109260000 XXXX 1      xx      P   0.000
P        8.226390000   15.297770000   12.152740000 XXXX 1      xx      P   0.000
P       13.563950000   15.462190000   12.162580000 XXXX 1      xx      P   0.000
P        2.897360000    1.750230000   11.718000000 XXXX 1      xx      P   0.000
P        8.074490000    1.834850000   11.682280000 XXXX 1      xx      P   0.000
P       13.390940000    2.028660000   11.761570000 XXXX 1      xx      P   0.000
P        2.953740000    7.387060000   11.868050000 XXXX 1      xx      P   0.000
P        8.266220000    7.526170000   11.795590000 XXXX 1      xx      P   0.000
P       13.474770000    7.506600000   11.699290000 XXXX 1      xx      P   0.000
P        3.088920000   12.988790000   11.734830000 XXXX 1      xx      P   0.000
P        8.333540000   13.196340000   11.820280000 XXXX 1      xx      P   0.000
P       13.580000000   13.251930000   11.771270000 XXXX 1      xx      P   0.000
P        0.191970000    1.760930000    9.470860000 XXXX 1      xx      P   0.000
P        5.466670000    1.827540000    9.561460000 XXXX 1      xx      P   0.000
P       10.753690000    1.871980000    9.542760000 XXXX 1      xx      P   0.000
P        0.314690000    7.257600000    9.550770000 XXXX 1      xx      P   0.000
P        5.567970000    7.469500000    9.458070000 XXXX 1      xx      P   0.000
P       10.857630000    7.553890000    9.483770000 XXXX 1      xx      P   0.000
P        0.470940000   12.969870000    9.503900000 XXXX 1      xx      P   0.000
P        5.731560000   13.059570000    9.472300000 XXXX 1      xx      P   0.000
P       10.978640000   13.101080000    9.480820000 XXXX 1      xx      P   0.000
In       2.776670000    4.507200000    9.485790000 XXXX 1      xx      In  0.000
In       8.083750000    4.580540000    9.498420000 XXXX 1      xx      In  0.000
In      13.319350000    4.699600000    9.506270000 XXXX 1      xx      In  0.000
In       2.854780000   10.124830000    9.508470000 XXXX 1      xx      In  0.000
In       8.169180000   10.172810000    9.470940000 XXXX 1      xx      In  0.000
In      13.414490000   10.300350000    9.446600000 XXXX 1      xx      In  0.000
In       2.999010000   15.674260000    9.482280000 XXXX 1      xx      In  0.000
In       8.262900000   15.832900000    9.472360000 XXXX 1      xx      In  0.000
In      13.553740000   15.973270000    9.470430000 XXXX 1      xx      In  0.000
In       0.137220000    4.408130000   11.771400000 XXXX 1      xx      In  0.000
In       5.413440000    4.586190000   11.773470000 XXXX 1      xx      In  0.000
In      10.690730000    4.675170000   11.751550000 XXXX 1      xx      In  0.000
In       0.230610000   10.049550000   11.821020000 XXXX 1      xx      In  0.000
In       5.540970000   10.158280000   11.766290000 XXXX 1      xx      In  0.000
In      10.793600000   10.264290000   11.775410000 XXXX 1      xx      In  0.000
In       0.329270000   15.648000000   11.741980000 XXXX 1      xx      In  0.000
In       5.670640000   15.801770000   11.765250000 XXXX 1      xx      In  0.000
In      10.923620000   15.915880000   11.768880000 XXXX 1      xx      In  0.000
end
end
                                                                          0.0000
!DATE     May 15 21:11:07 2019
PBC   15.845   16.830   21.258   90.000   90.000   87.648
P        5.052680000    1.667140000   11.735310000 XXXX 1      xx      P   0.000
P       10.286160000    1.760270000   11.699390000 XXXX 1      xx      P   0.000
P       15.588880000    1.857550000   11.692760000 XXXX 1      xx      P   0.000
P        5.253560000    7.179430000   11.641090000 XXXX 1      xx      P   0.000
P       10.481210000    7.404850000   11.671820000 XXXX 1      xx      P   0.000
P       15.720690000    7.388300000   11.674320000 XXXX 1      xx      P   0.000
P        5.254690000   12.857920000   11.650840000 XXXX 1      xx      P   0.000
P       10.553780000   12.917380000   11.639190000 XXXX 1      xx      P   0.000
P       15.841380000   13.086220000   11.737620000 XXXX 1      xx      P   0.000
P        0.102940000    3.927300000    9.117180000 XXXX 1      xx      P   0.000
P        5.372330000    3.950770000    9.074090000 XXXX 1      xx      P   0.000
P       10.728980000    4.011920000    9.099870000 XXXX 1      xx      P   0.000
P        0.234040000    9.446570000    9.115170000 XXXX 1      xx      P   0.000
P        5.403130000    9.679540000    9.217350000 XXXX 1      xx      P   0.000
P       10.819640000    9.721410000    9.119080000 XXXX 1      xx      P   0.000
P        0.322760000   15.083540000    9.163920000 XXXX 1      xx      P   0.000
P        5.654690000   15.266950000    9.183010000 XXXX 1      xx      P   0.000
P       10.849090000   15.375550000    9.141510000 XXXX 1      xx      P   0.000
P        2.501050000    1.534300000    9.649950000 XXXX 1      xx      P   0.000
P        7.700400000    1.648140000    9.545020000 XXXX 1      xx      P   0.000
P       12.948570000    1.743450000    9.578080000 XXXX 1      xx      P   0.000
P        2.553140000    7.117630000    9.624850000 XXXX 1      xx      P   0.000
P        7.801580000    7.303860000    9.525150000 XXXX 1      xx      P   0.000
P       12.986100000    7.363770000    9.547330000 XXXX 1      xx      P   0.000
P        2.665740000   12.799880000    9.597160000 XXXX 1      xx      P   0.000
P        7.898470000   12.935780000    9.572640000 XXXX 1      xx      P   0.000
P       13.226920000   12.971060000    9.586220000 XXXX 1      xx      P   0.000
P        2.766310000    3.978730000   12.039810000 XXXX 1      xx      P   0.000
P        8.117390000    4.035150000   12.097620000 XXXX 1      xx      P   0.000
P       13.272580000    4.228480000   12.060450000 XXXX 1      xx      P   0.000
P        2.890710000    9.566840000   12.193020000 XXXX 1      xx      P   0.000
P        8.126640000    9.618620000   12.209360000 XXXX 1      xx      P   0.000
P       13.394780000    9.810680000   12.164420000 XXXX 1      xx      P   0.000
P        2.903150000   15.126710000   12.106800000 XXXX 1      xx      P   0.000
P        8.226000000   15.303090000   12.155570000 XXXX 1      xx      P   0.000
P       13.567930000   15.468560000   12.165400000 XXXX 1      xx      P   0.000
P        2.902370000    1.750350000   11.718560000 XXXX 1      xx      P   0.000
P        8.070340000    1.830340000   11.675240000 XXXX 1      xx      P   0.000
P       13.389480000    2.031890000   11.761880000 XXXX 1      xx      P   0.000
P        2.957650000    7.387550000   11.879190000 XXXX 1      xx      P   0.000
P        8.270560000    7.527340000   11.797060000 XXXX 1      xx      P   0.000
P       13.472040000    7.497990000   11.694020000 XXXX 1      xx      P   0.000
P        3.091930000   12.988450000   11.733170000 XXXX 1      xx      P   0.000
P        8.334270000   13.204000000   11.824950000 XXXX 1      xx      P   0.000
P       13.578650000   13.256860000   11.773320000 XXXX 1      xx      P   0.000
P        0.193990000    1.766090000    9.469490000 XXXX 1      xx      P   0.000
P        5.466080000    1.826870000    9.568040000 XXXX 1      xx      P   0.000
P       10.752810000    1.862980000    9.547410000 XXXX 1      xx      P   0.000
P        0.317540000    7.250980000    9.554600000 XXXX 1      xx      P   0.000
P        5.566400000    7.473990000    9.452800000 XXXX 1      xx      P   0.000
P       10.853730000    7.554410000    9.482190000 XXXX 1      xx      P   0.000
P        0.476880000   12.972300000    9.506600000 XXXX 1      xx      P   0.000
P        5.735270000   13.062700000    9.469170000 XXXX 1      xx      P   0.000
P       10.980520000   13.096560000    9.477330000 XXXX 1      xx      P   0.000
In       2.776270000    4.509030000    9.485690000 XXXX 1      xx      In  0.000
In       8.086630000    4.577150000    9.499970000 XXXX 1      xx      In  0.000
In      13.316680000    4.696560000    9.508650000 XXXX 1      xx      In  0.000
In       2.850310000   10.127870000    9.511810000 XXXX 1      xx      In  0.000
In       8.169420000   10.167490000    9.469400000 XXXX 1      xx      In  0.000
In      13.410660000   10.296090000    9.442150000 XXXX 1      xx      In  0.000
In       2.999780000   15.669970000    9.482000000 XXXX 1      xx      In  0.000
In       8.261650000   15.833770000    9.470900000 XXXX 1      xx      In  0.000
In      13.553610000   15.976830000    9.468790000 XXXX 1      xx      In  0.000
In       0.136860000    4.404780000   11.771040000 XXXX 1      xx      In  0.000
In       5.412880000    4.590570000   11.773140000 XXXX 1      xx      In  0.000
In      10.689450000    4.676550000   11.748550000 XXXX 1      xx      In  0.000
In       0.228480000   10.050440000   11.826790000 XXXX 1      xx      In  0.000
In       5.542710000   10.158440000   11.765700000 XXXX 1      xx      In  0.000
In      10.791810000   10.263000000   11.775570000 XXXX 1      xx      In  0.000
In       0.326270000   15.647790000   11.738050000 XXXX 1      xx      In  0.000
In       5.674980000   15.806210000   11.764410000 XXXX 1      xx      In  0.000
In      10.924900000   15.919950000   11.768260000 XXXX 1      xx      In  0.000
end
end
                                                                          0.0000
!DATE     May 15 21:11:07 2019
PBC   15.845   16.830   21.258   90.000   90.000   87.648
P        5.056030000    1.672230000   11.741760000 XXXX 1      xx      P   0.000
P       10.281530000    1.762020000   11.702210000 XXXX 1      xx      P   0.000
P       15.586670000    1.859450000   11.691350000 XXXX 1      xx      P   0.000
P        5.260440000    7.177430000   11.636970000 XXXX 1      xx      P   0.000
P       10.485170000    7.410600000   11.670310000 XXXX 1      xx      P   0.000
P       15.718640000    7.382410000   11.675360000 XXXX 1      xx      P   0.000
P        5.256150000   12.860400000   11.646800000 XXXX 1      xx      P   0.000
P       10.553810000   12.915840000   11.635360000 XXXX 1      xx      P   0.000
P       15.841250000   13.088400000   11.741590000 XXXX 1      xx      P   0.000
P        0.102260000    3.931790000    9.116150000 XXXX 1      xx      P   0.000
P        5.371620000    3.946120000    9.069200000 XXXX 1      xx      P   0.000
P       10.733920000    4.000950000    9.096560000 XXXX 1      xx      P   0.000
P        0.235460000    9.439740000    9.115750000 XXXX 1      xx      P   0.000
P        5.395080000    9.685860000    9.225790000 XXXX 1      xx      P   0.000
P       10.822950000    9.721080000    9.117730000 XXXX 1      xx      P   0.000
P        0.323040000   15.084390000    9.166430000 XXXX 1      xx      P   0.000
P        5.659100000   15.271230000    9.188230000 XXXX 1      xx      P   0.000
P       10.846820000   15.375840000    9.143670000 XXXX 1      xx      P   0.000
P        2.506420000    1.532490000    9.651360000 XXXX 1      xx      P   0.000
P        7.699590000    1.646490000    9.539150000 XXXX 1      xx      P   0.000
P       12.946770000    1.739790000    9.579250000 XXXX 1      xx      P   0.000
P        2.555690000    7.114360000    9.633430000 XXXX 1      xx      P   0.000
P        7.801400000    7.306500000    9.522870000 XXXX 1      xx      P   0.000
P       12.980580000    7.359490000    9.542650000 XXXX 1      xx      P   0.000
P        2.670430000   12.802420000    9.598150000 XXXX 1      xx      P   0.000
P        7.899930000   12.939170000    9.575460000 XXXX 1      xx      P   0.000
P       13.229680000   12.968670000    9.587620000 XXXX 1      xx      P   0.000
P        2.768070000    3.980130000   12.030950000 XXXX 1      xx      P   0.000
P        8.123730000    4.031210000   12.094030000 XXXX 1      xx      P   0.000
P       13.269460000    4.233290000   12.054200000 XXXX 1      xx      P   0.000
P        2.894160000    9.568130000   12.199350000 XXXX 1      xx      P   0.000
P        8.126170000    9.616570000   12.217530000 XXXX 1      xx      P   0.000
P       13.393000000    9.808160000   12.166020000 XXXX 1      xx      P   0.000
P        2.898450000   15.124510000   12.104540000 XXXX 1      xx      P   0.000
P        8.226030000   15.309600000   12.158570000 XXXX 1      xx      P   0.000
P       13.571420000   15.474600000   12.168010000 XXXX 1      xx      P   0.000
P        2.906560000    1.751110000   11.720910000 XXXX 1      xx      P   0.000
P        8.066460000    1.826230000   11.668980000 XXXX 1      xx      P   0.000
P       13.387770000    2.034990000   11.762230000 XXXX 1      xx      P   0.000
P        2.962300000    7.387730000   11.889700000 XXXX 1      xx      P   0.000
P        8.274540000    7.527530000   11.797670000 XXXX 1      xx      P   0.000
P       13.469480000    7.490470000   11.689410000 XXXX 1      xx      P   0.000
P        3.094320000   12.987790000   11.732000000 XXXX 1      xx      P   0.000
P        8.335060000   13.210360000   11.828820000 XXXX 1      xx      P   0.000
P       13.577960000   13.261970000   11.775580000 XXXX 1      xx      P   0.000
P        0.196730000    1.770800000    9.468730000 XXXX 1      xx      P   0.000
P        5.465640000    1.825850000    9.574240000 XXXX 1      xx      P   0.000
P       10.751720000    1.853800000    9.551800000 XXXX 1      xx      P   0.000
P        0.320780000    7.244530000    9.557630000 XXXX 1      xx      P   0.000
P        5.564880000    7.478500000    9.447440000 XXXX 1      xx      P   0.000
P       10.848800000    7.554910000    9.480660000 XXXX 1      xx      P   0.000
P        0.482250000   12.973780000    9.509910000 XXXX 1      xx      P   0.000
P        5.738500000   13.066130000    9.466080000 XXXX 1      xx      P   0.000
P       10.982600000   13.092790000    9.473440000 XXXX 1      xx      P   0.000
In       2.775890000    4.510820000    9.485460000 XXXX 1      xx      In  0.000
In       8.089540000    4.573730000    9.501450000 XXXX 1      xx      In  0.000
In      13.314020000    4.693520000    9.510890000 XXXX 1      xx      In  0.000
In       2.845660000   10.130930000    9.515260000 XXXX 1      xx      In  0.000
In       8.169670000   10.162200000    9.467870000 XXXX 1      xx      In  0.000
In      13.406920000   10.291750000    9.437740000 XXXX 1      xx      In  0.000
In       3.000590000   15.665680000    9.481690000 XXXX 1      xx      In  0.000
In       8.260460000   15.834650000    9.469420000 XXXX 1      xx      In  0.000
In      13.553460000   15.980300000    9.467150000 XXXX 1      xx      In  0.000
In       0.136520000    4.401340000   11.770680000 XXXX 1      xx      In  0.000
In       5.412430000    4.594900000   11.772740000 XXXX 1      xx      In  0.000
In      10.688170000    4.678020000   11.745480000 XXXX 1      xx      In  0.000
In       0.226310000   10.051340000   11.832580000 XXXX 1      xx      In  0.000
In       5.544490000   10.158660000   11.765260000 XXXX 1      xx      In  0.000
In      10.789990000   10.261730000   11.775740000 XXXX 1      xx      In  0.000
In       0.323280000   15.647640000   11.734130000 XXXX 1      xx      In  0.000
In       5.679270000   15.810750000   11.763680000 XXXX 1      xx      In  0.000
In      10.926230000   15.924080000   11.767660000 XXXX 1      xx      In  0.000
end
end
                                                                          0.0000
!DATE     May 15 21:11:07 2019
PBC   15.845   16.830   21.258   90.000   90.000   87.648
P        5.060470000    1.676980000   11.748590000 XXXX 1      xx      P   0.000
P       10.277210000    1.763160000   11.705450000 XXXX 1      xx      P   0.000
P       15.584730000    1.861400000   11.689390000 XXXX 1      xx      P   0.000
P        5.266560000    7.176080000   11.633050000 XXXX 1      xx      P   0.000
P       10.489110000    7.415780000   11.668840000 XXXX 1      xx      P   0.000
P       15.716160000    7.376770000   11.677040000 XXXX 1      xx      P   0.000
P        5.258490000   12.862620000   11.642740000 XXXX 1      xx      P   0.000
P       10.553760000   12.914660000   11.631880000 XXXX 1      xx      P   0.000
P       15.840810000   13.090370000   11.745160000 XXXX 1      xx      P   0.000
P        0.101510000    3.936490000    9.115040000 XXXX 1      xx      P   0.000
P        5.371130000    3.941940000    9.064450000 XXXX 1      xx      P   0.000
P       10.738330000    3.990310000    9.093020000 XXXX 1      xx      P   0.000
P        0.236630000    9.432670000    9.116780000 XXXX 1      xx      P   0.000
P        5.387530000    9.692050000    9.233660000 XXXX 1      xx      P   0.000
P       10.825710000    9.721060000    9.116130000 XXXX 1      xx      P   0.000
P        0.323280000   15.086240000    9.168410000 XXXX 1      xx      P   0.000
P        5.663020000   15.275520000    9.193050000 XXXX 1      xx      P   0.000
P       10.844880000   15.375280000    9.145900000 XXXX 1      xx      P   0.000
P        2.510810000    1.530640000    9.650860000 XXXX 1      xx      P   0.000
P        7.698490000    1.644960000    9.532420000 XXXX 1      xx      P   0.000
P       12.945380000    1.736390000    9.580530000 XXXX 1      xx      P   0.000
P        2.558090000    7.111470000    9.642790000 XXXX 1      xx      P   0.000
P        7.801230000    7.309010000    9.521310000 XXXX 1      xx      P   0.000
P       12.976460000    7.354880000    9.537400000 XXXX 1      xx      P   0.000
P        2.675330000   12.804700000    9.598640000 XXXX 1      xx      P   0.000
P        7.902160000   12.941970000    9.579020000 XXXX 1      xx      P   0.000
P       13.232140000   12.966550000    9.589000000 XXXX 1      xx      P   0.000
P        2.769690000    3.981100000   12.022560000 XXXX 1      xx      P   0.000
P        8.129050000    4.027170000   12.090620000 XXXX 1      xx      P   0.000
P       13.266510000    4.238060000   12.048540000 XXXX 1      xx      P   0.000
P        2.897410000    9.569530000   12.205650000 XXXX 1      xx      P   0.000
P        8.125750000    9.615650000   12.225750000 XXXX 1      xx      P   0.000
P       13.391260000    9.804450000   12.167120000 XXXX 1      xx      P   0.000
P        2.894140000   15.122970000   12.102500000 XXXX 1      xx      P   0.000
P        8.226500000   15.317340000   12.161760000 XXXX 1      xx      P   0.000
P       13.574370000   15.480310000   12.170390000 XXXX 1      xx      P   0.000
P        2.909890000    1.752510000   11.725060000 XXXX 1      xx      P   0.000
P        8.062860000    1.822510000   11.663510000 XXXX 1      xx      P   0.000
P       13.385780000    2.037940000   11.762620000 XXXX 1      xx      P   0.000
P        2.967740000    7.387600000   11.899600000 XXXX 1      xx      P   0.000
P        8.278150000    7.526720000   11.797380000 XXXX 1      xx      P   0.000
P       13.467080000    7.484080000   11.685450000 XXXX 1      xx      P   0.000
P        3.096100000   12.986800000   11.731330000 XXXX 1      xx      P   0.000
P        8.335900000   13.215440000   11.831880000 XXXX 1      xx      P   0.000
P       13.577970000   13.267260000   11.778040000 XXXX 1      xx      P   0.000
P        0.200230000    1.775060000    9.468590000 XXXX 1      xx      P   0.000
P        5.465320000    1.824460000    9.580080000 XXXX 1      xx      P   0.000
P       10.750410000    1.844410000    9.555930000 XXXX 1      xx      P   0.000
P        0.324430000    7.238250000    9.559840000 XXXX 1      xx      P   0.000
P        5.563390000    7.483040000    9.442010000 XXXX 1      xx      P   0.000
P       10.842830000    7.555400000    9.479170000 XXXX 1      xx      P   0.000
P        0.487020000   12.974300000    9.513870000 XXXX 1      xx      P   0.000
P        5.741220000   13.069880000    9.463000000 XXXX 1      xx      P   0.000
P       10.984920000   13.089790000    9.469130000 XXXX 1      xx      P   0.000
In       2.775560000    4.512580000    9.485090000 XXXX 1      xx      In  0.000
In       8.092510000    4.570290000    9.502850000 XXXX 1      xx      In  0.000
In      13.311350000    4.690470000    9.512990000 XXXX 1      xx      In  0.000
In       2.840800000   10.134020000    9.518860000 XXXX 1      xx      In  0.000
In       8.169930000   10.156900000    9.466360000 XXXX 1      xx      In  0.000
In      13.403260000   10.287310000    9.433360000 XXXX 1      xx      In  0.000
In       3.001460000   15.661380000    9.481350000 XXXX 1      xx      In  0.000
In       8.259320000   15.835520000    9.467910000 XXXX 1      xx      In  0.000
In      13.553300000   15.983690000    9.465510000 XXXX 1      xx      In  0.000
In       0.136210000    4.397770000   11.770330000 XXXX 1      xx      In  0.000
In       5.412100000    4.599210000   11.772260000 XXXX 1      xx      In  0.000
In      10.686900000    4.679600000   11.742320000 XXXX 1      xx      In  0.000
In       0.224100000   10.052230000   11.838420000 XXXX 1      xx      In  0.000
In       5.546310000   10.158970000   11.764980000 XXXX 1      xx      In  0.000
In      10.788140000   10.260480000   11.775930000 XXXX 1      xx      In  0.000
In       0.320280000   15.647560000   11.730220000 XXXX 1      xx      In  0.000
In       5.683530000   15.815400000   11.763050000 XXXX 1      xx      In  0.000
In      10.927610000   15.928290000   11.767070000 XXXX 1      xx      In  0.000
end
end
                                                                          0.0000
!DATE     May 15 21:11:07 2019
PBC   15.845   16.830   21.258   90.000   90.000   87.648
P        5.066060000    1.681390000   11.755830000 XXXX 1      xx      P   0.000
P       10.273200000    1.763660000   11.709170000 XXXX 1      xx      P   0.000
P       15.583050000    1.863420000   11.686860000 XXXX 1      xx      P   0.000
P        5.271890000    7.175450000   11.629340000 XXXX 1      xx      P   0.000
P       10.493020000    7.420360000   11.667400000 XXXX 1      xx      P   0.000
P       15.713220000    7.371390000   11.679400000 XXXX 1      xx      P   0.000
P        5.261740000   12.864600000   11.638670000 XXXX 1      xx      P   0.000
P       10.553650000   12.913870000   11.628720000 XXXX 1      xx      P   0.000
P       15.840050000   13.092120000   11.748350000 XXXX 1      xx      P   0.000
P        0.100680000    3.941410000    9.113840000 XXXX 1      xx      P   0.000
P        5.370870000    3.938200000    9.059830000 XXXX 1      xx      P   0.000
P       10.742160000    3.979960000    9.089220000 XXXX 1      xx      P   0.000
P        0.237520000    9.425340000    9.118300000 XXXX 1      xx      P   0.000
P        5.380500000    9.698090000    9.240920000 XXXX 1      xx      P   0.000
P       10.827880000    9.721360000    9.114270000 XXXX 1      xx      P   0.000
P        0.323490000   15.089090000    9.169810000 XXXX 1      xx      P   0.000
P        5.666410000   15.279830000    9.197440000 XXXX 1      xx      P   0.000
P       10.843290000   15.373840000    9.148170000 XXXX 1      xx      P   0.000
P        2.514220000    1.528740000    9.648480000 XXXX 1      xx      P   0.000
P        7.697100000    1.643540000    9.524820000 XXXX 1      xx      P   0.000
P       12.944400000    1.733290000    9.581940000 XXXX 1      xx      P   0.000
P        2.560360000    7.109020000    9.653000000 XXXX 1      xx      P   0.000
P        7.801070000    7.311390000    9.520480000 XXXX 1      xx      P   0.000
P       12.973740000    7.349910000    9.531540000 XXXX 1      xx      P   0.000
P        2.680440000   12.806700000    9.598590000 XXXX 1      xx      P   0.000
P        7.905210000   12.944150000    9.583320000 XXXX 1      xx      P   0.000
P       13.234300000   12.964680000    9.590350000 XXXX 1      xx      P   0.000
P        2.771180000    3.981600000   12.014710000 XXXX 1      xx      P   0.000
P        8.133260000    4.023010000   12.087390000 XXXX 1      xx      P   0.000
P       13.263720000    4.242780000   12.043520000 XXXX 1      xx      P   0.000
P        2.900460000    9.571050000   12.211960000 XXXX 1      xx      P   0.000
P        8.125380000    9.615850000   12.234000000 XXXX 1      xx      P   0.000
P       13.389560000    9.799490000   12.167700000 XXXX 1      xx      P   0.000
P        2.890230000   15.122130000   12.100670000 XXXX 1      xx      P   0.000
P        8.227470000   15.326340000   12.165140000 XXXX 1      xx      P   0.000
P       13.576770000   15.485690000   12.172540000 XXXX 1      xx      P   0.000
P        2.912370000    1.754570000   11.731020000 XXXX 1      xx      P   0.000
P        8.059560000    1.819190000   11.658810000 XXXX 1      xx      P   0.000
P       13.383510000    2.040740000   11.763060000 XXXX 1      xx      P   0.000
P        2.974040000    7.387170000   11.908910000 XXXX 1      xx      P   0.000
P        8.281380000    7.524910000   11.796180000 XXXX 1      xx      P   0.000
P       13.464850000    7.478850000   11.682140000 XXXX 1      xx      P   0.000
P        3.097260000   12.985450000   11.731190000 XXXX 1      xx      P   0.000
P        8.336810000   13.219240000   11.834140000 XXXX 1      xx      P   0.000
P       13.578680000   13.272760000   11.780730000 XXXX 1      xx      P   0.000
P        0.204520000    1.778870000    9.469080000 XXXX 1      xx      P   0.000
P        5.465110000    1.822710000    9.585550000 XXXX 1      xx      P   0.000
P       10.748850000    1.834770000    9.559810000 XXXX 1      xx      P   0.000
P        0.328510000    7.232110000    9.561240000 XXXX 1      xx      P   0.000
P        5.561940000    7.487630000    9.436480000 XXXX 1      xx      P   0.000
P       10.835830000    7.555860000    9.477720000 XXXX 1      xx      P   0.000
P        0.491160000   12.973870000    9.518490000 XXXX 1      xx      P   0.000
P        5.743450000   13.073990000    9.459940000 XXXX 1      xx      P   0.000
P       10.987490000   13.087600000    9.464410000 XXXX 1      xx      P   0.000
In       2.775260000    4.514310000    9.484560000 XXXX 1      xx      In  0.000
In       8.095530000    4.566790000    9.504160000 XXXX 1      xx      In  0.000
In      13.308670000    4.687390000    9.514930000 XXXX 1      xx      In  0.000
In       2.835700000   10.137150000    9.522630000 XXXX 1      xx      In  0.000
In       8.170210000   10.151580000    9.464860000 XXXX 1      xx      In  0.000
In      13.399680000   10.282750000    9.428990000 XXXX 1      xx      In  0.000
In       3.002380000   15.657070000    9.480990000 XXXX 1      xx      In  0.000
In       8.258230000   15.836400000    9.466380000 XXXX 1      xx      In  0.000
In      13.553120000   15.986990000    9.463850000 XXXX 1      xx      In  0.000
In       0.135910000    4.394060000   11.769970000 XXXX 1      xx      In  0.000
In       5.411900000    4.603490000   11.771680000 XXXX 1      xx      In  0.000
In      10.685620000    4.681300000   11.739040000 XXXX 1      xx      In  0.000
In       0.221820000   10.053120000   11.844340000 XXXX 1      xx      In  0.000
In       5.548190000   10.159360000   11.764890000 XXXX 1      xx      In  0.000
In      10.786250000   10.259250000   11.776130000 XXXX 1      xx      In  0.000
In       0.317260000   15.647560000   11.726300000 XXXX 1      xx      In  0.000
In       5.687760000   15.820210000   11.762540000 XXXX 1      xx      In  0.000
In      10.929060000   15.932590000   11.766510000 XXXX 1      xx      In  0.000
end
end
                                                                          0.0000
!DATE     May 15 21:11:07 2019
PBC   15.845   16.830   21.258   90.000   90.000   87.648
P        5.072820000    1.685480000   11.763540000 XXXX 1      xx      P   0.000
P       10.269530000    1.763490000   11.713400000 XXXX 1      xx      P   0.000
P       15.581640000    1.865500000   11.683750000 XXXX 1      xx      P   0.000
P        5.276420000    7.175590000   11.625810000 XXXX 1      xx      P   0.000
P       10.496880000    7.424300000   11.666010000 XXXX 1      xx      P   0.000
P       15.709790000    7.366250000   11.682430000 XXXX 1      xx      P   0.000
P        5.265950000   12.866340000   11.634580000 XXXX 1      xx      P   0.000
P       10.553470000   12.913460000   11.625870000 XXXX 1      xx      P   0.000
P       15.838970000   13.093650000   11.751170000 XXXX 1      xx      P   0.000
P        0.099780000    3.946550000    9.112550000 XXXX 1      xx      P   0.000
P        5.370860000    3.934930000    9.055340000 XXXX 1      xx      P   0.000
P       10.745370000    3.969890000    9.085140000 XXXX 1      xx      P   0.000
P        0.238130000    9.417740000    9.120340000 XXXX 1      xx      P   0.000
P        5.374010000    9.703990000    9.247510000 XXXX 1      xx      P   0.000
P       10.829410000    9.721990000    9.112100000 XXXX 1      xx      P   0.000
P        0.323650000   15.092900000    9.170600000 XXXX 1      xx      P   0.000
P        5.669230000   15.284180000    9.201350000 XXXX 1      xx      P   0.000
P       10.842060000   15.371490000    9.150500000 XXXX 1      xx      P   0.000
P        2.516650000    1.526790000    9.644280000 XXXX 1      xx      P   0.000
P        7.695420000    1.642240000    9.516300000 XXXX 1      xx      P   0.000
P       12.943840000    1.730500000    9.583500000 XXXX 1      xx      P   0.000
P        2.562540000    7.107000000    9.664130000 XXXX 1      xx      P   0.000
P        7.800920000    7.313630000    9.520400000 XXXX 1      xx      P   0.000
P       12.972430000    7.344570000    9.525050000 XXXX 1      xx      P   0.000
P        2.685780000   12.808400000    9.598000000 XXXX 1      xx      P   0.000
P        7.909070000   12.945700000    9.588410000 XXXX 1      xx      P   0.000
P       13.236150000   12.963090000    9.591710000 XXXX 1      xx      P   0.000
P        2.772520000    3.981630000   12.007410000 XXXX 1      xx      P   0.000
P        8.136340000    4.018720000   12.084370000 XXXX 1      xx      P   0.000
P       13.261070000    4.247470000   12.039220000 XXXX 1      xx      P   0.000
P        2.903310000    9.572690000   12.218290000 XXXX 1      xx      P   0.000
P        8.125080000    9.617140000   12.242310000 XXXX 1      xx      P   0.000
P       13.387890000    9.793220000   12.167710000 XXXX 1      xx      P   0.000
P        2.886760000   15.122010000   12.099070000 XXXX 1      xx      P   0.000
P        8.228990000   15.336610000   12.168700000 XXXX 1      xx      P   0.000
P       13.578570000   15.490750000   12.174460000 XXXX 1      xx      P   0.000
P        2.913970000    1.757280000   11.738720000 XXXX 1      xx      P   0.000
P        8.056540000    1.816260000   11.654840000 XXXX 1      xx      P   0.000
P       13.380940000    2.043410000   11.763530000 XXXX 1      xx      P   0.000
P        2.981230000    7.386440000   11.917670000 XXXX 1      xx      P   0.000
P        8.284210000    7.522130000   11.794060000 XXXX 1      xx      P   0.000
P       13.462780000    7.474800000   11.679460000 XXXX 1      xx      P   0.000
P        3.097830000   12.983760000   11.731590000 XXXX 1      xx      P   0.000
P        8.337800000   13.221790000   11.835600000 XXXX 1      xx      P   0.000
P       13.580140000   13.278470000   11.783650000 XXXX 1      xx      P   0.000
P        0.209630000    1.782230000    9.470200000 XXXX 1      xx      P   0.000
P        5.464980000    1.820570000    9.590670000 XXXX 1      xx      P   0.000
P       10.747030000    1.824840000    9.563460000 XXXX 1      xx      P   0.000
P        0.333030000    7.226090000    9.561870000 XXXX 1      xx      P   0.000
P        5.560520000    7.492310000    9.430860000 XXXX 1      xx      P   0.000
P       10.827820000    7.556310000    9.476280000 XXXX 1      xx      P   0.000
P        0.494670000   12.972500000    9.523780000 XXXX 1      xx      P   0.000
P        5.745200000   13.078480000    9.456870000 XXXX 1      xx      P   0.000
P       10.990310000   13.086230000    9.459270000 XXXX 1      xx      P   0.000
In       2.775010000    4.516000000    9.483850000 XXXX 1      xx      In  0.000
In       8.098630000    4.563240000    9.505370000 XXXX 1      xx      In  0.000
In      13.305970000    4.684270000    9.516700000 XXXX 1      xx      In  0.000
In       2.830300000   10.140340000    9.526590000 XXXX 1      xx      In  0.000
In       8.170500000   10.146230000    9.463370000 XXXX 1      xx      In  0.000
In      13.396190000   10.278050000    9.424620000 XXXX 1      xx      In  0.000
In       3.003370000   15.652720000    9.480590000 XXXX 1      xx      In  0.000
In       8.257200000   15.837280000    9.464810000 XXXX 1      xx      In  0.000
In      13.552920000   15.990200000    9.462180000 XXXX 1      xx      In  0.000
In       0.135640000    4.390170000   11.769620000 XXXX 1      xx      In  0.000
In       5.411830000    4.607770000   11.771000000 XXXX 1      xx      In  0.000
In      10.684330000    4.683140000   11.735620000 XXXX 1      xx      In  0.000
In       0.219460000   10.054010000   11.850370000 XXXX 1      xx      In  0.000
In       5.550130000   10.159860000   11.765000000 XXXX 1      xx      In  0.000
In      10.784300000   10.258030000   11.776350000 XXXX 1      xx      In  0.000
In       0.314210000   15.647650000   11.722350000 XXXX 1      xx      In  0.000
In       5.691980000   15.825190000   11.762170000 XXXX 1      xx      In  0.000
In      10.930570000   15.937020000   11.765980000 XXXX 1      xx      In  0.000
end
end
                                                                          0.0000
!DATE     May 15 21:11:07 2019
PBC   15.845   16.830   21.258   90.000   90.000   87.648
P        5.080730000    1.689250000   11.771750000 XXXX 1      xx      P   0.000
P       10.266190000    1.762640000   11.718170000 XXXX 1      xx      P   0.000
P       15.580500000    1.867680000   11.680040000 XXXX 1      xx      P   0.000
P        5.280150000    7.176560000   11.622450000 XXXX 1      xx      P   0.000
P       10.500690000    7.427570000   11.664650000 XXXX 1      xx      P   0.000
P       15.705850000    7.361360000   11.686140000 XXXX 1      xx      P   0.000
P        5.271100000   12.867840000   11.630470000 XXXX 1      xx      P   0.000
P       10.553230000   12.913450000   11.623300000 XXXX 1      xx      P   0.000
P       15.837590000   13.094950000   11.753640000 XXXX 1      xx      P   0.000
P        0.098810000    3.951910000    9.111180000 XXXX 1      xx      P   0.000
P        5.371100000    3.932110000    9.050980000 XXXX 1      xx      P   0.000
P       10.747920000    3.960070000    9.080750000 XXXX 1      xx      P   0.000
P        0.238420000    9.409860000    9.122930000 XXXX 1      xx      P   0.000
P        5.368090000    9.709740000    9.253390000 XXXX 1      xx      P   0.000
P       10.830240000    9.722950000    9.109630000 XXXX 1      xx      P   0.000
P        0.323780000   15.097630000    9.170740000 XXXX 1      xx      P   0.000
P        5.671460000   15.288600000    9.204760000 XXXX 1      xx      P   0.000
P       10.841240000   15.368190000    9.152880000 XXXX 1      xx      P   0.000
P        2.518100000    1.524790000    9.638370000 XXXX 1      xx      P   0.000
P        7.693460000    1.641080000    9.506860000 XXXX 1      xx      P   0.000
P       12.943700000    1.728070000    9.585230000 XXXX 1      xx      P   0.000
P        2.564620000    7.105470000    9.676220000 XXXX 1      xx      P   0.000
P        7.800780000    7.315720000    9.521080000 XXXX 1      xx      P   0.000
P       12.972470000    7.338830000    9.517900000 XXXX 1      xx      P   0.000
P        2.691340000   12.809800000    9.596850000 XXXX 1      xx      P   0.000
P        7.913780000   12.946590000    9.594310000 XXXX 1      xx      P   0.000
P       13.237710000   12.961770000    9.593080000 XXXX 1      xx      P   0.000
P        2.773730000    3.981200000   12.000750000 XXXX 1      xx      P   0.000
P        8.138210000    4.014330000   12.081600000 XXXX 1      xx      P   0.000
P       13.258570000    4.252110000   12.035690000 XXXX 1      xx      P   0.000
P        2.905970000    9.574450000   12.224660000 XXXX 1      xx      P   0.000
P        8.124860000    9.619470000   12.250700000 XXXX 1      xx      P   0.000
P       13.386250000    9.785580000   12.167130000 XXXX 1      xx      P   0.000
P        2.883720000   15.122630000   12.097710000 XXXX 1      xx      P   0.000
P        8.231100000   15.348100000   12.172450000 XXXX 1      xx      P   0.000
P       13.579760000   15.495500000   12.176130000 XXXX 1      xx      P   0.000
P        2.914720000    1.760640000   11.748060000 XXXX 1      xx      P   0.000
P        8.053800000    1.813710000   11.651550000 XXXX 1      xx      P   0.000
P       13.378070000    2.045950000   11.764060000 XXXX 1      xx      P   0.000
P        2.989370000    7.385440000   11.925880000 XXXX 1      xx      P   0.000
P        8.286620000    7.518400000   11.791000000 XXXX 1      xx      P   0.000
P       13.460840000    7.471960000   11.677390000 XXXX 1      xx      P   0.000
P        3.097830000   12.981710000   11.732570000 XXXX 1      xx      P   0.000
P        8.338870000   13.223170000   11.836270000 XXXX 1      xx      P   0.000
P       13.582340000   13.284400000   11.786800000 XXXX 1      xx      P   0.000
P        0.215600000    1.785130000    9.471920000 XXXX 1      xx      P   0.000
P        5.464910000    1.818060000    9.595460000 XXXX 1      xx      P   0.000
P       10.744940000    1.814590000    9.566890000 XXXX 1      xx      P   0.000
P        0.338000000    7.220160000    9.561760000 XXXX 1      xx      P   0.000
P        5.559120000    7.497110000    9.425140000 XXXX 1      xx      P   0.000
P       10.818890000    7.556730000    9.474830000 XXXX 1      xx      P   0.000
P        0.497530000   12.970230000    9.529750000 XXXX 1      xx      P   0.000
P        5.746510000   13.083370000    9.453800000 XXXX 1      xx      P   0.000
P       10.993410000   13.085710000    9.453720000 XXXX 1      xx      P   0.000
In       2.774810000    4.517670000    9.482940000 XXXX 1      xx      In  0.000
In       8.101820000    4.559600000    9.506480000 XXXX 1      xx      In  0.000
In      13.303230000    4.681080000    9.518280000 XXXX 1      xx      In  0.000
In       2.824580000   10.143600000    9.530790000 XXXX 1      xx      In  0.000
In       8.170810000   10.140810000    9.461880000 XXXX 1      xx      In  0.000
In      13.392760000   10.273170000    9.420240000 XXXX 1      xx      In  0.000
In       3.004430000   15.648340000    9.480150000 XXXX 1      xx      In  0.000
In       8.256230000   15.838170000    9.463210000 XXXX 1      xx      In  0.000
In      13.552690000   15.993320000    9.460470000 XXXX 1      xx      In  0.000
In       0.135390000    4.386090000   11.769260000 XXXX 1      xx      In  0.000
In       5.411900000    4.612040000   11.770200000 XXXX 1      xx      In  0.000
In      10.683030000    4.685120000   11.732030000 XXXX 1      xx      In  0.000
In       0.217010000   10.054910000   11.856520000 XXXX 1      xx      In  0.000
In       5.552160000   10.160480000   11.765330000 XXXX 1      xx      In  0.000
In      10.782290000   10.256840000   11.776580000 XXXX 1      xx      In  0.000
In       0.311120000   15.647830000   11.718380000 XXXX 1      xx      In  0.000
In       5.696200000   15.830380000   11.761930000 XXXX 1      xx      In  0.000
In      10.932160000   15.941590000   11.765460000 XXXX 1      xx      In  0.000
end
end
                                                                          0.0000
!DATE     May 15 21:11:07 2019
PBC   15.845   16.830   21.258   90.000   90.000   87.648
P        5.089810000    1.692710000   11.780520000 XXXX 1      xx      P   0.000
P       10.263220000    1.761070000   11.723530000 XXXX 1      xx      P   0.000
P       15.579640000    1.869940000   11.675730000 XXXX 1      xx      P   0.000
P        5.283050000    7.178430000   11.619240000 XXXX 1      xx      P   0.000
P       10.504440000    7.430110000   11.663310000 XXXX 1      xx      P   0.000
P       15.701430000    7.356730000   11.690490000 XXXX 1      xx      P   0.000
P        5.277180000   12.869120000   11.626350000 XXXX 1      xx      P   0.000
P       10.552940000   12.913860000   11.620980000 XXXX 1      xx      P   0.000
P       15.835900000   13.096020000   11.755790000 XXXX 1      xx      P   0.000
P        0.097780000    3.957480000    9.109710000 XXXX 1      xx      P   0.000
P        5.371600000    3.929730000    9.046740000 XXXX 1      xx      P   0.000
P       10.749770000    3.950440000    9.076030000 XXXX 1      xx      P   0.000
P        0.238380000    9.401710000    9.126120000 XXXX 1      xx      P   0.000
P        5.362760000    9.715350000    9.258490000 XXXX 1      xx      P   0.000
P       10.830320000    9.724240000    9.106810000 XXXX 1      xx      P   0.000
P        0.323890000   15.103210000    9.170210000 XXXX 1      xx      P   0.000
P        5.673050000   15.293090000    9.207610000 XXXX 1      xx      P   0.000
P       10.840870000   15.363920000    9.155310000 XXXX 1      xx      P   0.000
P        2.518590000    1.522740000    9.630890000 XXXX 1      xx      P   0.000
P        7.691230000    1.640060000    9.496490000 XXXX 1      xx      P   0.000
P       12.943980000    1.726060000    9.587150000 XXXX 1      xx      P   0.000
P        2.566650000    7.104460000    9.689360000 XXXX 1      xx      P   0.000
P        7.800640000    7.317640000    9.522510000 XXXX 1      xx      P   0.000
P       12.973820000    7.332660000    9.510070000 XXXX 1      xx      P   0.000
P        2.697090000   12.810870000    9.595150000 XXXX 1      xx      P   0.000
P        7.919310000   12.946800000    9.601010000 XXXX 1      xx      P   0.000
P       13.238960000   12.960730000    9.594490000 XXXX 1      xx      P   0.000
P        2.774780000    3.980300000   11.994760000 XXXX 1      xx      P   0.000
P        8.138830000    4.009830000   12.079100000 XXXX 1      xx      P   0.000
P       13.256200000    4.256680000   12.033020000 XXXX 1      xx      P   0.000
P        2.908430000    9.576290000   12.231080000 XXXX 1      xx      P   0.000
P        8.124740000    9.622740000   12.259160000 XXXX 1      xx      P   0.000
P       13.384630000    9.776490000   12.165910000 XXXX 1      xx      P   0.000
P        2.881150000   15.123980000   12.096580000 XXXX 1      xx      P   0.000
P        8.233860000   15.360760000   12.176370000 XXXX 1      xx      P   0.000
P       13.580330000   15.499950000   12.177570000 XXXX 1      xx      P   0.000
P        2.914620000    1.764620000   11.758900000 XXXX 1      xx      P   0.000
P        8.051350000    1.811530000   11.648890000 XXXX 1      xx      P   0.000
P       13.374910000    2.048380000   11.764650000 XXXX 1      xx      P   0.000
P        2.998500000    7.384190000   11.933570000 XXXX 1      xx      P   0.000
P        8.288600000    7.513800000   11.787020000 XXXX 1      xx      P   0.000
P       13.459020000    7.470330000   11.675890000 XXXX 1      xx      P   0.000
P        3.097320000   12.979320000   11.734120000 XXXX 1      xx      P   0.000
P        8.340040000   13.223480000   11.836170000 XXXX 1      xx      P   0.000
P       13.585290000   13.290570000   11.790170000 XXXX 1      xx      P   0.000
P        0.222450000    1.787600000    9.474220000 XXXX 1      xx      P   0.000
P        5.464870000    1.815200000    9.599920000 XXXX 1      xx      P   0.000
P       10.742560000    1.804030000    9.570120000 XXXX 1      xx      P   0.000
P        0.343430000    7.214280000    9.560980000 XXXX 1      xx      P   0.000
P        5.557750000    7.502050000    9.419330000 XXXX 1      xx      P   0.000
P       10.809090000    7.557140000    9.473360000 XXXX 1      xx      P   0.000
P        0.499710000   12.967130000    9.536390000 XXXX 1      xx      P   0.000
P        5.747410000   13.088690000    9.450720000 XXXX 1      xx      P   0.000
P       10.996800000   13.086050000    9.447780000 XXXX 1      xx      P   0.000
In       2.774670000    4.519300000    9.481810000 XXXX 1      xx      In  0.000
In       8.105120000    4.555860000    9.507470000 XXXX 1      xx      In  0.000
In      13.300450000    4.677820000    9.519670000 XXXX 1      xx      In  0.000
In       2.818490000   10.146950000    9.535240000 XXXX 1      xx      In  0.000
In       8.171120000   10.135320000    9.460390000 XXXX 1      xx      In  0.000
In      13.389420000   10.268090000    9.415830000 XXXX 1      xx      In  0.000
In       3.005570000   15.643900000    9.479670000 XXXX 1      xx      In  0.000
In       8.255330000   15.839060000    9.461550000 XXXX 1      xx      In  0.000
In      13.552440000   15.996360000    9.458730000 XXXX 1      xx      In  0.000
In       0.135170000    4.381780000   11.768910000 XXXX 1      xx      In  0.000
In       5.412130000    4.616330000   11.769260000 XXXX 1      xx      In  0.000
In      10.681710000    4.687250000   11.728250000 XXXX 1      xx      In  0.000
In       0.214450000   10.055800000   11.862840000 XXXX 1      xx      In  0.000
In       5.554290000   10.161230000   11.765910000 XXXX 1      xx      In  0.000
In      10.780200000   10.255670000   11.776830000 XXXX 1      xx      In  0.000
In       0.307990000   15.648120000   11.714360000 XXXX 1      xx      In  0.000
In       5.700450000   15.835800000   11.761840000 XXXX 1      xx      In  0.000
In      10.933830000   15.946320000   11.764970000 XXXX 1      xx      In  0.000
end
end
                                                                          0.0000
!DATE     May 15 21:11:07 2019
PBC   15.845   16.830   21.258   90.000   90.000   87.648
P        5.100000000    1.695880000   11.789860000 XXXX 1      xx      P   0.000
P       10.260620000    1.758770000   11.729480000 XXXX 1      xx      P   0.000
P       15.579060000    1.872300000   11.670810000 XXXX 1      xx      P   0.000
P        5.285120000    7.181240000   11.616150000 XXXX 1      xx      P   0.000
P       10.508100000    7.431900000   11.661990000 XXXX 1      xx      P   0.000
P       15.696500000    7.352350000   11.695450000 XXXX 1      xx      P   0.000
P        5.284190000   12.870190000   11.622240000 XXXX 1      xx      P   0.000
P       10.552620000   12.914680000   11.618870000 XXXX 1      xx      P   0.000
P       15.833930000   13.096860000   11.757660000 XXXX 1      xx      P   0.000
P        0.096710000    3.963260000    9.108140000 XXXX 1      xx      P   0.000
P        5.372370000    3.927780000    9.042630000 XXXX 1      xx      P   0.000
P       10.750860000    3.940960000    9.070920000 XXXX 1      xx      P   0.000
P        0.237990000    9.393300000    9.129940000 XXXX 1      xx      P   0.000
P        5.358050000    9.720790000    9.262770000 XXXX 1      xx      P   0.000
P       10.829590000    9.725840000    9.103630000 XXXX 1      xx      P   0.000
P        0.323970000   15.109570000    9.168970000 XXXX 1      xx      P   0.000
P        5.673970000   15.297690000    9.209860000 XXXX 1      xx      P   0.000
P       10.840990000   15.358670000    9.157780000 XXXX 1      xx      P   0.000
P        2.518130000    1.520640000    9.622040000 XXXX 1      xx      P   0.000
P        7.688740000    1.639190000    9.485240000 XXXX 1      xx      P   0.000
P       12.944660000    1.724500000    9.589250000 XXXX 1      xx      P   0.000
P        2.568660000    7.103990000    9.703580000 XXXX 1      xx      P   0.000
P        7.800510000    7.319380000    9.524700000 XXXX 1      xx      P   0.000
P       12.976370000    7.326080000    9.501550000 XXXX 1      xx      P   0.000
P        2.703010000   12.811620000    9.592940000 XXXX 1      xx      P   0.000
P        7.925660000   12.946310000    9.608540000 XXXX 1      xx      P   0.000
P       13.239930000   12.959980000    9.595960000 XXXX 1      xx      P   0.000
P        2.775680000    3.978950000   11.989500000 XXXX 1      xx      P   0.000
P        8.138140000    4.005220000   12.076910000 XXXX 1      xx      P   0.000
P       13.253950000    4.261150000   12.031270000 XXXX 1      xx      P   0.000
P        2.910690000    9.578220000   12.237540000 XXXX 1      xx      P   0.000
P        8.124730000    9.626860000   12.267680000 XXXX 1      xx      P   0.000
P       13.383010000    9.765910000   12.164000000 XXXX 1      xx      P   0.000
P        2.879070000   15.126080000   12.095690000 XXXX 1      xx      P   0.000
P        8.237310000   15.374510000   12.180420000 XXXX 1      xx      P   0.000
P       13.580250000   15.504090000   12.178740000 XXXX 1      xx      P   0.000
P        2.913740000    1.769200000   11.771090000 XXXX 1      xx      P   0.000
P        8.049190000    1.809710000   11.646740000 XXXX 1      xx      P   0.000
P       13.371470000    2.050720000   11.765300000 XXXX 1      xx      P   0.000
P        3.008640000    7.382700000   11.940790000 XXXX 1      xx      P   0.000
P        8.290120000    7.508420000   11.782160000 XXXX 1      xx      P   0.000
P       13.457300000    7.469930000   11.674910000 XXXX 1      xx      P   0.000
P        3.096340000   12.976620000   11.736250000 XXXX 1      xx      P   0.000
P        8.341310000   13.222840000   11.835350000 XXXX 1      xx      P   0.000
P       13.588960000   13.296970000   11.793750000 XXXX 1      xx      P   0.000
P        0.230210000    1.789650000    9.477050000 XXXX 1      xx      P   0.000
P        5.464820000    1.811990000    9.604090000 XXXX 1      xx      P   0.000
P       10.739880000    1.793150000    9.573160000 XXXX 1      xx      P   0.000
P        0.349300000    7.208410000    9.559630000 XXXX 1      xx      P   0.000
P        5.556390000    7.507140000    9.413430000 XXXX 1      xx      P   0.000
P       10.798530000    7.557530000    9.471830000 XXXX 1      xx      P   0.000
P        0.501200000   12.963270000    9.543660000 XXXX 1      xx      P   0.000
P        5.747960000   13.094450000    9.447640000 XXXX 1      xx      P   0.000
P       11.000480000   13.087280000    9.441480000 XXXX 1      xx      P   0.000
In       2.774580000    4.520910000    9.480430000 XXXX 1      xx      In  0.000
In       8.108540000    4.552010000    9.508350000 XXXX 1      xx      In  0.000
In      13.297610000    4.674470000    9.520840000 XXXX 1      xx      In  0.000
In       2.811990000   10.150380000    9.539990000 XXXX 1      xx      In  0.000
In       8.171450000   10.129730000    9.458910000 XXXX 1      xx      In  0.000
In      13.386150000   10.262800000    9.411380000 XXXX 1      xx      In  0.000
In       3.006790000   15.639390000    9.479140000 XXXX 1      xx      In  0.000
In       8.254500000   15.839950000    9.459840000 XXXX 1      xx      In  0.000
In      13.552170000   15.999290000    9.456950000 XXXX 1      xx      In  0.000
In       0.134980000    4.377230000   11.768560000 XXXX 1      xx      In  0.000
In       5.412510000    4.620630000   11.768190000 XXXX 1      xx      In  0.000
In      10.680360000    4.689560000   11.724260000 XXXX 1      xx      In  0.000
In       0.211760000   10.056680000   11.869350000 XXXX 1      xx      In  0.000
In       5.556530000   10.162120000   11.766750000 XXXX 1      xx      In  0.000
In      10.778040000   10.254540000   11.777090000 XXXX 1      xx      In  0.000
In       0.304810000   15.648530000   11.710290000 XXXX 1      xx      In  0.000
In       5.704730000   15.841500000   11.761920000 XXXX 1      xx      In  0.000
In      10.935600000   15.951220000   11.764500000 XXXX 1      xx      In  0.000
end
end
                                                                          0.0000
!DATE     May 15 21:11:07 2019
PBC   15.845   16.830   21.258   90.000   90.000   87.648
P        5.111240000    1.698750000   11.799800000 XXXX 1      xx      P   0.000
P       10.258460000    1.755740000   11.736050000 XXXX 1      xx      P   0.000
P       15.578750000    1.874790000   11.665310000 XXXX 1      xx      P   0.000
P        5.286360000    7.185040000   11.613150000 XXXX 1      xx      P   0.000
P       10.511630000    7.432880000   11.660660000 XXXX 1      xx      P   0.000
P       15.691100000    7.348240000   11.700980000 XXXX 1      xx      P   0.000
P        5.292070000   12.871080000   11.618140000 XXXX 1      xx      P   0.000
P       10.552280000   12.915930000   11.616930000 XXXX 1      xx      P   0.000
P       15.831720000   13.097460000   11.759300000 XXXX 1      xx      P   0.000
P        0.095620000    3.969190000    9.106480000 XXXX 1      xx      P   0.000
P        5.373430000    3.926250000    9.038670000 XXXX 1      xx      P   0.000
P       10.751110000    3.931580000    9.065390000 XXXX 1      xx      P   0.000
P        0.237210000    9.384660000    9.134430000 XXXX 1      xx      P   0.000
P        5.353980000    9.726060000    9.266170000 XXXX 1      xx      P   0.000
P       10.827990000    9.727750000    9.100070000 XXXX 1      xx      P   0.000
P        0.324050000   15.116580000    9.167010000 XXXX 1      xx      P   0.000
P        5.674180000   15.302400000    9.211490000 XXXX 1      xx      P   0.000
P       10.841630000   15.352440000    9.160270000 XXXX 1      xx      P   0.000
P        2.516770000    1.518510000    9.612010000 XXXX 1      xx      P   0.000
P        7.686020000    1.638470000    9.473120000 XXXX 1      xx      P   0.000
P       12.945740000    1.723460000    9.591540000 XXXX 1      xx      P   0.000
P        2.570690000    7.104080000    9.718910000 XXXX 1      xx      P   0.000
P        7.800370000    7.320930000    9.527640000 XXXX 1      xx      P   0.000
P       12.980040000    7.319110000    9.492360000 XXXX 1      xx      P   0.000
P        2.709050000   12.812030000    9.590240000 XXXX 1      xx      P   0.000
P        7.932810000   12.945120000    9.616880000 XXXX 1      xx      P   0.000
P       13.240610000   12.959510000    9.597500000 XXXX 1      xx      P   0.000
P        2.776430000    3.977200000   11.985060000 XXXX 1      xx      P   0.000
P        8.136100000    4.000520000   12.075060000 XXXX 1      xx      P   0.000
P       13.251800000    4.265500000   12.030530000 XXXX 1      xx      P   0.000
P        2.912720000    9.580210000   12.244060000 XXXX 1      xx      P   0.000
P        8.124860000    9.631700000   12.276240000 XXXX 1      xx      P   0.000
P       13.381390000    9.753800000   12.161380000 XXXX 1      xx      P   0.000
P        2.877520000   15.128890000   12.095040000 XXXX 1      xx      P   0.000
P        8.241490000   15.389230000   12.184570000 XXXX 1      xx      P   0.000
P       13.579500000   15.507930000   12.179650000 XXXX 1      xx      P   0.000
P        2.912140000    1.774330000   11.784440000 XXXX 1      xx      P   0.000
P        8.047290000    1.808210000   11.645030000 XXXX 1      xx      P   0.000
P       13.367760000    2.052970000   11.766020000 XXXX 1      xx      P   0.000
P        3.019810000    7.381020000   11.947580000 XXXX 1      xx      P   0.000
P        8.291170000    7.502390000   11.776440000 XXXX 1      xx      P   0.000
P       13.455650000    7.470760000   11.674380000 XXXX 1      xx      P   0.000
P        3.094980000   12.973630000   11.738950000 XXXX 1      xx      P   0.000
P        8.342700000   13.221390000   11.833870000 XXXX 1      xx      P   0.000
P       13.593350000   13.303590000   11.797500000 XXXX 1      xx      P   0.000
P        0.238860000    1.791310000    9.480350000 XXXX 1      xx      P   0.000
P        5.464730000    1.808480000    9.608000000 XXXX 1      xx      P   0.000
P       10.736910000    1.781950000    9.576060000 XXXX 1      xx      P   0.000
P        0.355610000    7.202530000    9.557810000 XXXX 1      xx      P   0.000
P        5.555050000    7.512400000    9.407460000 XXXX 1      xx      P   0.000
P       10.787350000    7.557880000    9.470210000 XXXX 1      xx      P   0.000
P        0.501990000   12.958760000    9.551520000 XXXX 1      xx      P   0.000
P        5.748230000   13.100640000    9.444560000 XXXX 1      xx      P   0.000
P       11.004440000   13.089370000    9.434880000 XXXX 1      xx      P   0.000
In       2.774560000    4.522500000    9.478790000 XXXX 1      xx      In  0.000
In       8.112110000    4.548030000    9.509080000 XXXX 1      xx      In  0.000
In      13.294710000    4.671000000    9.521790000 XXXX 1      xx      In  0.000
In       2.805040000   10.153910000    9.545050000 XXXX 1      xx      In  0.000
In       8.171780000   10.124020000    9.457440000 XXXX 1      xx      In  0.000
In      13.382960000   10.257250000    9.406880000 XXXX 1      xx      In  0.000
In       3.008100000   15.634820000    9.478570000 XXXX 1      xx      In  0.000
In       8.253760000   15.840840000    9.458070000 XXXX 1      xx      In  0.000
In      13.551870000   16.002120000    9.455110000 XXXX 1      xx      In  0.000
In       0.134820000    4.372400000   11.768220000 XXXX 1      xx      In  0.000
In       5.413060000    4.624960000   11.766950000 XXXX 1      xx      In  0.000
In      10.678980000    4.692060000   11.720030000 XXXX 1      xx      In  0.000
In       0.208940000   10.057560000   11.876070000 XXXX 1      xx      In  0.000
In       5.558900000   10.163170000   11.767880000 XXXX 1      xx      In  0.000
In      10.775780000   10.253440000   11.777380000 XXXX 1      xx      In  0.000
In       0.301570000   15.649070000   11.706150000 XXXX 1      xx      In  0.000
In       5.709050000   15.847480000   11.762180000 XXXX 1      xx      In  0.000
In      10.937470000   15.956320000   11.764050000 XXXX 1      xx      In  0.000
end
end
                                                                          0.0000
!DATE     May 15 21:11:07 2019
PBC   15.845   16.830   21.258   90.000   90.000   87.648
P        5.123410000    1.701350000   11.810330000 XXXX 1      xx      P   0.000
P       10.256750000    1.752000000   11.743230000 XXXX 1      xx      P   0.000
P       15.578710000    1.877400000   11.659250000 XXXX 1      xx      P   0.000
P        5.286780000    7.189890000   11.610230000 XXXX 1      xx      P   0.000
P       10.515000000    7.433000000   11.659320000 XXXX 1      xx      P   0.000
P       15.685240000    7.344380000   11.707040000 XXXX 1      xx      P   0.000
P        5.300790000   12.871800000   11.614100000 XXXX 1      xx      P   0.000
P       10.551930000   12.917590000   11.615110000 XXXX 1      xx      P   0.000
P       15.829300000   13.097830000   11.760760000 XXXX 1      xx      P   0.000
P        0.094520000    3.975240000    9.104750000 XXXX 1      xx      P   0.000
P        5.374780000    3.925130000    9.034860000 XXXX 1      xx      P   0.000
P       10.750470000    3.922270000    9.059400000 XXXX 1      xx      P   0.000
P        0.236020000    9.375800000    9.139620000 XXXX 1      xx      P   0.000
P        5.350570000    9.731160000    9.268630000 XXXX 1      xx      P   0.000
P       10.825460000    9.729940000    9.096130000 XXXX 1      xx      P   0.000
P        0.324110000   15.124110000    9.164310000 XXXX 1      xx      P   0.000
P        5.673620000   15.307240000    9.212450000 XXXX 1      xx      P   0.000
P       10.842830000   15.345230000    9.162780000 XXXX 1      xx      P   0.000
P        2.514540000    1.516360000    9.601030000 XXXX 1      xx      P   0.000
P        7.683100000    1.637900000    9.460180000 XXXX 1      xx      P   0.000
P       12.947170000    1.723000000    9.594020000 XXXX 1      xx      P   0.000
P        2.572780000    7.104780000    9.735390000 XXXX 1      xx      P   0.000
P        7.800230000    7.322260000    9.531310000 XXXX 1      xx      P   0.000
P       12.984690000    7.311770000    9.482530000 XXXX 1      xx      P   0.000
P        2.715160000   12.812090000    9.587100000 XXXX 1      xx      P   0.000
P        7.940700000   12.943220000    9.625990000 XXXX 1      xx      P   0.000
P       13.241030000   12.959330000    9.599130000 XXXX 1      xx      P   0.000
P        2.777020000    3.975080000   11.981490000 XXXX 1      xx      P   0.000
P        8.132670000    3.995750000   12.073590000 XXXX 1      xx      P   0.000
P       13.249760000    4.269690000   12.030880000 XXXX 1      xx      P   0.000
P        2.914540000    9.582260000   12.250630000 XXXX 1      xx      P   0.000
P        8.125130000    9.637150000   12.284800000 XXXX 1      xx      P   0.000
P       13.379750000    9.740140000   12.158010000 XXXX 1      xx      P   0.000
P        2.876520000   15.132420000   12.094620000 XXXX 1      xx      P   0.000
P        8.246450000   15.404790000   12.188780000 XXXX 1      xx      P   0.000
P       13.578040000   15.511480000   12.180290000 XXXX 1      xx      P   0.000
P        2.909930000    1.779910000   11.798720000 XXXX 1      xx      P   0.000
P        8.045680000    1.807020000   11.643640000 XXXX 1      xx      P   0.000
P       13.363830000    2.055150000   11.766810000 XXXX 1      xx      P   0.000
P        3.031980000    7.379200000   11.953990000 XXXX 1      xx      P   0.000
P        8.291710000    7.495840000   11.769930000 XXXX 1      xx      P   0.000
P       13.454040000    7.472800000   11.674220000 XXXX 1      xx      P   0.000
P        3.093330000   12.970380000   11.742200000 XXXX 1      xx      P   0.000
P        8.344220000   13.219280000   11.831790000 XXXX 1      xx      P   0.000
P       13.598420000   13.310400000   11.801430000 XXXX 1      xx      P   0.000
P        0.248370000    1.792610000    9.484060000 XXXX 1      xx      P   0.000
P        5.464550000    1.804700000    9.611670000 XXXX 1      xx      P   0.000
P       10.733680000    1.770480000    9.578840000 XXXX 1      xx      P   0.000
P        0.362320000    7.196600000    9.555680000 XXXX 1      xx      P   0.000
P        5.553730000    7.517850000    9.401430000 XXXX 1      xx      P   0.000
P       10.775720000    7.558200000    9.468460000 XXXX 1      xx      P   0.000
P        0.502080000   12.953700000    9.559880000 XXXX 1      xx      P   0.000
P        5.748310000   13.107270000    9.441490000 XXXX 1      xx      P   0.000
P       11.008690000   13.092340000    9.428030000 XXXX 1      xx      P   0.000
In       2.774620000    4.524060000    9.476850000 XXXX 1      xx      In  0.000
In       8.115820000    4.543910000    9.509680000 XXXX 1      xx      In  0.000
In      13.291740000    4.667420000    9.522480000 XXXX 1      xx      In  0.000
In       2.797620000   10.157540000    9.550470000 XXXX 1      xx      In  0.000
In       8.172120000   10.118180000    9.455980000 XXXX 1      xx      In  0.000
In      13.379850000   10.251440000    9.402320000 XXXX 1      xx      In  0.000
In       3.009510000   15.630170000    9.477960000 XXXX 1      xx      In  0.000
In       8.253110000   15.841720000    9.456250000 XXXX 1      xx      In  0.000
In      13.551540000   16.004840000    9.453200000 XXXX 1      xx      In  0.000
In       0.134690000    4.367290000   11.767880000 XXXX 1      xx      In  0.000
In       5.413790000    4.629320000   11.765530000 XXXX 1      xx      In  0.000
In      10.677560000    4.694750000   11.715540000 XXXX 1      xx      In  0.000
In       0.205960000   10.058430000   11.883030000 XXXX 1      xx      In  0.000
In       5.561410000   10.164400000   11.769320000 XXXX 1      xx      In  0.000
In      10.773410000   10.252380000   11.777670000 XXXX 1      xx      In  0.000
In       0.298280000   15.649740000   11.701950000 XXXX 1      xx      In  0.000
In       5.713440000   15.853790000   11.762630000 XXXX 1      xx      In  0.000
In      10.939450000   15.961610000   11.763630000 XXXX 1      xx      In  0.000
end
end
                                                                          0.0000
!DATE     May 15 21:11:07 2019
PBC   15.845   16.830   21.258   90.000   90.000   87.648
P        5.136420000    1.703690000   11.821440000 XXXX 1      xx      P   0.000
P       10.255530000    1.747560000   11.751020000 XXXX 1      xx      P   0.000
P       15.578910000    1.880140000   11.652680000 XXXX 1      xx      P   0.000
P        5.286400000    7.195820000   11.607340000 XXXX 1      xx      P   0.000
P       10.518150000    7.432230000   11.657950000 XXXX 1      xx      P   0.000
P       15.678970000    7.340770000   11.713530000 XXXX 1      xx      P   0.000
P        5.310250000   12.872380000   11.610130000 XXXX 1      xx      P   0.000
P       10.551610000   12.919670000   11.613350000 XXXX 1      xx      P   0.000
P       15.826730000   13.097970000   11.762100000 XXXX 1      xx      P   0.000
P        0.093440000    3.981340000    9.102940000 XXXX 1      xx      P   0.000
P        5.376420000    3.924400000    9.031240000 XXXX 1      xx      P   0.000
P       10.748880000    3.913010000    9.052940000 XXXX 1      xx      P   0.000
P        0.234420000    9.366750000    9.145560000 XXXX 1      xx      P   0.000
P        5.347870000    9.736050000    9.270100000 XXXX 1      xx      P   0.000
P       10.821940000    9.732390000    9.091790000 XXXX 1      xx      P   0.000
P        0.324160000   15.131990000    9.160860000 XXXX 1      xx      P   0.000
P        5.672280000   15.312210000    9.212700000 XXXX 1      xx      P   0.000
P       10.844620000   15.337120000    9.165280000 XXXX 1      xx      P   0.000
P        2.511510000    1.514190000    9.589340000 XXXX 1      xx      P   0.000
P        7.680000000    1.637500000    9.446490000 XXXX 1      xx      P   0.000
P       12.948920000    1.723180000    9.596680000 XXXX 1      xx      P   0.000
P        2.574980000    7.106120000    9.752980000 XXXX 1      xx      P   0.000
P        7.800060000    7.323350000    9.535670000 XXXX 1      xx      P   0.000
P       12.990170000    7.304110000    9.472110000 XXXX 1      xx      P   0.000
P        2.721250000   12.811800000    9.583600000 XXXX 1      xx      P   0.000
P        7.949270000   12.940610000    9.635790000 XXXX 1      xx      P   0.000
P       13.241200000   12.959430000    9.600870000 XXXX 1      xx      P   0.000
P        2.777460000    3.972660000   11.978850000 XXXX 1      xx      P   0.000
P        8.127830000    3.990940000   12.072570000 XXXX 1      xx      P   0.000
P       13.247800000    4.273690000   12.032370000 XXXX 1      xx      P   0.000
P        2.916130000    9.584330000   12.257240000 XXXX 1      xx      P   0.000
P        8.125570000    9.643060000   12.293290000 XXXX 1      xx      P   0.000
P       13.378050000    9.724930000   12.153840000 XXXX 1      xx      P   0.000
P        2.876100000   15.136610000   12.094430000 XXXX 1      xx      P   0.000
P        8.252220000   15.421010000   12.192990000 XXXX 1      xx      P   0.000
P       13.575870000   15.514760000   12.180630000 XXXX 1      xx      P   0.000
P        2.907220000    1.785850000   11.813690000 XXXX 1      xx      P   0.000
P        8.044350000    1.806100000   11.642440000 XXXX 1      xx      P   0.000
P       13.359690000    2.057280000   11.767690000 XXXX 1      xx      P   0.000
P        3.045090000    7.377290000   11.960070000 XXXX 1      xx      P   0.000
P        8.291750000    7.488920000   11.762730000 XXXX 1      xx      P   0.000
P       13.452430000    7.476040000   11.674340000 XXXX 1      xx      P   0.000
P        3.091480000   12.966940000   11.745940000 XXXX 1      xx      P   0.000
P        8.345880000   13.216680000   11.829230000 XXXX 1      xx      P   0.000
P       13.604100000   13.317360000   11.805500000 XXXX 1      xx      P   0.000
P        0.258700000    1.793600000    9.488070000 XXXX 1      xx      P   0.000
P        5.464230000    1.800700000    9.615150000 XXXX 1      xx      P   0.000
P       10.730200000    1.758780000    9.581530000 XXXX 1      xx      P   0.000
P        0.369390000    7.190600000    9.553360000 XXXX 1      xx      P   0.000
P        5.552430000    7.523500000    9.395400000 XXXX 1      xx      P   0.000
P       10.763820000    7.558470000    9.466550000 XXXX 1      xx      P   0.000
P        0.501490000   12.948240000    9.568670000 XXXX 1      xx      P   0.000
P        5.748300000   13.114300000    9.438440000 XXXX 1      xx      P   0.000
P       11.013220000   13.096150000    9.420990000 XXXX 1      xx      P   0.000
In       2.774760000    4.525580000    9.474610000 XXXX 1      xx      In  0.000
In       8.119680000    4.539640000    9.510110000 XXXX 1      xx      In  0.000
In      13.288690000    4.663690000    9.522910000 XXXX 1      xx      In  0.000
In       2.789700000   10.161280000    9.556260000 XXXX 1      xx      In  0.000
In       8.172450000   10.112210000    9.454540000 XXXX 1      xx      In  0.000
In      13.376830000   10.245360000    9.397700000 XXXX 1      xx      In  0.000
In       3.011010000   15.625450000    9.477290000 XXXX 1      xx      In  0.000
In       8.252560000   15.842590000    9.454360000 XXXX 1      xx      In  0.000
In      13.551180000   16.007420000    9.451230000 XXXX 1      xx      In  0.000
In       0.134600000    4.361880000   11.767550000 XXXX 1      xx      In  0.000
In       5.414700000    4.633700000   11.763930000 XXXX 1      xx      In  0.000
In      10.676090000    4.697630000   11.710770000 XXXX 1      xx      In  0.000
In       0.202830000   10.059270000   11.890240000 XXXX 1      xx      In  0.000
In       5.564070000   10.165820000   11.771080000 XXXX 1      xx      In  0.000
In      10.770940000   10.251370000   11.777990000 XXXX 1      xx      In  0.000
In      16.135750000   15.999990000   11.697650000 XXXX 1      xx      In  0.000
In       5.717880000   15.860420000   11.763290000 XXXX 1      xx      In  0.000
In      10.941540000   15.967090000   11.763230000 XXXX 1      xx      In  0.000
end
end
                                                                          0.0000
!DATE     May 15 21:11:07 2019
PBC   15.845   16.830   21.258   90.000   90.000   87.648
P        5.150090000    1.705800000   11.833110000 XXXX 1      xx      P   0.000
P       10.254820000    1.742470000   11.759380000 XXXX 1      xx      P   0.000
P       15.579350000    1.883000000   11.645660000 XXXX 1      xx      P   0.000
P        5.285290000    7.202870000   11.604450000 XXXX 1      xx      P   0.000
P       10.521030000    7.430500000   11.656530000 XXXX 1      xx      P   0.000
P       15.672360000    7.337400000   11.720370000 XXXX 1      xx      P   0.000
P        5.320350000   12.872850000   11.606270000 XXXX 1      xx      P   0.000
P       10.551350000   12.922120000   11.611600000 XXXX 1      xx      P   0.000
P       15.824090000   13.097880000   11.763380000 XXXX 1      xx      P   0.000
P        0.092420000    3.987400000    9.101080000 XXXX 1      xx      P   0.000
P        5.378370000    3.924040000    9.027820000 XXXX 1      xx      P   0.000
P       10.746290000    3.903760000    9.046020000 XXXX 1      xx      P   0.000
P        0.232400000    9.357570000    9.152240000 XXXX 1      xx      P   0.000
P        5.345910000    9.740740000    9.270510000 XXXX 1      xx      P   0.000
P       10.817410000    9.735040000    9.087060000 XXXX 1      xx      P   0.000
P        0.324190000   15.140040000    9.156660000 XXXX 1      xx      P   0.000
P        5.670130000   15.317330000    9.212210000 XXXX 1      xx      P   0.000
P       10.847040000   15.328170000    9.167760000 XXXX 1      xx      P   0.000
P        2.507740000    1.512040000    9.577200000 XXXX 1      xx      P   0.000
P        7.676770000    1.637270000    9.432150000 XXXX 1      xx      P   0.000
P       12.950930000    1.724050000    9.599520000 XXXX 1      xx      P   0.000
P        2.577310000    7.108100000    9.771660000 XXXX 1      xx      P   0.000
P        7.799860000    7.324200000    9.540640000 XXXX 1      xx      P   0.000
P       12.996320000    7.296190000    9.461180000 XXXX 1      xx      P   0.000
P        2.727240000   12.811150000    9.579810000 XXXX 1      xx      P   0.000
P        7.958420000   12.937300000    9.646200000 XXXX 1      xx      P   0.000
P       13.241160000   12.959800000    9.602750000 XXXX 1      xx      P   0.000
P        2.777760000    3.970010000   11.977210000 XXXX 1      xx      P   0.000
P        8.121590000    3.986160000   12.072040000 XXXX 1      xx      P   0.000
P       13.245920000    4.277440000   12.035080000 XXXX 1      xx      P   0.000
P        2.917500000    9.586400000   12.263880000 XXXX 1      xx      P   0.000
P        8.126200000    9.649250000   12.301660000 XXXX 1      xx      P   0.000
P       13.376290000    9.708270000   12.148890000 XXXX 1      xx      P   0.000
P        2.876290000   15.141420000   12.094470000 XXXX 1      xx      P   0.000
P        8.258810000   15.437720000   12.197150000 XXXX 1      xx      P   0.000
P       13.572990000   15.517780000   12.180660000 XXXX 1      xx      P   0.000
P        2.904140000    1.792040000   11.829110000 XXXX 1      xx      P   0.000
P        8.043290000    1.805430000   11.641300000 XXXX 1      xx      P   0.000
P       13.355400000    2.059370000   11.768670000 XXXX 1      xx      P   0.000
P        3.059110000    7.375360000   11.965890000 XXXX 1      xx      P   0.000
P        8.291240000    7.481790000   11.754970000 XXXX 1      xx      P   0.000
P       13.450790000    7.480400000   11.674630000 XXXX 1      xx      P   0.000
P        3.089550000   12.963380000   11.750130000 XXXX 1      xx      P   0.000
P        8.347730000   13.213770000   11.826300000 XXXX 1      xx      P   0.000
P       13.610310000   13.324410000   11.809690000 XXXX 1      xx      P   0.000
P        0.269760000    1.794330000    9.492280000 XXXX 1      xx      P   0.000
P        5.463720000    1.796560000    9.618460000 XXXX 1      xx      P   0.000
P       10.726500000    1.746900000    9.584180000 XXXX 1      xx      P   0.000
P        0.376750000    7.184500000    9.551030000 XXXX 1      xx      P   0.000
P        5.551140000    7.529360000    9.389390000 XXXX 1      xx      P   0.000
P       10.751870000    7.558680000    9.464450000 XXXX 1      xx      P   0.000
P        0.500220000   12.942500000    9.577740000 XXXX 1      xx      P   0.000
P        5.748290000   13.121700000    9.435450000 XXXX 1      xx      P   0.000
P       11.018020000   13.100750000    9.413870000 XXXX 1      xx      P   0.000
In       2.775000000    4.527080000    9.472050000 XXXX 1      xx      In  0.000
In       8.123710000    4.535220000    9.510380000 XXXX 1      xx      In  0.000
In      13.285570000    4.659810000    9.523070000 XXXX 1      xx      In  0.000
In       2.781280000   10.165110000    9.562450000 XXXX 1      xx      In  0.000
In       8.172780000   10.106110000    9.453120000 XXXX 1      xx      In  0.000
In      13.373910000   10.238990000    9.393020000 XXXX 1      xx      In  0.000
In       3.012620000   15.620670000    9.476570000 XXXX 1      xx      In  0.000
In       8.252130000   15.843440000    9.452420000 XXXX 1      xx      In  0.000
In      13.550790000   16.009850000    9.449180000 XXXX 1      xx      In  0.000
In       0.134540000    4.356160000   11.767230000 XXXX 1      xx      In  0.000
In       5.415800000    4.638110000   11.762130000 XXXX 1      xx      In  0.000
In      10.674570000    4.700710000   11.705700000 XXXX 1      xx      In  0.000
In       0.199520000   10.060080000   11.897700000 XXXX 1      xx      In  0.000
In       5.566880000   10.167440000   11.773190000 XXXX 1      xx      In  0.000
In      10.768360000   10.250420000   11.778320000 XXXX 1      xx      In  0.000
In      16.132350000   16.000970000   11.693310000 XXXX 1      xx      In  0.000
In       5.722390000   15.867390000   11.764160000 XXXX 1      xx      In  0.000
In      10.943740000   15.972770000   11.762860000 XXXX 1      xx      In  0.000
end
end
                                                                          0.0000
!DATE     May 15 21:11:07 2019
PBC   15.845   16.830   21.258   90.000   90.000   87.648
P        5.164270000    1.707700000   11.845280000 XXXX 1      xx      P   0.000
P       10.254670000    1.736790000   11.768280000 XXXX 1      xx      P   0.000
P       15.579960000    1.885980000   11.638270000 XXXX 1      xx      P   0.000
P        5.283500000    7.211020000   11.601530000 XXXX 1      xx      P   0.000
P       10.523560000    7.427790000   11.655040000 XXXX 1      xx      P   0.000
P       15.665490000    7.334290000   11.727440000 XXXX 1      xx      P   0.000
P        5.330970000   12.873230000   11.602570000 XXXX 1      xx      P   0.000
P       10.551200000   12.924930000   11.609810000 XXXX 1      xx      P   0.000
P       15.821470000   13.097580000   11.764690000 XXXX 1      xx      P   0.000
P        0.091470000    3.993350000    9.099170000 XXXX 1      xx      P   0.000
P        5.380610000    3.924020000    9.024640000 XXXX 1      xx      P   0.000
P       10.742660000    3.894490000    9.038620000 XXXX 1      xx      P   0.000
P        0.229930000    9.348340000    9.159700000 XXXX 1      xx      P   0.000
P        5.344710000    9.745220000    9.269830000 XXXX 1      xx      P   0.000
P       10.811840000    9.737860000    9.081940000 XXXX 1      xx      P   0.000
P        0.324210000   15.148100000    9.151720000 XXXX 1      xx      P   0.000
P        5.667160000   15.322570000    9.210960000 XXXX 1      xx      P   0.000
P       10.850110000   15.318540000    9.170180000 XXXX 1      xx      P   0.000
P        2.503340000    1.509880000    9.564860000 XXXX 1      xx      P   0.000
P        7.673440000    1.637230000    9.417260000 XXXX 1      xx      P   0.000
P       12.953140000    1.725670000    9.602500000 XXXX 1      xx      P   0.000
P        2.579830000    7.110720000    9.791320000 XXXX 1      xx      P   0.000
P        7.799640000    7.324760000    9.546130000 XXXX 1      xx      P   0.000
P       13.002950000    7.288110000    9.449840000 XXXX 1      xx      P   0.000
P        2.733000000   12.810140000    9.575860000 XXXX 1      xx      P   0.000
P        7.968040000   12.933320000    9.657040000 XXXX 1      xx      P   0.000
P       13.240950000   12.960420000    9.604760000 XXXX 1      xx      P   0.000
P        2.777920000    3.967230000   11.976630000 XXXX 1      xx      P   0.000
P        8.113960000    3.981460000   12.072050000 XXXX 1      xx      P   0.000
P       13.244110000    4.280910000   12.039040000 XXXX 1      xx      P   0.000
P        2.918640000    9.588440000   12.270520000 XXXX 1      xx      P   0.000
P        8.127020000    9.655560000   12.309820000 XXXX 1      xx      P   0.000
P       13.374450000    9.690280000   12.143160000 XXXX 1      xx      P   0.000
P        2.877110000   15.146780000   12.094710000 XXXX 1      xx      P   0.000
P        8.266220000   15.454700000   12.201200000 XXXX 1      xx      P   0.000
P       13.569410000   15.520560000   12.180390000 XXXX 1      xx      P   0.000
P        2.900860000    1.798340000   11.844740000 XXXX 1      xx      P   0.000
P        8.042500000    1.804960000   11.640090000 XXXX 1      xx      P   0.000
P       13.350990000    2.061440000   11.769760000 XXXX 1      xx      P   0.000
P        3.073890000    7.373480000   11.971540000 XXXX 1      xx      P   0.000
P        8.290210000    7.474640000   11.746790000 XXXX 1      xx      P   0.000
P       13.449090000    7.485760000   11.674950000 XXXX 1      xx      P   0.000
P        3.087680000   12.959780000   11.754700000 XXXX 1      xx      P   0.000
P        8.349770000   13.210750000   11.823160000 XXXX 1      xx      P   0.000
P       13.616960000   13.331500000   11.813950000 XXXX 1      xx      P   0.000
P        0.281450000    1.794860000    9.496560000 XXXX 1      xx      P   0.000
P        5.462990000    1.792330000    9.621650000 XXXX 1      xx      P   0.000
P       10.722600000    1.734980000    9.586810000 XXXX 1      xx      P   0.000
P        0.384310000    7.178290000    9.548840000 XXXX 1      xx      P   0.000
P        5.549880000    7.535410000    9.383450000 XXXX 1      xx      P   0.000
P       10.740130000    7.558850000    9.462110000 XXXX 1      xx      P   0.000
P        0.498300000   12.936640000    9.586980000 XXXX 1      xx      P   0.000
P        5.748390000   13.129430000    9.432520000 XXXX 1      xx      P   0.000
P       11.023040000   13.106050000    9.406760000 XXXX 1      xx      P   0.000
In       2.775340000    4.528530000    9.469160000 XXXX 1      xx      In  0.000
In       8.127890000    4.530650000    9.510460000 XXXX 1      xx      In  0.000
In      13.282360000    4.655780000    9.522940000 XXXX 1      xx      In  0.000
In       2.772350000   10.169010000    9.569030000 XXXX 1      xx      In  0.000
In       8.173080000   10.099880000    9.451750000 XXXX 1      xx      In  0.000
In      13.371090000   10.232330000    9.388280000 XXXX 1      xx      In  0.000
In       3.014320000   15.615840000    9.475810000 XXXX 1      xx      In  0.000
In       8.251830000   15.844260000    9.450420000 XXXX 1      xx      In  0.000
In      13.550360000   16.012110000    9.447050000 XXXX 1      xx      In  0.000
In       0.134520000    4.350130000   11.766930000 XXXX 1      xx      In  0.000
In       5.417080000    4.642550000   11.760120000 XXXX 1      xx      In  0.000
In      10.672990000    4.703980000   11.700330000 XXXX 1      xx      In  0.000
In       0.196040000   10.060840000   11.905410000 XXXX 1      xx      In  0.000
In       5.569860000   10.169280000   11.775650000 XXXX 1      xx      In  0.000
In      10.765660000   10.249550000   11.778650000 XXXX 1      xx      In  0.000
In      16.128910000   16.002130000   11.688910000 XXXX 1      xx      In  0.000
In       5.726960000   15.874690000   11.765260000 XXXX 1      xx      In  0.000
In      10.946040000   15.978610000   11.762520000 XXXX 1      xx      In  0.000
end
end
                                                                          0.0000
!DATE     May 15 21:11:07 2019
PBC   15.845   16.830   21.258   90.000   90.000   87.648
P        5.178740000    1.709420000   11.857900000 XXXX 1      xx      P   0.000
P       10.255080000    1.730630000   11.777660000 XXXX 1      xx      P   0.000
P       15.580730000    1.889030000   11.630630000 XXXX 1      xx      P   0.000
P        5.281150000    7.220240000   11.598560000 XXXX 1      xx      P   0.000
P       10.525680000    7.424090000   11.653450000 XXXX 1      xx      P   0.000
P       15.658470000    7.331390000   11.734650000 XXXX 1      xx      P   0.000
P        5.341910000   12.873560000   11.599100000 XXXX 1      xx      P   0.000
P       10.551180000   12.928040000   11.607930000 XXXX 1      xx      P   0.000
P       15.818950000   13.097070000   11.766120000 XXXX 1      xx      P   0.000
P        0.090630000    3.999080000    9.097230000 XXXX 1      xx      P   0.000
P        5.383140000    3.924310000    9.021740000 XXXX 1      xx      P   0.000
P       10.737960000    3.885170000    9.030770000 XXXX 1      xx      P   0.000
P        0.227010000    9.339140000    9.167910000 XXXX 1      xx      P   0.000
P        5.344280000    9.749470000    9.268040000 XXXX 1      xx      P   0.000
P       10.805230000    9.740780000    9.076480000 XXXX 1      xx      P   0.000
P        0.324200000   15.155990000    9.146070000 XXXX 1      xx      P   0.000
P        5.663400000   15.327950000    9.208910000 XXXX 1      xx      P   0.000
P       10.853830000   15.308370000    9.172510000 XXXX 1      xx      P   0.000
P        2.498430000    1.507720000    9.552600000 XXXX 1      xx      P   0.000
P        7.670060000    1.637380000    9.401990000 XXXX 1      xx      P   0.000
P       12.955490000    1.728050000    9.605610000 XXXX 1      xx      P   0.000
P        2.582560000    7.113910000    9.811800000 XXXX 1      xx      P   0.000
P        7.799370000    7.325010000    9.552010000 XXXX 1      xx      P   0.000
P       13.009890000    7.279940000    9.438210000 XXXX 1      xx      P   0.000
P        2.738440000   12.808770000    9.571870000 XXXX 1      xx      P   0.000
P        7.977970000   12.928700000    9.668110000 XXXX 1      xx      P   0.000
P       13.240620000   12.961280000    9.606920000 XXXX 1      xx      P   0.000
P        2.777950000    3.964440000   11.977150000 XXXX 1      xx      P   0.000
P        8.105010000    3.976900000   12.072650000 XXXX 1      xx      P   0.000
P       13.242350000    4.284050000   12.044270000 XXXX 1      xx      P   0.000
P        2.919560000    9.590430000   12.277120000 XXXX 1      xx      P   0.000
P        8.128060000    9.661780000   12.317670000 XXXX 1      xx      P   0.000
P       13.372530000    9.671180000   12.136660000 XXXX 1      xx      P   0.000
P        2.878570000   15.152600000   12.095150000 XXXX 1      xx      P   0.000
P        8.274410000   15.471730000   12.205070000 XXXX 1      xx      P   0.000
P       13.565180000   15.523140000   12.179780000 XXXX 1      xx      P   0.000
P        2.897570000    1.804610000   11.860340000 XXXX 1      xx      P   0.000
P        8.041970000    1.804650000   11.638660000 XXXX 1      xx      P   0.000
P       13.346550000    2.063530000   11.770960000 XXXX 1      xx      P   0.000
P        3.089320000    7.371730000   11.977140000 XXXX 1      xx      P   0.000
P        8.288650000    7.467620000   11.738390000 XXXX 1      xx      P   0.000
P       13.447290000    7.491930000   11.675160000 XXXX 1      xx      P   0.000
P        3.085980000   12.956260000   11.759570000 XXXX 1      xx      P   0.000
P        8.352010000   13.207810000   11.819980000 XXXX 1      xx      P   0.000
P       13.623910000   13.338520000   11.818230000 XXXX 1      xx      P   0.000
P        0.293610000    1.795270000    9.500760000 XXXX 1      xx      P   0.000
P        5.461990000    1.788110000    9.624770000 XXXX 1      xx      P   0.000
P       10.718580000    1.723130000    9.589470000 XXXX 1      xx      P   0.000
P        0.391970000    7.171970000    9.546990000 XXXX 1      xx      P   0.000
P        5.548660000    7.541640000    9.377670000 XXXX 1      xx      P   0.000
P       10.728870000    7.558970000    9.459490000 XXXX 1      xx      P   0.000
P        0.495790000   12.930800000    9.596190000 XXXX 1      xx      P   0.000
P        5.748720000   13.137420000    9.429680000 XXXX 1      xx      P   0.000
P       11.028250000   13.111920000    9.399770000 XXXX 1      xx      P   0.000
In       2.775780000    4.529930000    9.465930000 XXXX 1      xx      In  0.000
In       8.132220000    4.525930000    9.510340000 XXXX 1      xx      In  0.000
In      13.279090000    4.651590000    9.522520000 XXXX 1      xx      In  0.000
In       2.762930000   10.172970000    9.576010000 XXXX 1      xx      In  0.000
In       8.173350000   10.093550000    9.450420000 XXXX 1      xx      In  0.000
In      13.368390000   10.225410000    9.383490000 XXXX 1      xx      In  0.000
In       3.016100000   15.610990000    9.475010000 XXXX 1      xx      In  0.000
In       8.251670000   15.845040000    9.448380000 XXXX 1      xx      In  0.000
In      13.549900000   16.014190000    9.444840000 XXXX 1      xx      In  0.000
In       0.134540000    4.343820000   11.766650000 XXXX 1      xx      In  0.000
In       5.418560000    4.646990000   11.757880000 XXXX 1      xx      In  0.000
In      10.671340000    4.707430000   11.694670000 XXXX 1      xx      In  0.000
In       0.192390000   10.061550000   11.913360000 XXXX 1      xx      In  0.000
In       5.572990000   10.171330000   11.778450000 XXXX 1      xx      In  0.000
In      10.762860000   10.248750000   11.778990000 XXXX 1      xx      In  0.000
In      16.125460000   16.003460000   11.684460000 XXXX 1      xx      In  0.000
In       5.731580000   15.882310000   11.766580000 XXXX 1      xx      In  0.000
In      10.948450000   15.984600000   11.762200000 XXXX 1      xx      In  0.000
end
end
                                                                          0.0000
!DATE     May 15 21:11:07 2019
PBC   15.845   16.830   21.258   90.000   90.000   87.648
P        5.193290000    1.710980000   11.870880000 XXXX 1      xx      P   0.000
P       10.256070000    1.724110000   11.787420000 XXXX 1      xx      P   0.000
P       15.581610000    1.892140000   11.622860000 XXXX 1      xx      P   0.000
P        5.278370000    7.230470000   11.595500000 XXXX 1      xx      P   0.000
P       10.527330000    7.419390000   11.651740000 XXXX 1      xx      P   0.000
P       15.651380000    7.328720000   11.741900000 XXXX 1      xx      P   0.000
P        5.353030000   12.873870000   11.595900000 XXXX 1      xx      P   0.000
P       10.551330000   12.931410000   11.605910000 XXXX 1      xx      P   0.000
P       15.816660000   13.096380000   11.767750000 XXXX 1      xx      P   0.000
P        0.089950000    4.004470000    9.095270000 XXXX 1      xx      P   0.000
P        5.385930000    3.924860000    9.019160000 XXXX 1      xx      P   0.000
P       10.732200000    3.875800000    9.022510000 XXXX 1      xx      P   0.000
P        0.223650000    9.330080000    9.176840000 XXXX 1      xx      P   0.000
P        5.344620000    9.753490000    9.265140000 XXXX 1      xx      P   0.000
P       10.797630000    9.743740000    9.070710000 XXXX 1      xx      P   0.000
P        0.324180000   15.163510000    9.139740000 XXXX 1      xx      P   0.000
P        5.658870000   15.333440000    9.206090000 XXXX 1      xx      P   0.000
P       10.858200000   15.297910000    9.174710000 XXXX 1      xx      P   0.000
P        2.493160000    1.505560000    9.540670000 XXXX 1      xx      P   0.000
P        7.666660000    1.637720000    9.386490000 XXXX 1      xx      P   0.000
P       12.957890000    1.731220000    9.608800000 XXXX 1      xx      P   0.000
P        2.585530000    7.117650000    9.832920000 XXXX 1      xx      P   0.000
P        7.799050000    7.324920000    9.558120000 XXXX 1      xx      P   0.000
P       13.016940000    7.271780000    9.426420000 XXXX 1      xx      P   0.000
P        2.743440000   12.807070000    9.567980000 XXXX 1      xx      P   0.000
P        7.988050000   12.923480000    9.679200000 XXXX 1      xx      P   0.000
P       13.240220000   12.962330000    9.609240000 XXXX 1      xx      P   0.000
P        2.777860000    3.961760000   11.978790000 XXXX 1      xx      P   0.000
P        8.094850000    3.972560000   12.073860000 XXXX 1      xx      P   0.000
P       13.240600000    4.286810000   12.050750000 XXXX 1      xx      P   0.000
P        2.920250000    9.592340000   12.283650000 XXXX 1      xx      P   0.000
P        8.129320000    9.667740000   12.325120000 XXXX 1      xx      P   0.000
P       13.370520000    9.651270000   12.129440000 XXXX 1      xx      P   0.000
P        2.880660000   15.158790000   12.095780000 XXXX 1      xx      P   0.000
P        8.283320000   15.488580000   12.208670000 XXXX 1      xx      P   0.000
P       13.560350000   15.525530000   12.178850000 XXXX 1      xx      P   0.000
P        2.894420000    1.810670000   11.875640000 XXXX 1      xx      P   0.000
P        8.041700000    1.804450000   11.636880000 XXXX 1      xx      P   0.000
P       13.342160000    2.065640000   11.772300000 XXXX 1      xx      P   0.000
P        3.105180000    7.370210000   11.982800000 XXXX 1      xx      P   0.000
P        8.286590000    7.460920000   11.729990000 XXXX 1      xx      P   0.000
P       13.445360000    7.498670000   11.675090000 XXXX 1      xx      P   0.000
P        3.084600000   12.952930000   11.764620000 XXXX 1      xx      P   0.000
P        8.354480000   13.205140000   11.816980000 XXXX 1      xx      P   0.000
P       13.631000000   13.345380000   11.822490000 XXXX 1      xx      P   0.000
P        0.306060000    1.795660000    9.504700000 XXXX 1      xx      P   0.000
P        5.460700000    1.783990000    9.627880000 XXXX 1      xx      P   0.000
P       10.714470000    1.711490000    9.592190000 XXXX 1      xx      P   0.000
P        0.399630000    7.165550000    9.545670000 XXXX 1      xx      P   0.000
P        5.547490000    7.547980000    9.372110000 XXXX 1      xx      P   0.000
P       10.718310000    7.559040000    9.456540000 XXXX 1      xx      P   0.000
P        0.492740000   12.925150000    9.605170000 XXXX 1      xx      P   0.000
P        5.749370000   13.145550000    9.426960000 XXXX 1      xx      P   0.000
P       11.033570000   13.118170000    9.393030000 XXXX 1      xx      P   0.000
In       2.776340000    4.531290000    9.462390000 XXXX 1      xx      In  0.000
In       8.136670000    4.521080000    9.510020000 XXXX 1      xx      In  0.000
In      13.275740000    4.647250000    9.521810000 XXXX 1      xx      In  0.000
In       2.753040000   10.176970000    9.583370000 XXXX 1      xx      In  0.000
In       8.173570000   10.087140000    9.449160000 XXXX 1      xx      In  0.000
In      13.365820000   10.218240000    9.378690000 XXXX 1      xx      In  0.000
In       3.017960000   15.606140000    9.474160000 XXXX 1      xx      In  0.000
In       8.251660000   15.845770000    9.446290000 XXXX 1      xx      In  0.000
In      13.549410000   16.016050000    9.442550000 XXXX 1      xx      In  0.000
In       0.134600000    4.337230000   11.766390000 XXXX 1      xx      In  0.000
In       5.420230000    4.651430000   11.755430000 XXXX 1      xx      In  0.000
In      10.669630000    4.711030000   11.688720000 XXXX 1      xx      In  0.000
In      16.029380000   10.411600000   11.921520000 XXXX 1      xx      In  0.000
In       5.576280000   10.173620000   11.781600000 XXXX 1      xx      In  0.000
In      10.759950000   10.248050000   11.779320000 XXXX 1      xx      In  0.000
In      16.122000000   16.004960000   11.679990000 XXXX 1      xx      In  0.000
In       5.736250000   15.890220000   11.768140000 XXXX 1      xx      In  0.000
In      10.950950000   15.990690000   11.761920000 XXXX 1      xx      In  0.000
end
end
                                                                          0.0000
!DATE     May 15 21:11:07 2019
PBC   15.845   16.830   21.258   90.000   90.000   87.648
P        5.207690000    1.712410000   11.884110000 XXXX 1      xx      P   0.000
P       10.257610000    1.717370000   11.797470000 XXXX 1      xx      P   0.000
P       15.582540000    1.895250000   11.615130000 XXXX 1      xx      P   0.000
P        5.275340000    7.241630000   11.592330000 XXXX 1      xx      P   0.000
P       10.528420000    7.413710000   11.649880000 XXXX 1      xx      P   0.000
P       15.644340000    7.326240000   11.749080000 XXXX 1      xx      P   0.000
P        5.364140000   12.874220000   11.593050000 XXXX 1      xx      P   0.000
P       10.551700000   12.934990000   11.603720000 XXXX 1      xx      P   0.000
P       15.814680000   13.095530000   11.769670000 XXXX 1      xx      P   0.000
P        0.089470000    4.009420000    9.093320000 XXXX 1      xx      P   0.000
P        5.388970000    3.925630000    9.016940000 XXXX 1      xx      P   0.000
P       10.725410000    3.866380000    9.013860000 XXXX 1      xx      P   0.000
P        0.219850000    9.321310000    9.186430000 XXXX 1      xx      P   0.000
P        5.345750000    9.757300000    9.261160000 XXXX 1      xx      P   0.000
P       10.789110000    9.746680000    9.064680000 XXXX 1      xx      P   0.000
P        0.324130000   15.170480000    9.132800000 XXXX 1      xx      P   0.000
P        5.653640000   15.339030000    9.202520000 XXXX 1      xx      P   0.000
P       10.863190000   15.287410000    9.176770000 XXXX 1      xx      P   0.000
P        2.487730000    1.503390000    9.529310000 XXXX 1      xx      P   0.000
P        7.663310000    1.638250000    9.370950000 XXXX 1      xx      P   0.000
P       12.960250000    1.735190000    9.612040000 XXXX 1      xx      P   0.000
P        2.588730000    7.121870000    9.854420000 XXXX 1      xx      P   0.000
P        7.798660000    7.324460000    9.564270000 XXXX 1      xx      P   0.000
P       13.023900000    7.263760000    9.414610000 XXXX 1      xx      P   0.000
P        2.747890000   12.805060000    9.564320000 XXXX 1      xx      P   0.000
P        7.998090000   12.917730000    9.690040000 XXXX 1      xx      P   0.000
P       13.239830000   12.963530000    9.611730000 XXXX 1      xx      P   0.000
P        2.777700000    3.959330000   11.981560000 XXXX 1      xx      P   0.000
P        8.083590000    3.968500000   12.075710000 XXXX 1      xx      P   0.000
P       13.238850000    4.289150000   12.058460000 XXXX 1      xx      P   0.000
P        2.920700000    9.594160000   12.290060000 XXXX 1      xx      P   0.000
P        8.130810000    9.673250000   12.332060000 XXXX 1      xx      P   0.000
P       13.368370000    9.630900000   12.121570000 XXXX 1      xx      P   0.000
P        2.883390000   15.165220000   12.096560000 XXXX 1      xx      P   0.000
P        8.292860000   15.504980000   12.211940000 XXXX 1      xx      P   0.000
P       13.555000000   15.527780000   12.177600000 XXXX 1      xx      P   0.000
P        2.891590000    1.816370000   11.890410000 XXXX 1      xx      P   0.000
P        8.041670000    1.804330000   11.634630000 XXXX 1      xx      P   0.000
P       13.337890000    2.067780000   11.773770000 XXXX 1      xx      P   0.000
P        3.121180000    7.369010000   11.988650000 XXXX 1      xx      P   0.000
P        8.284070000    7.454700000   11.721820000 XXXX 1      xx      P   0.000
P       13.443250000    7.505650000   11.674580000 XXXX 1      xx      P   0.000
P        3.083660000   12.949890000   11.769750000 XXXX 1      xx      P   0.000
P        8.357210000   13.202900000   11.814360000 XXXX 1      xx      P   0.000
P       13.638050000   13.351980000   11.826670000 XXXX 1      xx      P   0.000
P        0.318580000    1.796110000    9.508220000 XXXX 1      xx      P   0.000
P        5.459100000    1.780090000    9.631010000 XXXX 1      xx      P   0.000
P       10.710340000    1.700210000    9.595010000 XXXX 1      xx      P   0.000
P        0.407180000    7.159050000    9.545080000 XXXX 1      xx      P   0.000
P        5.546390000    7.554390000    9.366830000 XXXX 1      xx      P   0.000
P       10.708680000    7.559060000    9.453250000 XXXX 1      xx      P   0.000
P        0.489220000   12.919820000    9.613710000 XXXX 1      xx      P   0.000
P        5.750430000   13.153730000    9.424390000 XXXX 1      xx      P   0.000
P       11.038960000   13.124620000    9.386670000 XXXX 1      xx      P   0.000
In       2.777020000    4.532580000    9.458530000 XXXX 1      xx      In  0.000
In       8.141240000    4.516120000    9.509500000 XXXX 1      xx      In  0.000
In      13.272340000    4.642760000    9.520810000 XXXX 1      xx      In  0.000
In       2.742740000   10.180960000    9.591100000 XXXX 1      xx      In  0.000
In       8.173730000   10.080680000    9.447970000 XXXX 1      xx      In  0.000
In      13.363400000   10.210860000    9.373870000 XXXX 1      xx      In  0.000
In       3.019870000   15.601320000    9.473290000 XXXX 1      xx      In  0.000
In       8.251810000   15.846440000    9.444180000 XXXX 1      xx      In  0.000
In      13.548900000   16.017680000    9.440190000 XXXX 1      xx      In  0.000
In       0.134690000    4.330410000   11.766170000 XXXX 1      xx      In  0.000
In       5.422080000    4.655850000   11.752760000 XXXX 1      xx      In  0.000
In      10.667850000    4.714770000   11.682490000 XXXX 1      xx      In  0.000
In      16.025410000   10.412150000   11.929870000 XXXX 1      xx      In  0.000
In       5.579710000   10.176130000   11.785060000 XXXX 1      xx      In  0.000
In      10.756950000   10.247460000   11.779650000 XXXX 1      xx      In  0.000
In      16.118570000   16.006650000   11.675510000 XXXX 1      xx      In  0.000
In       5.740930000   15.898390000   11.769930000 XXXX 1      xx      In  0.000
In      10.953540000   15.996830000   11.761670000 XXXX 1      xx      In  0.000
end
end
                                                                          0.0000
!DATE     May 15 21:11:07 2019
PBC   15.845   16.830   21.258   90.000   90.000   87.648
P        5.221700000    1.713750000   11.897460000 XXXX 1      xx      P   0.000
P       10.259690000    1.710580000   11.807700000 XXXX 1      xx      P   0.000
P       15.583470000    1.898320000   11.607590000 XXXX 1      xx      P   0.000
P        5.272290000    7.253540000   11.589020000 XXXX 1      xx      P   0.000
P       10.528900000    7.407110000   11.647840000 XXXX 1      xx      P   0.000
P       15.637480000    7.323910000   11.756060000 XXXX 1      xx      P   0.000
P        5.375060000   12.874620000   11.590590000 XXXX 1      xx      P   0.000
P       10.552320000   12.938700000   11.601330000 XXXX 1      xx      P   0.000
P       15.813150000   13.094560000   11.771970000 XXXX 1      xx      P   0.000
P        0.089230000    4.013830000    9.091410000 XXXX 1      xx      P   0.000
P        5.392200000    3.926580000    9.015120000 XXXX 1      xx      P   0.000
P       10.717630000    3.856920000    9.004900000 XXXX 1      xx      P   0.000
P        0.215630000    9.312940000    9.196630000 XXXX 1      xx      P   0.000
P        5.347630000    9.760890000    9.256140000 XXXX 1      xx      P   0.000
P       10.779760000    9.749530000    9.058470000 XXXX 1      xx      P   0.000
P        0.324040000   15.176760000    9.125300000 XXXX 1      xx      P   0.000
P        5.647790000   15.344710000    9.198210000 XXXX 1      xx      P   0.000
P       10.868750000   15.277180000    9.178650000 XXXX 1      xx      P   0.000
P        2.482350000    1.501160000    9.518740000 XXXX 1      xx      P   0.000
P        7.660040000    1.638950000    9.355530000 XXXX 1      xx      P   0.000
P       12.962490000    1.739920000    9.615280000 XXXX 1      xx      P   0.000
P        2.592170000    7.126520000    9.876010000 XXXX 1      xx      P   0.000
P        7.798170000    7.323610000    9.570280000 XXXX 1      xx      P   0.000
P       13.030600000    7.255980000    9.402920000 XXXX 1      xx      P   0.000
P        2.751660000   12.802790000    9.561040000 XXXX 1      xx      P   0.000
P        8.007930000   12.911510000    9.700350000 XXXX 1      xx      P   0.000
P       13.239490000   12.964840000    9.614370000 XXXX 1      xx      P   0.000
P        2.777460000    3.957270000   11.985430000 XXXX 1      xx      P   0.000
P        8.071420000    3.964790000   12.078220000 XXXX 1      xx      P   0.000
P       13.237070000    4.291030000   12.067330000 XXXX 1      xx      P   0.000
P        2.920930000    9.595860000   12.296310000 XXXX 1      xx      P   0.000
P        8.132530000    9.678120000   12.338400000 XXXX 1      xx      P   0.000
P       13.366090000    9.610540000   12.113150000 XXXX 1      xx      P   0.000
P        2.886720000   15.171780000   12.097480000 XXXX 1      xx      P   0.000
P        8.302920000   15.520730000   12.214790000 XXXX 1      xx      P   0.000
P       13.549220000   15.529910000   12.176020000 XXXX 1      xx      P   0.000
P        2.889240000    1.821530000   11.904440000 XXXX 1      xx      P   0.000
P        8.041900000    1.804240000   11.631780000 XXXX 1      xx      P   0.000
P       13.333820000    2.069950000   11.775400000 XXXX 1      xx      P   0.000
P        3.137050000    7.368240000   11.994820000 XXXX 1      xx      P   0.000
P        8.281130000    7.449100000   11.714160000 XXXX 1      xx      P   0.000
P       13.440950000    7.512490000   11.673460000 XXXX 1      xx      P   0.000
P        3.083280000   12.947250000   11.774830000 XXXX 1      xx      P   0.000
P        8.360220000   13.201260000   11.812350000 XXXX 1      xx      P   0.000
P       13.644880000   13.358210000   11.830700000 XXXX 1      xx      P   0.000
P        0.330910000    1.796730000    9.511130000 XXXX 1      xx      P   0.000
P        5.457190000    1.776490000    9.634240000 XXXX 1      xx      P   0.000
P       10.706260000    1.689450000    9.597960000 XXXX 1      xx      P   0.000
P        0.414510000    7.152480000    9.545370000 XXXX 1      xx      P   0.000
P        5.545360000    7.560810000    9.361900000 XXXX 1      xx      P   0.000
P       10.700220000    7.559030000    9.449600000 XXXX 1      xx      P   0.000
P        0.485310000   12.914960000    9.621620000 XXXX 1      xx      P   0.000
P        5.752000000   13.161840000    9.422010000 XXXX 1      xx      P   0.000
P       11.044350000   13.131030000    9.380820000 XXXX 1      xx      P   0.000
In       2.777820000    4.533820000    9.454390000 XXXX 1      xx      In  0.000
In       8.145880000    4.511090000    9.508760000 XXXX 1      xx      In  0.000
In      13.268890000    4.638130000    9.519540000 XXXX 1      xx      In  0.000
In       2.732090000   10.184920000    9.599160000 XXXX 1      xx      In  0.000
In       8.173810000   10.074210000    9.446880000 XXXX 1      xx      In  0.000
In      13.361130000   10.203310000    9.369070000 XXXX 1      xx      In  0.000
In       3.021830000   15.596560000    9.472390000 XXXX 1      xx      In  0.000
In       8.252130000   15.847020000    9.442050000 XXXX 1      xx      In  0.000
In      13.548350000   16.019060000    9.437760000 XXXX 1      xx      In  0.000
In       0.134810000    4.323400000   11.765990000 XXXX 1      xx      In  0.000
In       5.424090000    4.660240000   11.749860000 XXXX 1      xx      In  0.000
In      10.666000000    4.718600000   11.676020000 XXXX 1      xx      In  0.000
In      16.021300000   10.412580000   11.938360000 XXXX 1      xx      In  0.000
In       5.583260000   10.178860000   11.788820000 XXXX 1      xx      In  0.000
In      10.753890000   10.246990000   11.779960000 XXXX 1      xx      In  0.000
In      16.115190000   16.008520000   11.671050000 XXXX 1      xx      In  0.000
In       5.745630000   15.906770000   11.771930000 XXXX 1      xx      In  0.000
In      10.956180000   16.002970000   11.761450000 XXXX 1      xx      In  0.000
end
end
                                                                          0.0000
!DATE     May 15 21:11:07 2019
PBC   15.845   16.830   21.258   90.000   90.000   87.648
P        5.235100000    1.715030000   11.910790000 XXXX 1      xx      P   0.000
P       10.262260000    1.703920000   11.817980000 XXXX 1      xx      P   0.000
P       15.584350000    1.901290000   11.600390000 XXXX 1      xx      P   0.000
P        5.269440000    7.266060000   11.585570000 XXXX 1      xx      P   0.000
P       10.528700000    7.399660000   11.645600000 XXXX 1      xx      P   0.000
P       15.630920000    7.321720000   11.762750000 XXXX 1      xx      P   0.000
P        5.385620000   12.875130000   11.588590000 XXXX 1      xx      P   0.000
P       10.553240000   12.942480000   11.598720000 XXXX 1      xx      P   0.000
P       15.812140000   13.093510000   11.774730000 XXXX 1      xx      P   0.000
P        0.089270000    4.017600000    9.089530000 XXXX 1      xx      P   0.000
P        5.395590000    3.927650000    9.013730000 XXXX 1      xx      P   0.000
P       10.708940000    3.847430000    8.995680000 XXXX 1      xx      P   0.000
P        0.211020000    9.305070000    9.207380000 XXXX 1      xx      P   0.000
P        5.350230000    9.764290000    9.250150000 XXXX 1      xx      P   0.000
P       10.769720000    9.752210000    9.052140000 XXXX 1      xx      P   0.000
P        0.323940000   15.182190000    9.117340000 XXXX 1      xx      P   0.000
P        5.641410000   15.350450000    9.193230000 XXXX 1      xx      P   0.000
P       10.874840000   15.267540000    9.180320000 XXXX 1      xx      P   0.000
P        2.477250000    1.498860000    9.509140000 XXXX 1      xx      P   0.000
P        7.656910000    1.639820000    9.340410000 XXXX 1      xx      P   0.000
P       12.964520000    1.745390000    9.618460000 XXXX 1      xx      P   0.000
P        2.595830000    7.131510000    9.897390000 XXXX 1      xx      P   0.000
P        7.797560000    7.322340000    9.575940000 XXXX 1      xx      P   0.000
P       13.036840000    7.248570000    9.391470000 XXXX 1      xx      P   0.000
P        2.754660000   12.800300000    9.558280000 XXXX 1      xx      P   0.000
P        8.017400000   12.904910000    9.709860000 XXXX 1      xx      P   0.000
P       13.239300000   12.966200000    9.617170000 XXXX 1      xx      P   0.000
P        2.777180000    3.955720000   11.990380000 XXXX 1      xx      P   0.000
P        8.058500000    3.961490000   12.081380000 XXXX 1      xx      P   0.000
P       13.235220000    4.292420000   12.077260000 XXXX 1      xx      P   0.000
P        2.920950000    9.597440000   12.302360000 XXXX 1      xx      P   0.000
P        8.134470000    9.682230000   12.344050000 XXXX 1      xx      P   0.000
P       13.363650000    9.590740000   12.104330000 XXXX 1      xx      P   0.000
P        2.890620000   15.178350000   12.098530000 XXXX 1      xx      P   0.000
P        8.313390000   15.535590000   12.217150000 XXXX 1      xx      P   0.000
P       13.543120000   15.531960000   12.174110000 XXXX 1      xx      P   0.000
P        2.887500000    1.826000000   11.917540000 XXXX 1      xx      P   0.000
P        8.042350000    1.804140000   11.628260000 XXXX 1      xx      P   0.000
P       13.330050000    2.072160000   11.777180000 XXXX 1      xx      P   0.000
P        3.152440000    7.367950000   12.001470000 XXXX 1      xx      P   0.000
P        8.277860000    7.444270000   11.707290000 XXXX 1      xx      P   0.000
P       13.438440000    7.518760000   11.671570000 XXXX 1      xx      P   0.000
P        3.083570000   12.945130000   11.779750000 XXXX 1      xx      P   0.000
P        8.363510000   13.200370000   11.811170000 XXXX 1      xx      P   0.000
P       13.651300000   13.363970000   11.834550000 XXXX 1      xx      P   0.000
P        0.342770000    1.797590000    9.513270000 XXXX 1      xx      P   0.000
P        5.454980000    1.773280000    9.637600000 XXXX 1      xx      P   0.000
P       10.702290000    1.679360000    9.601080000 XXXX 1      xx      P   0.000
P        0.421510000    7.145880000    9.546690000 XXXX 1      xx      P   0.000
P        5.544430000    7.567210000    9.357390000 XXXX 1      xx      P   0.000
P       10.693110000    7.558950000    9.445570000 XXXX 1      xx      P   0.000
P        0.481090000   12.910700000    9.628700000 XXXX 1      xx      P   0.000
P        5.754140000   13.169750000    9.419860000 XXXX 1      xx      P   0.000
P       11.049670000   13.137140000    9.375610000 XXXX 1      xx      P   0.000
In       2.778750000    4.534980000    9.449990000 XXXX 1      xx      In  0.000
In       8.150570000    4.506010000    9.507800000 XXXX 1      xx      In  0.000
In      13.265420000    4.633380000    9.518010000 XXXX 1      xx      In  0.000
In       2.721150000   10.188800000    9.607520000 XXXX 1      xx      In  0.000
In       8.173790000   10.067770000    9.445890000 XXXX 1      xx      In  0.000
In      13.359030000   10.195620000    9.364320000 XXXX 1      xx      In  0.000
In       3.023790000   15.591910000    9.471480000 XXXX 1      xx      In  0.000
In       8.252620000   15.847520000    9.439920000 XXXX 1      xx      In  0.000
In      13.547790000   16.020190000    9.435260000 XXXX 1      xx      In  0.000
In       0.134960000    4.316250000   11.765840000 XXXX 1      xx      In  0.000
In       5.426260000    4.664590000   11.746760000 XXXX 1      xx      In  0.000
In      10.664090000    4.722500000   11.669330000 XXXX 1      xx      In  0.000
In      16.017080000   10.412890000   11.946960000 XXXX 1      xx      In  0.000
In       5.586920000   10.181810000   11.792850000 XXXX 1      xx      In  0.000
In      10.750760000   10.246640000   11.780240000 XXXX 1      xx      In  0.000
In      16.111890000   16.010560000   11.666630000 XXXX 1      xx      In  0.000
In       5.750300000   15.915300000   11.774140000 XXXX 1      xx      In  0.000
In      10.958880000   16.009040000   11.761260000 XXXX 1      xx      In  0.000
end
end
                                                                          0.0000
!DATE     May 15 21:11:07 2019
PBC   15.845   16.830   21.258   90.000   90.000   87.648
P        5.247680000    1.716270000   11.923990000 XXXX 1      xx      P   0.000
P       10.265270000    1.697600000   11.828180000 XXXX 1      xx      P   0.000
P       15.585120000    1.904110000   11.593690000 XXXX 1      xx      P   0.000
P        5.267020000    7.279030000   11.581940000 XXXX 1      xx      P   0.000
P       10.527770000    7.391440000   11.643140000 XXXX 1      xx      P   0.000
P       15.624770000    7.319630000   11.769060000 XXXX 1      xx      P   0.000
P        5.395680000   12.875770000   11.587080000 XXXX 1      xx      P   0.000
P       10.554470000   12.946250000   11.595890000 XXXX 1      xx      P   0.000
P       15.811750000   13.092420000   11.778000000 XXXX 1      xx      P   0.000
P        0.089620000    4.020670000    9.087730000 XXXX 1      xx      P   0.000
P        5.399080000    3.928800000    9.012800000 XXXX 1      xx      P   0.000
P       10.699420000    3.837930000    8.986290000 XXXX 1      xx      P   0.000
P        0.206080000    9.297790000    9.218600000 XXXX 1      xx      P   0.000
P        5.353510000    9.767510000    9.243300000 XXXX 1      xx      P   0.000
P       10.759120000    9.754680000    9.045760000 XXXX 1      xx      P   0.000
P        0.323810000   15.186630000    9.109000000 XXXX 1      xx      P   0.000
P        5.634640000   15.356230000    9.187640000 XXXX 1      xx      P   0.000
P       10.881370000   15.258850000    9.181730000 XXXX 1      xx      P   0.000
P        2.472680000    1.496460000    9.500680000 XXXX 1      xx      P   0.000
P        7.653920000    1.640830000    9.325770000 XXXX 1      xx      P   0.000
P       12.966300000    1.751550000    9.621540000 XXXX 1      xx      P   0.000
P        2.599670000    7.136770000    9.918260000 XXXX 1      xx      P   0.000
P        7.796810000    7.320630000    9.581040000 XXXX 1      xx      P   0.000
P       13.042460000    7.241610000    9.380410000 XXXX 1      xx      P   0.000
P        2.756800000   12.797630000    9.556170000 XXXX 1      xx      P   0.000
P        8.026320000   12.898010000    9.718320000 XXXX 1      xx      P   0.000
P       13.239320000   12.967550000    9.620100000 XXXX 1      xx      P   0.000
P        2.776890000    3.954770000   11.996350000 XXXX 1      xx      P   0.000
P        8.045020000    3.958630000   12.085190000 XXXX 1      xx      P   0.000
P       13.233300000    4.293270000   12.088120000 XXXX 1      xx      P   0.000
P        2.920750000    9.598870000   12.308160000 XXXX 1      xx      P   0.000
P        8.136650000    9.685450000   12.348920000 XXXX 1      xx      P   0.000
P       13.361020000    9.572050000   12.095240000 XXXX 1      xx      P   0.000
P        2.895040000   15.184810000   12.099660000 XXXX 1      xx      P   0.000
P        8.324150000   15.549380000   12.218970000 XXXX 1      xx      P   0.000
P       13.536810000   15.533970000   12.171890000 XXXX 1      xx      P   0.000
P        2.886500000    1.829670000   11.929550000 XXXX 1      xx      P   0.000
P        8.043030000    1.804000000   11.623990000 XXXX 1      xx      P   0.000
P       13.326630000    2.074400000   11.779120000 XXXX 1      xx      P   0.000
P        3.167070000    7.368240000   12.008780000 XXXX 1      xx      P   0.000
P        8.274300000    7.440290000   11.701450000 XXXX 1      xx      P   0.000
P       13.435710000    7.523970000   11.668750000 XXXX 1      xx      P   0.000
P        3.084610000   12.943620000   11.784390000 XXXX 1      xx      P   0.000
P        8.367100000   13.200360000   11.811000000 XXXX 1      xx      P   0.000
P       13.657140000   13.369140000   11.838180000 XXXX 1      xx      P   0.000
P        0.353860000    1.798780000    9.514500000 XXXX 1      xx      P   0.000
P        5.452500000    1.770560000    9.641130000 XXXX 1      xx      P   0.000
P       10.698490000    1.670080000    9.604400000 XXXX 1      xx      P   0.000
P        0.428080000    7.139280000    9.549190000 XXXX 1      xx      P   0.000
P        5.543600000    7.573500000    9.353340000 XXXX 1      xx      P   0.000
P       10.687510000    7.558820000    9.441160000 XXXX 1      xx      P   0.000
P        0.476650000   12.907160000    9.634770000 XXXX 1      xx      P   0.000
P        5.756890000   13.177370000    9.417960000 XXXX 1      xx      P   0.000
P       11.054860000   13.142710000    9.371130000 XXXX 1      xx      P   0.000
In       2.779810000    4.536080000    9.445370000 XXXX 1      xx      In  0.000
In       8.155270000    4.500900000    9.506650000 XXXX 1      xx      In  0.000
In      13.261920000    4.628520000    9.516240000 XXXX 1      xx      In  0.000
In       2.710000000   10.192570000    9.616130000 XXXX 1      xx      In  0.000
In       8.173650000   10.061400000    9.445020000 XXXX 1      xx      In  0.000
In      13.357090000   10.187850000    9.359620000 XXXX 1      xx      In  0.000
In       3.025750000   15.587390000    9.470570000 XXXX 1      xx      In  0.000
In       8.253290000   15.847930000    9.437800000 XXXX 1      xx      In  0.000
In      13.547210000   16.021050000    9.432720000 XXXX 1      xx      In  0.000
In       0.135140000    4.309000000   11.765740000 XXXX 1      xx      In  0.000
In       5.428550000    4.668870000   11.743450000 XXXX 1      xx      In  0.000
In      10.662120000    4.726430000   11.662460000 XXXX 1      xx      In  0.000
In      16.012750000   10.413060000   11.955610000 XXXX 1      xx      In  0.000
In       5.590670000   10.184960000   11.797100000 XXXX 1      xx      In  0.000
In      10.747600000   10.246420000   11.780500000 XXXX 1      xx      In  0.000
In      16.108700000   16.012760000   11.662280000 XXXX 1      xx      In  0.000
In       5.754950000   15.923930000   11.776550000 XXXX 1      xx      In  0.000
In      10.961610000   16.014990000   11.761090000 XXXX 1      xx      In  0.000
end
end
                                                                          0.0000
!DATE     May 15 21:11:07 2019
PBC   15.845   16.830   21.258   90.000   90.000   87.648
P        5.259290000    1.717520000   11.936930000 XXXX 1      xx      P   0.000
P       10.268690000    1.691800000   11.838200000 XXXX 1      xx      P   0.000
P       15.585760000    1.906750000   11.587600000 XXXX 1      xx      P   0.000
P        5.265300000    7.292280000   11.578110000 XXXX 1      xx      P   0.000
P       10.526080000    7.382580000   11.640430000 XXXX 1      xx      P   0.000
P       15.619130000    7.317590000   11.774920000 XXXX 1      xx      P   0.000
P        5.405090000   12.876580000   11.586060000 XXXX 1      xx      P   0.000
P       10.556070000   12.949950000   11.592840000 XXXX 1      xx      P   0.000
P       15.812050000   13.091350000   11.781830000 XXXX 1      xx      P   0.000
P        0.090320000    4.022980000    9.086010000 XXXX 1      xx      P   0.000
P        5.402650000    3.929970000    9.012350000 XXXX 1      xx      P   0.000
P       10.689160000    3.828440000    8.976770000 XXXX 1      xx      P   0.000
P        0.200830000    9.291190000    9.230220000 XXXX 1      xx      P   0.000
P        5.357420000    9.770600000    9.235690000 XXXX 1      xx      P   0.000
P       10.748130000    9.756880000    9.039390000 XXXX 1      xx      P   0.000
P        0.323660000   15.189970000    9.100420000 XXXX 1      xx      P   0.000
P        5.627610000   15.362010000    9.181540000 XXXX 1      xx      P   0.000
P       10.888260000   15.251400000    9.182880000 XXXX 1      xx      P   0.000
P        2.468850000    1.493930000    9.493480000 XXXX 1      xx      P   0.000
P        7.651090000    1.641970000    9.311720000 XXXX 1      xx      P   0.000
P       12.967740000    1.758320000    9.624490000 XXXX 1      xx      P   0.000
P        2.603660000    7.142200000    9.938310000 XXXX 1      xx      P   0.000
P        7.795900000    7.318490000    9.585390000 XXXX 1      xx      P   0.000
P       13.047320000    7.235210000    9.369850000 XXXX 1      xx      P   0.000
P        2.757990000   12.794840000    9.554820000 XXXX 1      xx      P   0.000
P        8.034580000   12.890920000    9.725520000 XXXX 1      xx      P   0.000
P       13.239600000   12.968820000    9.623180000 XXXX 1      xx      P   0.000
P        2.776620000    3.954510000   12.003250000 XXXX 1      xx      P   0.000
P        8.031220000    3.956230000   12.089630000 XXXX 1      xx      P   0.000
P       13.231270000    4.293580000   12.099780000 XXXX 1      xx      P   0.000
P        2.920360000    9.600150000   12.313710000 XXXX 1      xx      P   0.000
P        8.139050000    9.687670000   12.352980000 XXXX 1      xx      P   0.000
P       13.358190000    9.555070000   12.086040000 XXXX 1      xx      P   0.000
P        2.899930000   15.191050000   12.100830000 XXXX 1      xx      P   0.000
P        8.335040000   15.561910000   12.220210000 XXXX 1      xx      P   0.000
P       13.530410000   15.535950000   12.169350000 XXXX 1      xx      P   0.000
P        2.886330000    1.832460000   11.940340000 XXXX 1      xx      P   0.000
P        8.043920000    1.803790000   11.618930000 XXXX 1      xx      P   0.000
P       13.323640000    2.076660000   11.781220000 XXXX 1      xx      P   0.000
P        3.180610000    7.369160000   12.016890000 XXXX 1      xx      P   0.000
P        8.270530000    7.437270000   11.696880000 XXXX 1      xx      P   0.000
P       13.432760000    7.527640000   11.664860000 XXXX 1      xx      P   0.000
P        3.086470000   12.942810000   11.788670000 XXXX 1      xx      P   0.000
P        8.370990000   13.201350000   11.811990000 XXXX 1      xx      P   0.000
P       13.662230000   13.373650000   11.841520000 XXXX 1      xx      P   0.000
P        0.363940000    1.800370000    9.514730000 XXXX 1      xx      P   0.000
P        5.449780000    1.768400000    9.644870000 XXXX 1      xx      P   0.000
P       10.694920000    1.661730000    9.607950000 XXXX 1      xx      P   0.000
P        0.434110000    7.132720000    9.552970000 XXXX 1      xx      P   0.000
P        5.542870000    7.579630000    9.349810000 XXXX 1      xx      P   0.000
P       10.683550000    7.558630000    9.436380000 XXXX 1      xx      P   0.000
P        0.472090000   12.904400000    9.639700000 XXXX 1      xx      P   0.000
P        5.760290000   13.184590000    9.416340000 XXXX 1      xx      P   0.000
P       11.059870000   13.147440000    9.367470000 XXXX 1      xx      P   0.000
In       2.781000000    4.537100000    9.440570000 XXXX 1      xx      In  0.000
In       8.159940000    4.495800000    9.505290000 XXXX 1      xx      In  0.000
In      13.258420000    4.623580000    9.514270000 XXXX 1      xx      In  0.000
In       2.698700000   10.196200000    9.624940000 XXXX 1      xx      In  0.000
In       8.173380000   10.055130000    9.444280000 XXXX 1      xx      In  0.000
In      13.355320000   10.180030000    9.355010000 XXXX 1      xx      In  0.000
In       3.027680000   15.583030000    9.469660000 XXXX 1      xx      In  0.000
In       8.254140000   15.848220000    9.435700000 XXXX 1      xx      In  0.000
In      13.546620000   16.021640000    9.430120000 XXXX 1      xx      In  0.000
In       0.135340000    4.301710000   11.765690000 XXXX 1      xx      In  0.000
In       5.430950000    4.673080000   11.739960000 XXXX 1      xx      In  0.000
In      10.660090000    4.730340000   11.655430000 XXXX 1      xx      In  0.000
In      16.008350000   10.413080000   11.964270000 XXXX 1      xx      In  0.000
In       5.594490000   10.188300000   11.801520000 XXXX 1      xx      In  0.000
In      10.744420000   10.246340000   11.780720000 XXXX 1      xx      In  0.000
In      16.105650000   16.015120000   11.658010000 XXXX 1      xx      In  0.000
In       5.759530000   15.932600000   11.779120000 XXXX 1      xx      In  0.000
In      10.964360000   16.020740000   11.760950000 XXXX 1      xx      In  0.000
end
end
                                                                          0.0000
!DATE     May 15 21:11:07 2019
PBC   15.845   16.830   21.258   90.000   90.000   87.648
P        5.269750000    1.718820000   11.949530000 XXXX 1      xx      P   0.000
P       10.272420000    1.686740000   11.847920000 XXXX 1      xx      P   0.000
P       15.586220000    1.909170000   11.582230000 XXXX 1      xx      P   0.000
P        5.264500000    7.305640000   11.574100000 XXXX 1      xx      P   0.000
P       10.523610000    7.373190000   11.637450000 XXXX 1      xx      P   0.000
P       15.614110000    7.315580000   11.780280000 XXXX 1      xx      P   0.000
P        5.413720000   12.877590000   11.585550000 XXXX 1      xx      P   0.000
P       10.558040000   12.953510000   11.589600000 XXXX 1      xx      P   0.000
P       15.813080000   13.090350000   11.786230000 XXXX 1      xx      P   0.000
P        0.091380000    4.024510000    9.084390000 XXXX 1      xx      P   0.000
P        5.406240000    3.931130000    9.012370000 XXXX 1      xx      P   0.000
P       10.678280000    3.818990000    8.967190000 XXXX 1      xx      P   0.000
P        0.195310000    9.285300000    9.242170000 XXXX 1      xx      P   0.000
P        5.361900000    9.773580000    9.227400000 XXXX 1      xx      P   0.000
P       10.736900000    9.758730000    9.033090000 XXXX 1      xx      P   0.000
P        0.323470000   15.192140000    9.091680000 XXXX 1      xx      P   0.000
P        5.620480000   15.367740000    9.175010000 XXXX 1      xx      P   0.000
P       10.895420000   15.245470000    9.183730000 XXXX 1      xx      P   0.000
P        2.465990000    1.491270000    9.487630000 XXXX 1      xx      P   0.000
P        7.648430000    1.643230000    9.298370000 XXXX 1      xx      P   0.000
P       12.968790000    1.765630000    9.627270000 XXXX 1      xx      P   0.000
P        2.607740000    7.147710000    9.957260000 XXXX 1      xx      P   0.000
P        7.794820000    7.315900000    9.588810000 XXXX 1      xx      P   0.000
P       13.051290000    7.229430000    9.359870000 XXXX 1      xx      P   0.000
P        2.758180000   12.791990000    9.554320000 XXXX 1      xx      P   0.000
P        8.042030000   12.883710000    9.731310000 XXXX 1      xx      P   0.000
P       13.240220000   12.969970000    9.626360000 XXXX 1      xx      P   0.000
P        2.776410000    3.954980000   12.011010000 XXXX 1      xx      P   0.000
P        8.017270000    3.954290000   12.094660000 XXXX 1      xx      P   0.000
P       13.229120000    4.293370000   12.112090000 XXXX 1      xx      P   0.000
P        2.919780000    9.601310000   12.318970000 XXXX 1      xx      P   0.000
P        8.141680000    9.688840000   12.356150000 XXXX 1      xx      P   0.000
P       13.355120000    9.540320000   12.076860000 XXXX 1      xx      P   0.000
P        2.905230000   15.196980000   12.102040000 XXXX 1      xx      P   0.000
P        8.345900000   15.573050000   12.220840000 XXXX 1      xx      P   0.000
P       13.524050000   15.537950000   12.166520000 XXXX 1      xx      P   0.000
P        2.887070000    1.834300000   11.949810000 XXXX 1      xx      P   0.000
P        8.044990000    1.803510000   11.613060000 XXXX 1      xx      P   0.000
P       13.321110000    2.078940000   11.783490000 XXXX 1      xx      P   0.000
P        3.192790000    7.370750000   12.025930000 XXXX 1      xx      P   0.000
P        8.266630000    7.435260000   11.693750000 XXXX 1      xx      P   0.000
P       13.429610000    7.529320000   11.659780000 XXXX 1      xx      P   0.000
P        3.089220000   12.942770000   11.792510000 XXXX 1      xx      P   0.000
P        8.375190000   13.203410000   11.814250000 XXXX 1      xx      P   0.000
P       13.666450000   13.377410000   11.844570000 XXXX 1      xx      P   0.000
P        0.372750000    1.802410000    9.513890000 XXXX 1      xx      P   0.000
P        5.446880000    1.766860000    9.648870000 XXXX 1      xx      P   0.000
P       10.691650000    1.654420000    9.611740000 XXXX 1      xx      P   0.000
P        0.439550000    7.126240000    9.558100000 XXXX 1      xx      P   0.000
P        5.542260000    7.585540000    9.346810000 XXXX 1      xx      P   0.000
P       10.681300000    7.558360000    9.431230000 XXXX 1      xx      P   0.000
P        0.467470000   12.902510000    9.643390000 XXXX 1      xx      P   0.000
P        5.764350000   13.191310000    9.415040000 XXXX 1      xx      P   0.000
P       11.064650000   13.151140000    9.364700000 XXXX 1      xx      P   0.000
In       2.782310000    4.538050000    9.435610000 XXXX 1      xx      In  0.000
In       8.164560000    4.490740000    9.503740000 XXXX 1      xx      In  0.000
In      13.254920000    4.618570000    9.512110000 XXXX 1      xx      In  0.000
In       2.687320000   10.199650000    9.633920000 XXXX 1      xx      In  0.000
In       8.172950000   10.049000000    9.443660000 XXXX 1      xx      In  0.000
In      13.353720000   10.172230000    9.350500000 XXXX 1      xx      In  0.000
In       3.029550000   15.578860000    9.468760000 XXXX 1      xx      In  0.000
In       8.255170000   15.848410000    9.433630000 XXXX 1      xx      In  0.000
In      13.546020000   16.021960000    9.427490000 XXXX 1      xx      In  0.000
In       0.135570000    4.294420000   11.765680000 XXXX 1      xx      In  0.000
In       5.433440000    4.677210000   11.736280000 XXXX 1      xx      In  0.000
In      10.658010000    4.734190000   11.648290000 XXXX 1      xx      In  0.000
In      16.003890000   10.412940000   11.972900000 XXXX 1      xx      In  0.000
In       5.598350000   10.191810000   11.806100000 XXXX 1      xx      In  0.000
In      10.741240000   10.246400000   11.780890000 XXXX 1      xx      In  0.000
In      16.102750000   16.017610000   11.653840000 XXXX 1      xx      In  0.000
In       5.764050000   15.941260000   11.781840000 XXXX 1      xx      In  0.000
In      10.967110000   16.026250000   11.760830000 XXXX 1      xx      In  0.000
end
end
                                                                          0.0000
!DATE     May 15 21:11:07 2019
PBC   15.845   16.830   21.258   90.000   90.000   87.648
P        5.278960000    1.720210000   11.961680000 XXXX 1      xx      P   0.000
P       10.276400000    1.682600000   11.857250000 XXXX 1      xx      P   0.000
P       15.586470000    1.911310000   11.577630000 XXXX 1      xx      P   0.000
P        5.264800000    7.318970000   11.569890000 XXXX 1      xx      P   0.000
P       10.520350000    7.363430000   11.634190000 XXXX 1      xx      P   0.000
P       15.609730000    7.313570000   11.785070000 XXXX 1      xx      P   0.000
P        5.421460000   12.878850000   11.585550000 XXXX 1      xx      P   0.000
P       10.560400000   12.956860000   11.586210000 XXXX 1      xx      P   0.000
P       15.814890000   13.089450000   11.791190000 XXXX 1      xx      P   0.000
P        0.092830000    4.025230000    9.082890000 XXXX 1      xx      P   0.000
P        5.409830000    3.932240000    9.012890000 XXXX 1      xx      P   0.000
P       10.666890000    3.809590000    8.957610000 XXXX 1      xx      P   0.000
P        0.189560000    9.280170000    9.254400000 XXXX 1      xx      P   0.000
P        5.366880000    9.776520000    9.218580000 XXXX 1      xx      P   0.000
P       10.725610000    9.760190000    9.026910000 XXXX 1      xx      P   0.000
P        0.323250000   15.193070000    9.082900000 XXXX 1      xx      P   0.000
P        5.613400000   15.373410000    9.168120000 XXXX 1      xx      P   0.000
P       10.902790000   15.241330000    9.184270000 XXXX 1      xx      P   0.000
P        2.464260000    1.488450000    9.483180000 XXXX 1      xx      P   0.000
P        7.645930000    1.644610000    9.285830000 XXXX 1      xx      P   0.000
P       12.969400000    1.773390000    9.629830000 XXXX 1      xx      P   0.000
P        2.611870000    7.153210000    9.974870000 XXXX 1      xx      P   0.000
P        7.793540000    7.312870000    9.591200000 XXXX 1      xx      P   0.000
P       13.054290000    7.224340000    9.350570000 XXXX 1      xx      P   0.000
P        2.757350000   12.789140000    9.554720000 XXXX 1      xx      P   0.000
P        8.048600000   12.876500000    9.735600000 XXXX 1      xx      P   0.000
P       13.241220000   12.970940000    9.629640000 XXXX 1      xx      P   0.000
P        2.776300000    3.956200000   12.019510000 XXXX 1      xx      P   0.000
P        8.003400000    3.952810000   12.100250000 XXXX 1      xx      P   0.000
P       13.226830000    4.292670000   12.124900000 XXXX 1      xx      P   0.000
P        2.919020000    9.602360000   12.323970000 XXXX 1      xx      P   0.000
P        8.144520000    9.688900000   12.358430000 XXXX 1      xx      P   0.000
P       13.351790000    9.528260000   12.067830000 XXXX 1      xx      P   0.000
P        2.910890000   15.202510000   12.103230000 XXXX 1      xx      P   0.000
P        8.356620000   15.582690000   12.220810000 XXXX 1      xx      P   0.000
P       13.517850000   15.539990000   12.163410000 XXXX 1      xx      P   0.000
P        2.888770000    1.835190000   11.957880000 XXXX 1      xx      P   0.000
P        8.046250000    1.803150000   11.606390000 XXXX 1      xx      P   0.000
P       13.319100000    2.081220000   11.785910000 XXXX 1      xx      P   0.000
P        3.203410000    7.373050000   12.036020000 XXXX 1      xx      P   0.000
P        8.262650000    7.434280000   11.692210000 XXXX 1      xx      P   0.000
P       13.426260000    7.528610000   11.653440000 XXXX 1      xx      P   0.000
P        3.092860000   12.943560000   11.795840000 XXXX 1      xx      P   0.000
P        8.379700000   13.206580000   11.817810000 XXXX 1      xx      P   0.000
P       13.669700000   13.380370000   11.847290000 XXXX 1      xx      P   0.000
P        0.380100000    1.804940000    9.511930000 XXXX 1      xx      P   0.000
P        5.443850000    1.766000000    9.653120000 XXXX 1      xx      P   0.000
P       10.688710000    1.648240000    9.615780000 XXXX 1      xx      P   0.000
P        0.444340000    7.119910000    9.564660000 XXXX 1      xx      P   0.000
P        5.541760000    7.591180000    9.344360000 XXXX 1      xx      P   0.000
P       10.680810000    7.558010000    9.425730000 XXXX 1      xx      P   0.000
P        0.462890000   12.901500000    9.645770000 XXXX 1      xx      P   0.000
P        5.769070000   13.197470000    9.414080000 XXXX 1      xx      P   0.000
P       11.069170000   13.153600000    9.362870000 XXXX 1      xx      P   0.000
In       2.783730000    4.538930000    9.430530000 XXXX 1      xx      In  0.000
In       8.169100000    4.485730000    9.502010000 XXXX 1      xx      In  0.000
In      13.251430000    4.613500000    9.509790000 XXXX 1      xx      In  0.000
In       2.675930000   10.202890000    9.643040000 XXXX 1      xx      In  0.000
In       8.172350000   10.043020000    9.443190000 XXXX 1      xx      In  0.000
In      13.352280000   10.164450000    9.346100000 XXXX 1      xx      In  0.000
In       3.031340000   15.574900000    9.467890000 XXXX 1      xx      In  0.000
In       8.256370000   15.848470000    9.431590000 XXXX 1      xx      In  0.000
In      13.545430000   16.022020000    9.424830000 XXXX 1      xx      In  0.000
In       0.135810000    4.287170000   11.765730000 XXXX 1      xx      In  0.000
In       5.436000000    4.681260000   11.732440000 XXXX 1      xx      In  0.000
In      10.655890000    4.737950000   11.641050000 XXXX 1      xx      In  0.000
In      15.999390000   10.412630000   11.981470000 XXXX 1      xx      In  0.000
In       5.602240000   10.195480000   11.810770000 XXXX 1      xx      In  0.000
In      10.738060000   10.246600000   11.781010000 XXXX 1      xx      In  0.000
In      16.100040000   16.020230000   11.649790000 XXXX 1      xx      In  0.000
In       5.768480000   15.949870000   11.784690000 XXXX 1      xx      In  0.000
In      10.969850000   16.031460000   11.760730000 XXXX 1      xx      In  0.000
end
end
                                                                          0.0000
!DATE     May 15 21:11:07 2019
PBC   15.845   16.830   21.258   90.000   90.000   87.648
P        5.286830000    1.721720000   11.973300000 XXXX 1      xx      P   0.000
P       10.280540000    1.679560000   11.866090000 XXXX 1      xx      P   0.000
P       15.586490000    1.913140000   11.573840000 XXXX 1      xx      P   0.000
P        5.266350000    7.332110000   11.565510000 XXXX 1      xx      P   0.000
P       10.516290000    7.353440000   11.630630000 XXXX 1      xx      P   0.000
P       15.606040000    7.311510000   11.789280000 XXXX 1      xx      P   0.000
P        5.428250000   12.880370000   11.586030000 XXXX 1      xx      P   0.000
P       10.563160000   12.959960000   11.582720000 XXXX 1      xx      P   0.000
P       15.817470000   13.088710000   11.796710000 XXXX 1      xx      P   0.000
P        0.094650000    4.025160000    9.081500000 XXXX 1      xx      P   0.000
P        5.413360000    3.933260000    9.013910000 XXXX 1      xx      P   0.000
P       10.655130000    3.800260000    8.948070000 XXXX 1      xx      P   0.000
P        0.183630000    9.275810000    9.266860000 XXXX 1      xx      P   0.000
P        5.372300000    9.779430000    9.209340000 XXXX 1      xx      P   0.000
P       10.714410000    9.761240000    9.020890000 XXXX 1      xx      P   0.000
P        0.322980000   15.192730000    9.074140000 XXXX 1      xx      P   0.000
P        5.606480000   15.378970000    9.160950000 XXXX 1      xx      P   0.000
P       10.910290000   15.239140000    9.184470000 XXXX 1      xx      P   0.000
P        2.463810000    1.485450000    9.480190000 XXXX 1      xx      P   0.000
P        7.643560000    1.646060000    9.274150000 XXXX 1      xx      P   0.000
P       12.969510000    1.781500000    9.632150000 XXXX 1      xx      P   0.000
P        2.615990000    7.158610000    9.990960000 XXXX 1      xx      P   0.000
P        7.792070000    7.309370000    9.592470000 XXXX 1      xx      P   0.000
P       13.056250000    7.219990000    9.341970000 XXXX 1      xx      P   0.000
P        2.755470000   12.786340000    9.556050000 XXXX 1      xx      P   0.000
P        8.054210000   12.869360000    9.738360000 XXXX 1      xx      P   0.000
P       13.242650000   12.971660000    9.632990000 XXXX 1      xx      P   0.000
P        2.776340000    3.958160000   12.028670000 XXXX 1      xx      P   0.000
P        7.989780000    3.951750000   12.106330000 XXXX 1      xx      P   0.000
P       13.224400000    4.291480000   12.138070000 XXXX 1      xx      P   0.000
P        2.918090000    9.603330000   12.328690000 XXXX 1      xx      P   0.000
P        8.147560000    9.687820000   12.359770000 XXXX 1      xx      P   0.000
P       13.348180000    9.519230000   12.059050000 XXXX 1      xx      P   0.000
P        2.916850000   15.207570000   12.104380000 XXXX 1      xx      P   0.000
P        8.367100000   15.590750000   12.220120000 XXXX 1      xx      P   0.000
P       13.511940000   15.542080000   12.160030000 XXXX 1      xx      P   0.000
P        2.891450000    1.835120000   11.964520000 XXXX 1      xx      P   0.000
P        8.047690000    1.802710000   11.598920000 XXXX 1      xx      P   0.000
P       13.317620000    2.083480000   11.788480000 XXXX 1      xx      P   0.000
P        3.212290000    7.376080000   12.047240000 XXXX 1      xx      P   0.000
P        8.258640000    7.434340000   11.692340000 XXXX 1      xx      P   0.000
P       13.422750000    7.525220000   11.645780000 XXXX 1      xx      P   0.000
P        3.097420000   12.945210000   11.798620000 XXXX 1      xx      P   0.000
P        8.384510000   13.210900000   11.822660000 XXXX 1      xx      P   0.000
P       13.671920000   13.382500000   11.849690000 XXXX 1      xx      P   0.000
P        0.385820000    1.807970000    9.508840000 XXXX 1      xx      P   0.000
P        5.440750000    1.765850000    9.657640000 XXXX 1      xx      P   0.000
P       10.686140000    1.643240000    9.620090000 XXXX 1      xx      P   0.000
P        0.448440000    7.113800000    9.572660000 XXXX 1      xx      P   0.000
P        5.541380000    7.596520000    9.342440000 XXXX 1      xx      P   0.000
P       10.682070000    7.557560000    9.419900000 XXXX 1      xx      P   0.000
P        0.458400000   12.901400000    9.646830000 XXXX 1      xx      P   0.000
P        5.774450000   13.203010000    9.413470000 XXXX 1      xx      P   0.000
P       11.073400000   13.154690000    9.361990000 XXXX 1      xx      P   0.000
In       2.785280000    4.539740000    9.425380000 XXXX 1      xx      In  0.000
In       8.173520000    4.480790000    9.500130000 XXXX 1      xx      In  0.000
In      13.247970000    4.608370000    9.507350000 XXXX 1      xx      In  0.000
In       2.664580000   10.205890000    9.652250000 XXXX 1      xx      In  0.000
In       8.171570000   10.037230000    9.442860000 XXXX 1      xx      In  0.000
In      13.350980000   10.156760000    9.341830000 XXXX 1      xx      In  0.000
In       3.033020000   15.571170000    9.467050000 XXXX 1      xx      In  0.000
In       8.257750000   15.848410000    9.429600000 XXXX 1      xx      In  0.000
In      13.544840000   16.021830000    9.422140000 XXXX 1      xx      In  0.000
In       0.136060000    4.280000000   11.765830000 XXXX 1      xx      In  0.000
In       5.438590000    4.685230000   11.728430000 XXXX 1      xx      In  0.000
In      10.653720000    4.741580000   11.633750000 XXXX 1      xx      In  0.000
In      15.994860000   10.412150000   11.989960000 XXXX 1      xx      In  0.000
In       5.606140000   10.199310000   11.815520000 XXXX 1      xx      In  0.000
In      10.734920000   10.246930000   11.781070000 XXXX 1      xx      In  0.000
In      16.097520000   16.022970000   11.645860000 XXXX 1      xx      In  0.000
In       5.772820000   15.958370000   11.787650000 XXXX 1      xx      In  0.000
In      10.972560000   16.036330000   11.760650000 XXXX 1      xx      In  0.000
end
end
                                                                          0.0000
!DATE     May 15 21:11:07 2019
PBC   15.845   16.830   21.258   90.000   90.000   87.648
P        5.293300000    1.723370000   11.984300000 XXXX 1      xx      P   0.000
P       10.284760000    1.677760000   11.874390000 XXXX 1      xx      P   0.000
P       15.586260000    1.914640000   11.570890000 XXXX 1      xx      P   0.000
P        5.269240000    7.344950000   11.561000000 XXXX 1      xx      P   0.000
P       10.511460000    7.343380000   11.626770000 XXXX 1      xx      P   0.000
P       15.603070000    7.309380000   11.792890000 XXXX 1      xx      P   0.000
P        5.434060000   12.882190000   11.586980000 XXXX 1      xx      P   0.000
P       10.566330000   12.962770000   11.579180000 XXXX 1      xx      P   0.000
P       15.820830000   13.088170000   11.802710000 XXXX 1      xx      P   0.000
P        0.096860000    4.024320000    9.080240000 XXXX 1      xx      P   0.000
P        5.416810000    3.934160000    9.015420000 XXXX 1      xx      P   0.000
P       10.643120000    3.790990000    8.938620000 XXXX 1      xx      P   0.000
P        0.177550000    9.272200000    9.279480000 XXXX 1      xx      P   0.000
P        5.378100000    9.782350000    9.199790000 XXXX 1      xx      P   0.000
P       10.703470000    9.761850000    9.015080000 XXXX 1      xx      P   0.000
P        0.322680000   15.191110000    9.065490000 XXXX 1      xx      P   0.000
P        5.599880000   15.384380000    9.153580000 XXXX 1      xx      P   0.000
P       10.917830000   15.239000000    9.184340000 XXXX 1      xx      P   0.000
P        2.464720000    1.482290000    9.478670000 XXXX 1      xx      P   0.000
P        7.641300000    1.647570000    9.263400000 XXXX 1      xx      P   0.000
P       12.969120000    1.789870000    9.634220000 XXXX 1      xx      P   0.000
P        2.620070000    7.163880000   10.005380000 XXXX 1      xx      P   0.000
P        7.790410000    7.305410000    9.592580000 XXXX 1      xx      P   0.000
P       13.057130000    7.216400000    9.334140000 XXXX 1      xx      P   0.000
P        2.752540000   12.783640000    9.558350000 XXXX 1      xx      P   0.000
P        8.058810000   12.862390000    9.739610000 XXXX 1      xx      P   0.000
P       13.244530000   12.972100000    9.636400000 XXXX 1      xx      P   0.000
P        2.776550000    3.960790000   12.038380000 XXXX 1      xx      P   0.000
P        7.976590000    3.951070000   12.112870000 XXXX 1      xx      P   0.000
P       13.221810000    4.289870000   12.151470000 XXXX 1      xx      P   0.000
P        2.917000000    9.604260000   12.333140000 XXXX 1      xx      P   0.000
P        8.150800000    9.685600000   12.360180000 XXXX 1      xx      P   0.000
P       13.344260000    9.513430000   12.050590000 XXXX 1      xx      P   0.000
P        2.923050000   15.212140000   12.105450000 XXXX 1      xx      P   0.000
P        8.377220000   15.597160000   12.218750000 XXXX 1      xx      P   0.000
P       13.506410000   15.544220000   12.156390000 XXXX 1      xx      P   0.000
P        2.895140000    1.834150000   11.969700000 XXXX 1      xx      P   0.000
P        8.049300000    1.802230000   11.590690000 XXXX 1      xx      P   0.000
P       13.316680000    2.085700000   11.791190000 XXXX 1      xx      P   0.000
P        3.219330000    7.379830000   12.059600000 XXXX 1      xx      P   0.000
P        8.254650000    7.435420000   11.694160000 XXXX 1      xx      P   0.000
P       13.419090000    7.519000000   11.636790000 XXXX 1      xx      P   0.000
P        3.102870000   12.947760000   11.800830000 XXXX 1      xx      P   0.000
P        8.389630000   13.216390000   11.828710000 XXXX 1      xx      P   0.000
P       13.673080000   13.383760000   11.851760000 XXXX 1      xx      P   0.000
P        0.389800000    1.811480000    9.504650000 XXXX 1      xx      P   0.000
P        5.437650000    1.766440000    9.662440000 XXXX 1      xx      P   0.000
P       10.683980000    1.639460000    9.624680000 XXXX 1      xx      P   0.000
P        0.451850000    7.107960000    9.582090000 XXXX 1      xx      P   0.000
P        5.541120000    7.601500000    9.341060000 XXXX 1      xx      P   0.000
P       10.685040000    7.557010000    9.413740000 XXXX 1      xx      P   0.000
P        0.454060000   12.902200000    9.646580000 XXXX 1      xx      P   0.000
P        5.780470000   13.207910000    9.413230000 XXXX 1      xx      P   0.000
P       11.077300000   13.154350000    9.362060000 XXXX 1      xx      P   0.000
In       2.786940000    4.540490000    9.420180000 XXXX 1      xx      In  0.000
In       8.177790000    4.475950000    9.498110000 XXXX 1      xx      In  0.000
In      13.244540000    4.603220000    9.504800000 XXXX 1      xx      In  0.000
In       2.653310000   10.208650000    9.661540000 XXXX 1      xx      In  0.000
In       8.170580000   10.031630000    9.442680000 XXXX 1      xx      In  0.000
In      13.349830000   10.149160000    9.337690000 XXXX 1      xx      In  0.000
In       3.034590000   15.567660000    9.466250000 XXXX 1      xx      In  0.000
In       8.259300000   15.848230000    9.427650000 XXXX 1      xx      In  0.000
In      13.544260000   16.021400000    9.419420000 XXXX 1      xx      In  0.000
In       0.136330000    4.272950000   11.765990000 XXXX 1      xx      In  0.000
In       5.441210000    4.689120000   11.724270000 XXXX 1      xx      In  0.000
In      10.651520000    4.745040000   11.626410000 XXXX 1      xx      In  0.000
In      15.990310000   10.411480000   11.998340000 XXXX 1      xx      In  0.000
In       5.610050000   10.203270000   11.820300000 XXXX 1      xx      In  0.000
In      10.731800000   10.247410000   11.781070000 XXXX 1      xx      In  0.000
In      16.095200000   16.025810000   11.642060000 XXXX 1      xx      In  0.000
In       5.777050000   15.966740000   11.790700000 XXXX 1      xx      In  0.000
In      10.975240000   16.040830000   11.760570000 XXXX 1      xx      In  0.000
end
end
                                                                          0.0000
!DATE     May 15 21:11:07 2019
PBC   15.845   16.830   21.258   90.000   90.000   87.648
P        5.298330000    1.725200000   11.994650000 XXXX 1      xx      P   0.000
P       10.289000000    1.677340000   11.882090000 XXXX 1      xx      P   0.000
P       15.585780000    1.915800000   11.568750000 XXXX 1      xx      P   0.000
P        5.273480000    7.357370000   11.556380000 XXXX 1      xx      P   0.000
P       10.505880000    7.333390000   11.622600000 XXXX 1      xx      P   0.000
P       15.600810000    7.307140000   11.795930000 XXXX 1      xx      P   0.000
P        5.438850000   12.884340000   11.588360000 XXXX 1      xx      P   0.000
P       10.569910000   12.965270000   11.575640000 XXXX 1      xx      P   0.000
P       15.824920000   13.087860000   11.809110000 XXXX 1      xx      P   0.000
P        0.099450000    4.022760000    9.079100000 XXXX 1      xx      P   0.000
P        5.420150000    3.934940000    9.017420000 XXXX 1      xx      P   0.000
P       10.631000000    3.781820000    8.929280000 XXXX 1      xx      P   0.000
P       16.012150000    9.618740000    9.292220000 XXXX 1      xx      P   0.000
P        5.384240000    9.785330000    9.190010000 XXXX 1      xx      P   0.000
P       10.692940000    9.762000000    9.009520000 XXXX 1      xx      P   0.000
P        0.322350000   15.188220000    9.057020000 XXXX 1      xx      P   0.000
P        5.593730000   15.389610000    9.146080000 XXXX 1      xx      P   0.000
P       10.925360000   15.240950000    9.183860000 XXXX 1      xx      P   0.000
P        2.467040000    1.478970000    9.478640000 XXXX 1      xx      P   0.000
P        7.639130000    1.649090000    9.253590000 XXXX 1      xx      P   0.000
P       12.968190000    1.798420000    9.636020000 XXXX 1      xx      P   0.000
P        2.624070000    7.168970000   10.018070000 XXXX 1      xx      P   0.000
P        7.788570000    7.300990000    9.591560000 XXXX 1      xx      P   0.000
P       13.056910000    7.213600000    9.327080000 XXXX 1      xx      P   0.000
P        2.748570000   12.781110000    9.561590000 XXXX 1      xx      P   0.000
P        8.062380000   12.855680000    9.739460000 XXXX 1      xx      P   0.000
P       13.246890000   12.972210000    9.639830000 XXXX 1      xx      P   0.000
P        2.776970000    3.964050000   12.048580000 XXXX 1      xx      P   0.000
P        7.964020000    3.950710000   12.119780000 XXXX 1      xx      P   0.000
P       13.219040000    4.287850000   12.164970000 XXXX 1      xx      P   0.000
P        2.915760000    9.605190000   12.337340000 XXXX 1      xx      P   0.000
P        8.154250000    9.682260000   12.359660000 XXXX 1      xx      P   0.000
P       13.340030000    9.510880000   12.042480000 XXXX 1      xx      P   0.000
P        2.929450000   15.216170000   12.106420000 XXXX 1      xx      P   0.000
P        8.386880000   15.601870000   12.216720000 XXXX 1      xx      P   0.000
P       13.501370000   15.546390000   12.152510000 XXXX 1      xx      P   0.000
P        2.899810000    1.832350000   11.973410000 XXXX 1      xx      P   0.000
P        8.051060000    1.801730000   11.581760000 XXXX 1      xx      P   0.000
P       13.316310000    2.087860000   11.794020000 XXXX 1      xx      P   0.000
P        3.224500000    7.384260000   12.073100000 XXXX 1      xx      P   0.000
P        8.250700000    7.437490000   11.697640000 XXXX 1      xx      P   0.000
P       13.415320000    7.509980000   11.626520000 XXXX 1      xx      P   0.000
P        3.109210000   12.951220000   11.802450000 XXXX 1      xx      P   0.000
P        8.395030000   13.223030000   11.835850000 XXXX 1      xx      P   0.000
P       13.673180000   13.384130000   11.853540000 XXXX 1      xx      P   0.000
P        0.392010000    1.815450000    9.499410000 XXXX 1      xx      P   0.000
P        5.434600000    1.767790000    9.667510000 XXXX 1      xx      P   0.000
P       10.682240000    1.636920000    9.629560000 XXXX 1      xx      P   0.000
P        0.454550000    7.102460000    9.592940000 XXXX 1      xx      P   0.000
P        5.540980000    7.606110000    9.340170000 XXXX 1      xx      P   0.000
P       10.689670000    7.556350000    9.407280000 XXXX 1      xx      P   0.000
P        0.449920000   12.903870000    9.645090000 XXXX 1      xx      P   0.000
P        5.787080000   13.212120000    9.413370000 XXXX 1      xx      P   0.000
P       11.080850000   13.152590000    9.363060000 XXXX 1      xx      P   0.000
In       2.788700000    4.541160000    9.414950000 XXXX 1      xx      In  0.000
In       8.181890000    4.471220000    9.495960000 XXXX 1      xx      In  0.000
In      13.241150000    4.598040000    9.502170000 XXXX 1      xx      In  0.000
In       2.642160000   10.211130000    9.670880000 XXXX 1      xx      In  0.000
In       8.169360000   10.026240000    9.442640000 XXXX 1      xx      In  0.000
In      13.348810000   10.141700000    9.333700000 XXXX 1      xx      In  0.000
In       3.036030000   15.564400000    9.465500000 XXXX 1      xx      In  0.000
In       8.261010000   15.847920000    9.425750000 XXXX 1      xx      In  0.000
In      13.543700000   16.020730000    9.416690000 XXXX 1      xx      In  0.000
In       0.136590000    4.266030000   11.766200000 XXXX 1      xx      In  0.000
In       5.443820000    4.692950000   11.719970000 XXXX 1      xx      In  0.000
In      10.649290000    4.748300000   11.619050000 XXXX 1      xx      In  0.000
In      15.985760000   10.410630000   12.006590000 XXXX 1      xx      In  0.000
In       5.613930000   10.207350000   11.825080000 XXXX 1      xx      In  0.000
In      10.728730000   10.248020000   11.781010000 XXXX 1      xx      In  0.000
In      16.093110000   16.028750000   11.638390000 XXXX 1      xx      In  0.000
In       5.781170000   15.974940000   11.793830000 XXXX 1      xx      In  0.000
In      10.977880000   16.044920000   11.760500000 XXXX 1      xx      In  0.000
end
end
                                                                          0.0000
!DATE     May 15 21:11:07 2019
PBC   15.845   16.830   21.258   90.000   90.000   87.648
P        5.301890000    1.727240000   12.004300000 XXXX 1      xx      P   0.000
P       10.293180000    1.678360000   11.889130000 XXXX 1      xx      P   0.000
P       15.585060000    1.916590000   11.567400000 XXXX 1      xx      P   0.000
P        5.279040000    7.369270000   11.551710000 XXXX 1      xx      P   0.000
P       10.499580000    7.323610000   11.618120000 XXXX 1      xx      P   0.000
P       15.599260000    7.304750000   11.798390000 XXXX 1      xx      P   0.000
P        5.442640000   12.886840000   11.590130000 XXXX 1      xx      P   0.000
P       10.573910000   12.967420000   11.572160000 XXXX 1      xx      P   0.000
P       15.829660000   13.087840000   11.815850000 XXXX 1      xx      P   0.000
P        0.102400000    4.020510000    9.078090000 XXXX 1      xx      P   0.000
P        5.423340000    3.935570000    9.019880000 XXXX 1      xx      P   0.000
P       10.618920000    3.772790000    8.920080000 XXXX 1      xx      P   0.000
P       16.005890000    9.616570000    9.305050000 XXXX 1      xx      P   0.000
P        5.390660000    9.788390000    9.180120000 XXXX 1      xx      P   0.000
P       10.682980000    9.761670000    9.004230000 XXXX 1      xx      P   0.000
P        0.322000000   15.184070000    9.048820000 XXXX 1      xx      P   0.000
P        5.588140000   15.394600000    9.138540000 XXXX 1      xx      P   0.000
P       10.932820000   15.244910000    9.183040000 XXXX 1      xx      P   0.000
P        2.470740000    1.475510000    9.480100000 XXXX 1      xx      P   0.000
P        7.637030000    1.650620000    9.244770000 XXXX 1      xx      P   0.000
P       12.966740000    1.807030000    9.637560000 XXXX 1      xx      P   0.000
P        2.627950000    7.173830000   10.028970000 XXXX 1      xx      P   0.000
P        7.786560000    7.296110000    9.589450000 XXXX 1      xx      P   0.000
P       13.055600000    7.211580000    9.320800000 XXXX 1      xx      P   0.000
P        2.743620000   12.778810000    9.565760000 XXXX 1      xx      P   0.000
P        8.064900000   12.849340000    9.738050000 XXXX 1      xx      P   0.000
P       13.249740000   12.971950000    9.643260000 XXXX 1      xx      P   0.000
P        2.777630000    3.967810000   12.059140000 XXXX 1      xx      P   0.000
P        7.952220000    3.950600000   12.127030000 XXXX 1      xx      P   0.000
P       13.216060000    4.285480000   12.178470000 XXXX 1      xx      P   0.000
P        2.914380000    9.606160000   12.341300000 XXXX 1      xx      P   0.000
P        8.157880000    9.677850000   12.358210000 XXXX 1      xx      P   0.000
P       13.335480000    9.511430000   12.034740000 XXXX 1      xx      P   0.000
P        2.935970000   15.219650000   12.107250000 XXXX 1      xx      P   0.000
P        8.396000000   15.604880000   12.214020000 XXXX 1      xx      P   0.000
P       13.496900000   15.548570000   12.148410000 XXXX 1      xx      P   0.000
P        2.905450000    1.829820000   11.975640000 XXXX 1      xx      P   0.000
P        8.052950000    1.801260000   11.572190000 XXXX 1      xx      P   0.000
P       13.316480000    2.089940000   11.796950000 XXXX 1      xx      P   0.000
P        3.227830000    7.389350000   12.087660000 XXXX 1      xx      P   0.000
P        8.246810000    7.440470000   11.702690000 XXXX 1      xx      P   0.000
P       13.411480000    7.498310000   11.615060000 XXXX 1      xx      P   0.000
P        3.116390000   12.955580000   11.803490000 XXXX 1      xx      P   0.000
P        8.400680000   13.230780000   11.843890000 XXXX 1      xx      P   0.000
P       13.672260000   13.383640000   11.855030000 XXXX 1      xx      P   0.000
P        0.392450000    1.819800000    9.493190000 XXXX 1      xx      P   0.000
P        5.431660000    1.769900000    9.672860000 XXXX 1      xx      P   0.000
P       10.680930000    1.635640000    9.634710000 XXXX 1      xx      P   0.000
P        0.456570000    7.097340000    9.605160000 XXXX 1      xx      P   0.000
P        5.540960000    7.610300000    9.339740000 XXXX 1      xx      P   0.000
P       10.695870000    7.555560000    9.400560000 XXXX 1      xx      P   0.000
P        0.446010000   12.906380000    9.642430000 XXXX 1      xx      P   0.000
P        5.794250000   13.215630000    9.413890000 XXXX 1      xx      P   0.000
P       11.084040000   13.149500000    9.364950000 XXXX 1      xx      P   0.000
In       2.790580000    4.541770000    9.409740000 XXXX 1      xx      In  0.000
In       8.185780000    4.466610000    9.493710000 XXXX 1      xx      In  0.000
In      13.237800000    4.592830000    9.499480000 XXXX 1      xx      In  0.000
In       2.631160000   10.213330000    9.680250000 XXXX 1      xx      In  0.000
In       8.167910000   10.021080000    9.442760000 XXXX 1      xx      In  0.000
In      13.347910000   10.134380000    9.329860000 XXXX 1      xx      In  0.000
In       3.037310000   15.561400000    9.464800000 XXXX 1      xx      In  0.000
In       8.262880000   15.847480000    9.423900000 XXXX 1      xx      In  0.000
In      13.543160000   16.019850000    9.413950000 XXXX 1      xx      In  0.000
In       0.136860000    4.259280000   11.766470000 XXXX 1      xx      In  0.000
In       5.446400000    4.696710000   11.715530000 XXXX 1      xx      In  0.000
In      10.647030000    4.751320000   11.611680000 XXXX 1      xx      In  0.000
In      15.981200000   10.409590000   12.014710000 XXXX 1      xx      In  0.000
In       5.617780000   10.211550000   11.829840000 XXXX 1      xx      In  0.000
In      10.725710000   10.248760000   11.780870000 XXXX 1      xx      In  0.000
In      16.091240000   16.031760000   11.634860000 XXXX 1      xx      In  0.000
In       5.785180000   15.982930000   11.797000000 XXXX 1      xx      In  0.000
In      10.980470000   16.048580000   11.760440000 XXXX 1      xx      In  0.000
end
end
                                                                          0.0000
!DATE     May 15 21:11:07 2019
PBC   15.845   16.830   21.258   90.000   90.000   87.648
P        5.303970000    1.729510000   12.013200000 XXXX 1      xx      P   0.000
P       10.297220000    1.680900000   11.895480000 XXXX 1      xx      P   0.000
P       15.584120000    1.917030000   11.566770000 XXXX 1      xx      P   0.000
P        5.285790000    7.380550000   11.547070000 XXXX 1      xx      P   0.000
P       10.492590000    7.314190000   11.613310000 XXXX 1      xx      P   0.000
P       15.598380000    7.302210000   11.800310000 XXXX 1      xx      P   0.000
P        5.445440000   12.889700000   11.592260000 XXXX 1      xx      P   0.000
P       10.578310000   12.969220000   11.568830000 XXXX 1      xx      P   0.000
P       15.834990000   13.088140000   11.822810000 XXXX 1      xx      P   0.000
P        0.105680000    4.017670000    9.077200000 XXXX 1      xx      P   0.000
P        5.426360000    3.936060000    9.022790000 XXXX 1      xx      P   0.000
P       10.607000000    3.763960000    8.911050000 XXXX 1      xx      P   0.000
P       15.999620000    9.615050000    9.317910000 XXXX 1      xx      P   0.000
P        5.397290000    9.791560000    9.170220000 XXXX 1      xx      P   0.000
P       10.673700000    9.760880000    8.999230000 XXXX 1      xx      P   0.000
P        0.321640000   15.178740000    9.040940000 XXXX 1      xx      P   0.000
P        5.583250000   15.399290000    9.131050000 XXXX 1      xx      P   0.000
P       10.940130000   15.250760000    9.181890000 XXXX 1      xx      P   0.000
P        2.475770000    1.471950000    9.483030000 XXXX 1      xx      P   0.000
P        7.634970000    1.652120000    9.236970000 XXXX 1      xx      P   0.000
P       12.964780000    1.815610000    9.638860000 XXXX 1      xx      P   0.000
P        2.631690000    7.178420000   10.038080000 XXXX 1      xx      P   0.000
P        7.784400000    7.290790000    9.586370000 XXXX 1      xx      P   0.000
P       13.053210000    7.210320000    9.315310000 XXXX 1      xx      P   0.000
P        2.737700000   12.776770000    9.570800000 XXXX 1      xx      P   0.000
P        8.066390000   12.843460000    9.735550000 XXXX 1      xx      P   0.000
P       13.253070000   12.971290000    9.646680000 XXXX 1      xx      P   0.000
P        2.778560000    3.971990000   12.069970000 XXXX 1      xx      P   0.000
P        7.941330000    3.950670000   12.134530000 XXXX 1      xx      P   0.000
P       13.212870000    4.282790000   12.191840000 XXXX 1      xx      P   0.000
P        2.912860000    9.607210000   12.345010000 XXXX 1      xx      P   0.000
P        8.161690000    9.672450000   12.355870000 XXXX 1      xx      P   0.000
P       13.330620000    9.514820000   12.027340000 XXXX 1      xx      P   0.000
P        2.942580000   15.222580000   12.107930000 XXXX 1      xx      P   0.000
P        8.404490000   15.606170000   12.210680000 XXXX 1      xx      P   0.000
P       13.493100000   15.550710000   12.144120000 XXXX 1      xx      P   0.000
P        2.912020000    1.826670000   11.976430000 XXXX 1      xx      P   0.000
P        8.054950000    1.800860000   11.562060000 XXXX 1      xx      P   0.000
P       13.317190000    2.091900000   11.799930000 XXXX 1      xx      P   0.000
P        3.229400000    7.395040000   12.103170000 XXXX 1      xx      P   0.000
P        8.243010000    7.444290000   11.709150000 XXXX 1      xx      P   0.000
P       13.407600000    7.484310000   11.602520000 XXXX 1      xx      P   0.000
P        3.124350000   12.960830000   11.803980000 XXXX 1      xx      P   0.000
P        8.406570000   13.239570000   11.852630000 XXXX 1      xx      P   0.000
P       13.670390000   13.382290000   11.856260000 XXXX 1      xx      P   0.000
P        0.391190000    1.824450000    9.486090000 XXXX 1      xx      P   0.000
P        5.428870000    1.772770000    9.678470000 XXXX 1      xx      P   0.000
P       10.680060000    1.635580000    9.640140000 XXXX 1      xx      P   0.000
P        0.457920000    7.092680000    9.618660000 XXXX 1      xx      P   0.000
P        5.541050000    7.614070000    9.339720000 XXXX 1      xx      P   0.000
P       10.703530000    7.554640000    9.393600000 XXXX 1      xx      P   0.000
P        0.442350000   12.909650000    9.638730000 XXXX 1      xx      P   0.000
P        5.801920000   13.218440000    9.414790000 XXXX 1      xx      P   0.000
P       11.086850000   13.145200000    9.367660000 XXXX 1      xx      P   0.000
In       2.792550000    4.542320000    9.404570000 XXXX 1      xx      In  0.000
In       8.189430000    4.462140000    9.491380000 XXXX 1      xx      In  0.000
In      13.234490000    4.587630000    9.496750000 XXXX 1      xx      In  0.000
In       2.620350000   10.215230000    9.689630000 XXXX 1      xx      In  0.000
In       8.166210000   10.016150000    9.443030000 XXXX 1      xx      In  0.000
In      13.347110000   10.127240000    9.326190000 XXXX 1      xx      In  0.000
In       3.038420000   15.558650000    9.464170000 XXXX 1      xx      In  0.000
In       8.264910000   15.846910000    9.422100000 XXXX 1      xx      In  0.000
In      13.542650000   16.018770000    9.411190000 XXXX 1      xx      In  0.000
In       0.137140000    4.252720000   11.766790000 XXXX 1      xx      In  0.000
In       5.448940000    4.700420000   11.710960000 XXXX 1      xx      In  0.000
In      10.644740000    4.754070000   11.604340000 XXXX 1      xx      In  0.000
In      15.976660000   10.408370000   12.022670000 XXXX 1      xx      In  0.000
In       5.621590000   10.215860000   11.834540000 XXXX 1      xx      In  0.000
In      10.722750000   10.249640000   11.780660000 XXXX 1      xx      In  0.000
In      16.089610000   16.034840000   11.631470000 XXXX 1      xx      In  0.000
In       5.789060000   15.990690000   11.800210000 XXXX 1      xx      In  0.000
In      10.983010000   16.051810000   11.760370000 XXXX 1      xx      In  0.000
end
end
                                                                          0.0000
!DATE     May 15 21:11:07 2019
PBC   15.845   16.830   21.258   90.000   90.000   87.648
P        5.304590000    1.732030000   12.021320000 XXXX 1      xx      P   0.000
P       10.301050000    1.684980000   11.901080000 XXXX 1      xx      P   0.000
P       15.582970000    1.917100000   11.566780000 XXXX 1      xx      P   0.000
P        5.293550000    7.391140000   11.542570000 XXXX 1      xx      P   0.000
P       10.484990000    7.305260000   11.608180000 XXXX 1      xx      P   0.000
P       15.598100000    7.299480000   11.801730000 XXXX 1      xx      P   0.000
P        5.447270000   12.892930000   11.594700000 XXXX 1      xx      P   0.000
P       10.583060000   12.970650000   11.565720000 XXXX 1      xx      P   0.000
P       15.840800000   13.088790000   11.829880000 XXXX 1      xx      P   0.000
P        0.109280000    4.014330000    9.076430000 XXXX 1      xx      P   0.000
P        5.429210000    3.936390000    9.026120000 XXXX 1      xx      P   0.000
P       10.595380000    3.755380000    8.902200000 XXXX 1      xx      P   0.000
P       15.993370000    9.614130000    9.330740000 XXXX 1      xx      P   0.000
P        5.404100000    9.794830000    9.160410000 XXXX 1      xx      P   0.000
P       10.665240000    9.759610000    8.994550000 XXXX 1      xx      P   0.000
P        0.321270000   15.172300000    9.033460000 XXXX 1      xx      P   0.000
P        5.579170000   15.403640000    9.123690000 XXXX 1      xx      P   0.000
P       10.947230000   15.258320000    9.180430000 XXXX 1      xx      P   0.000
P        2.481980000    1.468360000    9.487400000 XXXX 1      xx      P   0.000
P        7.632940000    1.653580000    9.230210000 XXXX 1      xx      P   0.000
P       12.962320000    1.824040000    9.639930000 XXXX 1      xx      P   0.000
P        2.635270000    7.182700000   10.045470000 XXXX 1      xx      P   0.000
P        7.782120000    7.285040000    9.582460000 XXXX 1      xx      P   0.000
P       13.049790000    7.209810000    9.310590000 XXXX 1      xx      P   0.000
P        2.730860000   12.775040000    9.576650000 XXXX 1      xx      P   0.000
P        8.066900000   12.838140000    9.732180000 XXXX 1      xx      P   0.000
P       13.256880000   12.970190000    9.650040000 XXXX 1      xx      P   0.000
P        2.779790000    3.976450000   12.080990000 XXXX 1      xx      P   0.000
P        7.931480000    3.950850000   12.142210000 XXXX 1      xx      P   0.000
P       13.209450000    4.279840000   12.204970000 XXXX 1      xx      P   0.000
P        2.911200000    9.608390000   12.348510000 XXXX 1      xx      P   0.000
P        8.165690000    9.666120000   12.352670000 XXXX 1      xx      P   0.000
P       13.325440000    9.520620000   12.020220000 XXXX 1      xx      P   0.000
P        2.949230000   15.224970000   12.108450000 XXXX 1      xx      P   0.000
P        8.412290000   15.605790000   12.206700000 XXXX 1      xx      P   0.000
P       13.490040000   15.552760000   12.139650000 XXXX 1      xx      P   0.000
P        2.919440000    1.823030000   11.975790000 XXXX 1      xx      P   0.000
P        8.057030000    1.800580000   11.551480000 XXXX 1      xx      P   0.000
P       13.318420000    2.093700000   11.802930000 XXXX 1      xx      P   0.000
P        3.229350000    7.401260000   12.119440000 XXXX 1      xx      P   0.000
P        8.239290000    7.448830000   11.716840000 XXXX 1      xx      P   0.000
P       13.403730000    7.468400000   11.589090000 XXXX 1      xx      P   0.000
P        3.133030000   12.966930000   11.803950000 XXXX 1      xx      P   0.000
P        8.412670000   13.249320000   11.861840000 XXXX 1      xx      P   0.000
P       13.667660000   13.380140000   11.857260000 XXXX 1      xx      P   0.000
P        0.388340000    1.829250000    9.478220000 XXXX 1      xx      P   0.000
P        5.426290000    1.776370000    9.684310000 XXXX 1      xx      P   0.000
P       10.679620000    1.636730000    9.645830000 XXXX 1      xx      P   0.000
P        0.458640000    7.088510000    9.633330000 XXXX 1      xx      P   0.000
P        5.541250000    7.617400000    9.340060000 XXXX 1      xx      P   0.000
P       10.712490000    7.553580000    9.386460000 XXXX 1      xx      P   0.000
P        0.438970000   12.913630000    9.634110000 XXXX 1      xx      P   0.000
P        5.810020000   13.220570000    9.416060000 XXXX 1      xx      P   0.000
P       11.089310000   13.139900000    9.371110000 XXXX 1      xx      P   0.000
In       2.794620000    4.542810000    9.399480000 XXXX 1      xx      In  0.000
In       8.192820000    4.457820000    9.488980000 XXXX 1      xx      In  0.000
In      13.231240000    4.582430000    9.494000000 XXXX 1      xx      In  0.000
In       2.609780000   10.216820000    9.698980000 XXXX 1      xx      In  0.000
In       8.164250000   10.011470000    9.443430000 XXXX 1      xx      In  0.000
In      13.346420000   10.120310000    9.322690000 XXXX 1      xx      In  0.000
In       3.039360000   15.556160000    9.463590000 XXXX 1      xx      In  0.000
In       8.267090000   15.846220000    9.420350000 XXXX 1      xx      In  0.000
In      13.542170000   16.017500000    9.408430000 XXXX 1      xx      In  0.000
In       0.137410000    4.246380000   11.767170000 XXXX 1      xx      In  0.000
In       5.451410000    4.704080000   11.706270000 XXXX 1      xx      In  0.000
In      10.642450000    4.756520000   11.597030000 XXXX 1      xx      In  0.000
In      15.972130000   10.406970000   12.030470000 XXXX 1      xx      In  0.000
In       5.625330000   10.220260000   11.839170000 XXXX 1      xx      In  0.000
In      10.719870000   10.250650000   11.780360000 XXXX 1      xx      In  0.000
In      16.088230000   16.037970000   11.628220000 XXXX 1      xx      In  0.000
In       5.792810000   15.998190000   11.803430000 XXXX 1      xx      In  0.000
In      10.985480000   16.054590000   11.760290000 XXXX 1      xx      In  0.000
end
end
                                                                          0.0000
!DATE     May 15 21:11:07 2019
PBC   15.845   16.830   21.258   90.000   90.000   87.648
P        5.303770000    1.734820000   12.028630000 XXXX 1      xx      P   0.000
P       10.304580000    1.690590000   11.905920000 XXXX 1      xx      P   0.000
P       15.581640000    1.916830000   11.567370000 XXXX 1      xx      P   0.000
P        5.302120000    7.400950000   11.538320000 XXXX 1      xx      P   0.000
P       10.476830000    7.296970000   11.602750000 XXXX 1      xx      P   0.000
P       15.598370000    7.296570000   11.802720000 XXXX 1      xx      P   0.000
P        5.448180000   12.896520000   11.597390000 XXXX 1      xx      P   0.000
P       10.588150000   12.971710000   11.562950000 XXXX 1      xx      P   0.000
P       15.846950000   13.089800000   11.836920000 XXXX 1      xx      P   0.000
P        0.113140000    4.010610000    9.075780000 XXXX 1      xx      P   0.000
P        5.431860000    3.936600000    9.029850000 XXXX 1      xx      P   0.000
P       10.584200000    3.747110000    8.893570000 XXXX 1      xx      P   0.000
P       15.987220000    9.613750000    9.343480000 XXXX 1      xx      P   0.000
P        5.411040000    9.798230000    9.150760000 XXXX 1      xx      P   0.000
P       10.657720000    9.757880000    8.990200000 XXXX 1      xx      P   0.000
P        0.320910000   15.164830000    9.026420000 XXXX 1      xx      P   0.000
P        5.575980000   15.407570000    9.116550000 XXXX 1      xx      P   0.000
P       10.954070000   15.267320000    9.178660000 XXXX 1      xx      P   0.000
P        2.489250000    1.464810000    9.493160000 XXXX 1      xx      P   0.000
P        7.630890000    1.654950000    9.224510000 XXXX 1      xx      P   0.000
P       12.959400000    1.832200000    9.640790000 XXXX 1      xx      P   0.000
P        2.638660000    7.186650000   10.051210000 XXXX 1      xx      P   0.000
P        7.779730000    7.278890000    9.577870000 XXXX 1      xx      P   0.000
P       13.045420000    7.210020000    9.306610000 XXXX 1      xx      P   0.000
P        2.723190000   12.773650000    9.583230000 XXXX 1      xx      P   0.000
P        8.066480000   12.833480000    9.728150000 XXXX 1      xx      P   0.000
P       13.261120000   12.968650000    9.653320000 XXXX 1      xx      P   0.000
P        2.781320000    3.981070000   12.092070000 XXXX 1      xx      P   0.000
P        7.922790000    3.951090000   12.149980000 XXXX 1      xx      P   0.000
P       13.205810000    4.276700000   12.217730000 XXXX 1      xx      P   0.000
P        2.909430000    9.609770000   12.351830000 XXXX 1      xx      P   0.000
P        8.169860000    9.659000000   12.348640000 XXXX 1      xx      P   0.000
P       13.319990000    9.528400000   12.013330000 XXXX 1      xx      P   0.000
P        2.955860000   15.226830000   12.108790000 XXXX 1      xx      P   0.000
P        8.419320000   15.603740000   12.202120000 XXXX 1      xx      P   0.000
P       13.487780000   15.554680000   12.135030000 XXXX 1      xx      P   0.000
P        2.927630000    1.819030000   11.973750000 XXXX 1      xx      P   0.000
P        8.059170000    1.800480000   11.540560000 XXXX 1      xx      P   0.000
P       13.320120000    2.095310000   11.805900000 XXXX 1      xx      P   0.000
P        3.227850000    7.407940000   12.136260000 XXXX 1      xx      P   0.000
P        8.235670000    7.453980000   11.725510000 XXXX 1      xx      P   0.000
P       13.399910000    7.451040000   11.574990000 XXXX 1      xx      P   0.000
P        3.142310000   12.973820000   11.803470000 XXXX 1      xx      P   0.000
P        8.418950000   13.259920000   11.871260000 XXXX 1      xx      P   0.000
P       13.664160000   13.377210000   11.858060000 XXXX 1      xx      P   0.000
P        0.384070000    1.834070000    9.469700000 XXXX 1      xx      P   0.000
P        5.423950000    1.780670000    9.690360000 XXXX 1      xx      P   0.000
P       10.679610000    1.639020000    9.651770000 XXXX 1      xx      P   0.000
P        0.458780000    7.084910000    9.649030000 XXXX 1      xx      P   0.000
P        5.541550000    7.620290000    9.340700000 XXXX 1      xx      P   0.000
P       10.722580000    7.552370000    9.379180000 XXXX 1      xx      P   0.000
P        0.435870000   12.918220000    9.628750000 XXXX 1      xx      P   0.000
P        5.818460000   13.222040000    9.417710000 XXXX 1      xx      P   0.000
P       11.091400000   13.133840000    9.375200000 XXXX 1      xx      P   0.000
In       2.796780000    4.543240000    9.394480000 XXXX 1      xx      In  0.000
In       8.195910000    4.453690000    9.486540000 XXXX 1      xx      In  0.000
In      13.228050000    4.577260000    9.491240000 XXXX 1      xx      In  0.000
In       2.599470000   10.218080000    9.708280000 XXXX 1      xx      In  0.000
In       8.162030000   10.007050000    9.443990000 XXXX 1      xx      In  0.000
In      13.345810000   10.113600000    9.319380000 XXXX 1      xx      In  0.000
In       3.040100000   15.553950000    9.463080000 XXXX 1      xx      In  0.000
In       8.269410000   15.845410000    9.418650000 XXXX 1      xx      In  0.000
In      13.541740000   16.016070000    9.405680000 XXXX 1      xx      In  0.000
In       0.137690000    4.240290000   11.767600000 XXXX 1      xx      In  0.000
In       5.453790000    4.707700000   11.701470000 XXXX 1      xx      In  0.000
In      10.640160000    4.758630000   11.589790000 XXXX 1      xx      In  0.000
In      15.967630000   10.405410000   12.038070000 XXXX 1      xx      In  0.000
In       5.629000000   10.224730000   11.843680000 XXXX 1      xx      In  0.000
In      10.717080000   10.251790000   11.779980000 XXXX 1      xx      In  0.000
In      16.087100000   16.041140000   11.625110000 XXXX 1      xx      In  0.000
In       5.796430000   16.005400000   11.806640000 XXXX 1      xx      In  0.000
In      10.987870000   16.056920000   11.760210000 XXXX 1      xx      In  0.000
end
end
                                                                          0.0000
!DATE     May 15 21:11:07 2019
PBC   15.845   16.830   21.258   90.000   90.000   87.648
P        5.301580000    1.737880000   12.035110000 XXXX 1      xx      P   0.000
P       10.307760000    1.697670000   11.909950000 XXXX 1      xx      P   0.000
P       15.580170000    1.916210000   11.568430000 XXXX 1      xx      P   0.000
P        5.311270000    7.409920000   11.534450000 XXXX 1      xx      P   0.000
P       10.468200000    7.289460000   11.597020000 XXXX 1      xx      P   0.000
P       15.599090000    7.293460000   11.803350000 XXXX 1      xx      P   0.000
P        5.448250000   12.900470000   11.600290000 XXXX 1      xx      P   0.000
P       10.593510000   12.972400000   11.560590000 XXXX 1      xx      P   0.000
P       15.853320000   13.091180000   11.843770000 XXXX 1      xx      P   0.000
P        0.117230000    4.006630000    9.075240000 XXXX 1      xx      P   0.000
P        5.434310000    3.936680000    9.033930000 XXXX 1      xx      P   0.000
P       10.573600000    3.739220000    8.885160000 XXXX 1      xx      P   0.000
P       15.981190000    9.613840000    9.356080000 XXXX 1      xx      P   0.000
P        5.418050000    9.801760000    9.141350000 XXXX 1      xx      P   0.000
P       10.651250000    9.755710000    8.986210000 XXXX 1      xx      P   0.000
P        0.320560000   15.156460000    9.019870000 XXXX 1      xx      P   0.000
P        5.573750000   15.411030000    9.109710000 XXXX 1      xx      P   0.000
P       10.960570000   15.277490000    9.176630000 XXXX 1      xx      P   0.000
P        2.497370000    1.461370000    9.500270000 XXXX 1      xx      P   0.000
P        7.628840000    1.656210000    9.219840000 XXXX 1      xx      P   0.000
P       12.956060000    1.839980000    9.641480000 XXXX 1      xx      P   0.000
P        2.641860000    7.190240000   10.055440000 XXXX 1      xx      P   0.000
P        7.777260000    7.272360000    9.572810000 XXXX 1      xx      P   0.000
P       13.040190000    7.210890000    9.303310000 XXXX 1      xx      P   0.000
P        2.714770000   12.772640000    9.590440000 XXXX 1      xx      P   0.000
P        8.065170000   12.829540000    9.723690000 XXXX 1      xx      P   0.000
P       13.265750000   12.966630000    9.656470000 XXXX 1      xx      P   0.000
P        2.783180000    3.985720000   12.103100000 XXXX 1      xx      P   0.000
P        7.915360000    3.951290000   12.157770000 XXXX 1      xx      P   0.000
P       13.201960000    4.273430000   12.230040000 XXXX 1      xx      P   0.000
P        2.907530000    9.611380000   12.354990000 XXXX 1      xx      P   0.000
P        8.174190000    9.651210000   12.343850000 XXXX 1      xx      P   0.000
P       13.314280000    9.537650000   12.006600000 XXXX 1      xx      P   0.000
P        2.962430000   15.228220000   12.108950000 XXXX 1      xx      P   0.000
P        8.425560000   15.600090000   12.196980000 XXXX 1      xx      P   0.000
P       13.486360000   15.556410000   12.130270000 XXXX 1      xx      P   0.000
P        2.936490000    1.814800000   11.970360000 XXXX 1      xx      P   0.000
P        8.061360000    1.800590000   11.529420000 XXXX 1      xx      P   0.000
P       13.322270000    2.096680000   11.808790000 XXXX 1      xx      P   0.000
P        3.225100000    7.414970000   12.153380000 XXXX 1      xx      P   0.000
P        8.232160000    7.459570000   11.734930000 XXXX 1      xx      P   0.000
P       13.396190000    7.432750000   11.560470000 XXXX 1      xx      P   0.000
P        3.152100000   12.981410000   11.802610000 XXXX 1      xx      P   0.000
P        8.425380000   13.271260000   11.880650000 XXXX 1      xx      P   0.000
P       13.660040000   13.373580000   11.858690000 XXXX 1      xx      P   0.000
P        0.378550000    1.838740000    9.460710000 XXXX 1      xx      P   0.000
P        5.421890000    1.785630000    9.696580000 XXXX 1      xx      P   0.000
P       10.680020000    1.642390000    9.657910000 XXXX 1      xx      P   0.000
P        0.458380000    7.081900000    9.665550000 XXXX 1      xx      P   0.000
P        5.541970000    7.622730000    9.341570000 XXXX 1      xx      P   0.000
P       10.733590000    7.551000000    9.371840000 XXXX 1      xx      P   0.000
P        0.433040000   12.923330000    9.622810000 XXXX 1      xx      P   0.000
P        5.827130000   13.222880000    9.419700000 XXXX 1      xx      P   0.000
P       11.093140000   13.127270000    9.379810000 XXXX 1      xx      P   0.000
In       2.799020000    4.543600000    9.389620000 XXXX 1      xx      In  0.000
In       8.198680000    4.449740000    9.484080000 XXXX 1      xx      In  0.000
In      13.224940000    4.572140000    9.488510000 XXXX 1      xx      In  0.000
In       2.589470000   10.219030000    9.717500000 XXXX 1      xx      In  0.000
In       8.159550000   10.002890000    9.444670000 XXXX 1      xx      In  0.000
In      13.345280000   10.107160000    9.316260000 XXXX 1      xx      In  0.000
In       3.040660000   15.552010000    9.462640000 XXXX 1      xx      In  0.000
In       8.271850000   15.844480000    9.417010000 XXXX 1      xx      In  0.000
In      13.541370000   16.014480000    9.402940000 XXXX 1      xx      In  0.000
In       0.137960000    4.234470000   11.768080000 XXXX 1      xx      In  0.000
In       5.456060000    4.711270000   11.696580000 XXXX 1      xx      In  0.000
In      10.637880000    4.760400000   11.582640000 XXXX 1      xx      In  0.000
In      15.963170000   10.403690000   12.045480000 XXXX 1      xx      In  0.000
In       5.632570000   10.229260000   11.848060000 XXXX 1      xx      In  0.000
In      10.714390000   10.253050000   11.779510000 XXXX 1      xx      In  0.000
In      16.086240000   16.044320000   11.622150000 XXXX 1      xx      In  0.000
In       5.799900000   16.012290000   11.809820000 XXXX 1      xx      In  0.000
In      10.990190000   16.058810000   11.760120000 XXXX 1      xx      In  0.000
end
end
                                                                          0.0000
!DATE     May 15 21:11:07 2019
PBC   15.845   16.830   21.258   90.000   90.000   87.648
P        5.298080000    1.741200000   12.040740000 XXXX 1      xx      P   0.000
P       10.310530000    1.706140000   11.913170000 XXXX 1      xx      P   0.000
P       15.578600000    1.915290000   11.569860000 XXXX 1      xx      P   0.000
P        5.320730000    7.418000000   11.531080000 XXXX 1      xx      P   0.000
P       10.459210000    7.282830000   11.591030000 XXXX 1      xx      P   0.000
P       15.600140000    7.290170000   11.803730000 XXXX 1      xx      P   0.000
P        5.447550000   12.904750000   11.603340000 XXXX 1      xx      P   0.000
P       10.599100000   12.972760000   11.558740000 XXXX 1      xx      P   0.000
P       15.859740000   13.092930000   11.850310000 XXXX 1      xx      P   0.000
P        0.121480000    4.002540000    9.074790000 XXXX 1      xx      P   0.000
P        5.436540000    3.936660000    9.038320000 XXXX 1      xx      P   0.000
P       10.563690000    3.731800000    8.876950000 XXXX 1      xx      P   0.000
P       15.975360000    9.614330000    9.368510000 XXXX 1      xx      P   0.000
P        5.425070000    9.805400000    9.132260000 XXXX 1      xx      P   0.000
P       10.645900000    9.753120000    8.982590000 XXXX 1      xx      P   0.000
P        0.320230000   15.147310000    9.013860000 XXXX 1      xx      P   0.000
P        5.572550000   15.413980000    9.103230000 XXXX 1      xx      P   0.000
P       10.966680000   15.288500000    9.174340000 XXXX 1      xx      P   0.000
P        2.506130000    1.458120000    9.508640000 XXXX 1      xx      P   0.000
P        7.626760000    1.657350000    9.216220000 XXXX 1      xx      P   0.000
P       12.952360000    1.847270000    9.642020000 XXXX 1      xx      P   0.000
P        2.644860000    7.193480000   10.058320000 XXXX 1      xx      P   0.000
P        7.774730000    7.265500000    9.567470000 XXXX 1      xx      P   0.000
P       13.034230000    7.212380000    9.300630000 XXXX 1      xx      P   0.000
P        2.705720000   12.772030000    9.598160000 XXXX 1      xx      P   0.000
P        8.063080000   12.826380000    9.719000000 XXXX 1      xx      P   0.000
P       13.270710000   12.964140000    9.659460000 XXXX 1      xx      P   0.000
P        2.785380000    3.990260000   12.113990000 XXXX 1      xx      P   0.000
P        7.909240000    3.951410000   12.165480000 XXXX 1      xx      P   0.000
P       13.197930000    4.270110000   12.241790000 XXXX 1      xx      P   0.000
P        2.905500000    9.613270000   12.358000000 XXXX 1      xx      P   0.000
P        8.178640000    9.642910000   12.338350000 XXXX 1      xx      P   0.000
P       13.308350000    9.547890000   12.000010000 XXXX 1      xx      P   0.000
P        2.968890000   15.229160000   12.108900000 XXXX 1      xx      P   0.000
P        8.430940000   15.594930000   12.191310000 XXXX 1      xx      P   0.000
P       13.485820000   15.557900000   12.125420000 XXXX 1      xx      P   0.000
P        2.945880000    1.810470000   11.965690000 XXXX 1      xx      P   0.000
P        8.063590000    1.800960000   11.518200000 XXXX 1      xx      P   0.000
P       13.324810000    2.097780000   11.811550000 XXXX 1      xx      P   0.000
P        3.221310000    7.422260000   12.170510000 XXXX 1      xx      P   0.000
P        8.228740000    7.465440000   11.744790000 XXXX 1      xx      P   0.000
P       13.392630000    7.414020000   11.545780000 XXXX 1      xx      P   0.000
P        3.162270000   12.989630000   11.801420000 XXXX 1      xx      P   0.000
P        8.431910000   13.283160000   11.889790000 XXXX 1      xx      P   0.000
P       13.655440000   13.369330000   11.859210000 XXXX 1      xx      P   0.000
P        0.372030000    1.843100000    9.451380000 XXXX 1      xx      P   0.000
P        5.420120000    1.791170000    9.702930000 XXXX 1      xx      P   0.000
P       10.680830000    1.646750000    9.664230000 XXXX 1      xx      P   0.000
P        0.457520000    7.079560000    9.682680000 XXXX 1      xx      P   0.000
P        5.542490000    7.624760000    9.342600000 XXXX 1      xx      P   0.000
P       10.745320000    7.549500000    9.364490000 XXXX 1      xx      P   0.000
P        0.430480000   12.928840000    9.616490000 XXXX 1      xx      P   0.000
P        5.835930000   13.223140000    9.422020000 XXXX 1      xx      P   0.000
P       11.094580000   13.120490000    9.384820000 XXXX 1      xx      P   0.000
In       2.801330000    4.543910000    9.384920000 XXXX 1      xx      In  0.000
In       8.201110000    4.446010000    9.481630000 XXXX 1      xx      In  0.000
In      13.221920000    4.567090000    9.485800000 XXXX 1      xx      In  0.000
In       2.579820000   10.219640000    9.726610000 XXXX 1      xx      In  0.000
In       8.156810000    9.999010000    9.445490000 XXXX 1      xx      In  0.000
In      13.344820000   10.101000000    9.313350000 XXXX 1      xx      In  0.000
In       3.041020000   15.550360000    9.462270000 XXXX 1      xx      In  0.000
In       8.274410000   15.843450000    9.415420000 XXXX 1      xx      In  0.000
In      13.541050000   16.012760000    9.400210000 XXXX 1      xx      In  0.000
In       0.138250000    4.228940000   11.768600000 XXXX 1      xx      In  0.000
In       5.458200000    4.714810000   11.691630000 XXXX 1      xx      In  0.000
In      10.635620000    4.761790000   11.575600000 XXXX 1      xx      In  0.000
In      15.958770000   10.401840000   12.052660000 XXXX 1      xx      In  0.000
In       5.636030000   10.233840000   11.852280000 XXXX 1      xx      In  0.000
In      10.711820000   10.254430000   11.778960000 XXXX 1      xx      In  0.000
In      16.085630000   16.047500000   11.619350000 XXXX 1      xx      In  0.000
In       5.803210000   16.018820000   11.812950000 XXXX 1      xx      In  0.000
In      10.992420000   16.060280000   11.760020000 XXXX 1      xx      In  0.000
end
end
                                                                          0.0000
!DATE     May 15 21:11:07 2019
PBC   15.845   16.830   21.258   90.000   90.000   87.648
P        5.293360000    1.744780000   12.045500000 XXXX 1      xx      P   0.000
P       10.312840000    1.715900000   11.915570000 XXXX 1      xx      P   0.000
P       15.576960000    1.914070000   11.571550000 XXXX 1      xx      P   0.000
P        5.330260000    7.425140000   11.528350000 XXXX 1      xx      P   0.000
P       10.449950000    7.277180000   11.584800000 XXXX 1      xx      P   0.000
P       15.601420000    7.286700000   11.803970000 XXXX 1      xx      P   0.000
P        5.446180000   12.909350000   11.606480000 XXXX 1      xx      P   0.000
P       10.604860000   12.972790000   11.557480000 XXXX 1      xx      P   0.000
P       15.866060000   13.095040000   11.856390000 XXXX 1      xx      P   0.000
P        0.125850000    3.998480000    9.074430000 XXXX 1      xx      P   0.000
P        5.438580000    3.936590000    9.042960000 XXXX 1      xx      P   0.000
P       10.554580000    3.724920000    8.868970000 XXXX 1      xx      P   0.000
P       15.969750000    9.615160000    9.380720000 XXXX 1      xx      P   0.000
P        5.432060000    9.809120000    9.123580000 XXXX 1      xx      P   0.000
P       10.641710000    9.750130000    8.979360000 XXXX 1      xx      P   0.000
P        0.319910000   15.137540000    9.008400000 XXXX 1      xx      P   0.000
P        5.572390000   15.416360000    9.097200000 XXXX 1      xx      P   0.000
P       10.972320000   15.300080000    9.171820000 XXXX 1      xx      P   0.000
P        2.515320000    1.455160000    9.518190000 XXXX 1      xx      P   0.000
P        7.624650000    1.658360000    9.213610000 XXXX 1      xx      P   0.000
P       12.948380000    1.853970000    9.642450000 XXXX 1      xx      P   0.000
P        2.647660000    7.196340000   10.060020000 XXXX 1      xx      P   0.000
P        7.772170000    7.258340000    9.562030000 XXXX 1      xx      P   0.000
P       13.027670000    7.214400000    9.298470000 XXXX 1      xx      P   0.000
P        2.696140000   12.771820000    9.606250000 XXXX 1      xx      P   0.000
P        8.060300000   12.824060000    9.714280000 XXXX 1      xx      P   0.000
P       13.275940000   12.961170000    9.662270000 XXXX 1      xx      P   0.000
P        2.787930000    3.994580000   12.124640000 XXXX 1      xx      P   0.000
P        7.904480000    3.951390000   12.173030000 XXXX 1      xx      P   0.000
P       13.193750000    4.266810000   12.252890000 XXXX 1      xx      P   0.000
P        2.903370000    9.615480000   12.360890000 XXXX 1      xx      P   0.000
P        8.183200000    9.634310000   12.332220000 XXXX 1      xx      P   0.000
P       13.302240000    9.558640000   11.993480000 XXXX 1      xx      P   0.000
P        2.975210000   15.229740000   12.108650000 XXXX 1      xx      P   0.000
P        8.435460000   15.588390000   12.185170000 XXXX 1      xx      P   0.000
P       13.486170000   15.559070000   12.120510000 XXXX 1      xx      P   0.000
P        2.955680000    1.806180000   11.959810000 XXXX 1      xx      P   0.000
P        8.065860000    1.801640000   11.507050000 XXXX 1      xx      P   0.000
P       13.327700000    2.098590000   11.814150000 XXXX 1      xx      P   0.000
P        3.216710000    7.429700000   12.187370000 XXXX 1      xx      P   0.000
P        8.225430000    7.471390000   11.754830000 XXXX 1      xx      P   0.000
P       13.389300000    7.395350000   11.531200000 XXXX 1      xx      P   0.000
P        3.172680000   12.998370000   11.799990000 XXXX 1      xx      P   0.000
P        8.438520000   13.295440000   11.898460000 XXXX 1      xx      P   0.000
P       13.650500000   13.364530000   11.859630000 XXXX 1      xx      P   0.000
P        0.364730000    1.846960000    9.441900000 XXXX 1      xx      P   0.000
P        5.418680000    1.797220000    9.709360000 XXXX 1      xx      P   0.000
P       10.681990000    1.652020000    9.670690000 XXXX 1      xx      P   0.000
P        0.456290000    7.077920000    9.700160000 XXXX 1      xx      P   0.000
P        5.543100000    7.626400000    9.343730000 XXXX 1      xx      P   0.000
P       10.757510000    7.547860000    9.357200000 XXXX 1      xx      P   0.000
P        0.428160000   12.934620000    9.609980000 XXXX 1      xx      P   0.000
P        5.844740000   13.222870000    9.424660000 XXXX 1      xx      P   0.000
P       11.095740000   13.113740000    9.390100000 XXXX 1      xx      P   0.000
In       2.803690000    4.544160000    9.380410000 XXXX 1      xx      In  0.000
In       8.203160000    4.442510000    9.479200000 XXXX 1      xx      In  0.000
In      13.219000000    4.562130000    9.483140000 XXXX 1      xx      In  0.000
In       2.570540000   10.219940000    9.735570000 XXXX 1      xx      In  0.000
In       8.153830000    9.995420000    9.446420000 XXXX 1      xx      In  0.000
In      13.344420000   10.095150000    9.310650000 XXXX 1      xx      In  0.000
In       3.041190000   15.548980000    9.461970000 XXXX 1      xx      In  0.000
In       8.277070000   15.842320000    9.413880000 XXXX 1      xx      In  0.000
In      13.540810000   16.010920000    9.397510000 XXXX 1      xx      In  0.000
In       0.138540000    4.223720000   11.769170000 XXXX 1      xx      In  0.000
In       5.460200000    4.718300000   11.686620000 XXXX 1      xx      In  0.000
In      10.633380000    4.762780000   11.568710000 XXXX 1      xx      In  0.000
In      15.954430000   10.399850000   12.059600000 XXXX 1      xx      In  0.000
In       5.639370000   10.238430000   11.856320000 XXXX 1      xx      In  0.000
In      10.709370000   10.255910000   11.778320000 XXXX 1      xx      In  0.000
In      16.085290000   16.050650000   11.616700000 XXXX 1      xx      In  0.000
In       5.806360000   16.024980000   11.816020000 XXXX 1      xx      In  0.000
In      10.994550000   16.061340000   11.759900000 XXXX 1      xx      In  0.000
end
end
                                                                          0.0000
!DATE     May 15 21:11:07 2019
PBC   15.845   16.830   21.258   90.000   90.000   87.648
P        5.287560000    1.748590000   12.049410000 XXXX 1      xx      P   0.000
P       10.314680000    1.726790000   11.917180000 XXXX 1      xx      P   0.000
P       15.575300000    1.912590000   11.573410000 XXXX 1      xx      P   0.000
P        5.339630000    7.431300000   11.526350000 XXXX 1      xx      P   0.000
P       10.440560000    7.272580000   11.578390000 XXXX 1      xx      P   0.000
P       15.602810000    7.283040000   11.804200000 XXXX 1      xx      P   0.000
P        5.444240000   12.914220000   11.609670000 XXXX 1      xx      P   0.000
P       10.610730000   12.972520000   11.556900000 XXXX 1      xx      P   0.000
P       15.872150000   13.097480000   11.861920000 XXXX 1      xx      P   0.000
P        0.130260000    3.994590000    9.074150000 XXXX 1      xx      P   0.000
P        5.440420000    3.936500000    9.047820000 XXXX 1      xx      P   0.000
P       10.546390000    3.718640000    8.861200000 XXXX 1      xx      P   0.000
P       15.964410000    9.616250000    9.392660000 XXXX 1      xx      P   0.000
P        5.438960000    9.812880000    9.115380000 XXXX 1      xx      P   0.000
P       10.638710000    9.746790000    8.976520000 XXXX 1      xx      P   0.000
P        0.319630000   15.127340000    9.003510000 XXXX 1      xx      P   0.000
P        5.573290000   15.418140000    9.091670000 XXXX 1      xx      P   0.000
P       10.977440000   15.311940000    9.169110000 XXXX 1      xx      P   0.000
P        2.524730000    1.452530000    9.528800000 XXXX 1      xx      P   0.000
P        7.622500000    1.659220000    9.211970000 XXXX 1      xx      P   0.000
P       12.944180000    1.860000000    9.642820000 XXXX 1      xx      P   0.000
P        2.650260000    7.198830000   10.060720000 XXXX 1      xx      P   0.000
P        7.769600000    7.250930000    9.556660000 XXXX 1      xx      P   0.000
P       13.020690000    7.216890000    9.296740000 XXXX 1      xx      P   0.000
P        2.686180000   12.772010000    9.614600000 XXXX 1      xx      P   0.000
P        8.056950000   12.822600000    9.709730000 XXXX 1      xx      P   0.000
P       13.281370000   12.957740000    9.664860000 XXXX 1      xx      P   0.000
P        2.790810000    3.998590000   12.134960000 XXXX 1      xx      P   0.000
P        7.901100000    3.951200000   12.180350000 XXXX 1      xx      P   0.000
P       13.189450000    4.263570000   12.263250000 XXXX 1      xx      P   0.000
P        2.901150000    9.618030000   12.363660000 XXXX 1      xx      P   0.000
P        8.187830000    9.625610000   12.325560000 XXXX 1      xx      P   0.000
P       13.295990000    9.569530000   11.986990000 XXXX 1      xx      P   0.000
P        2.981330000   15.230020000   12.108190000 XXXX 1      xx      P   0.000
P        8.439100000   15.580630000   12.178620000 XXXX 1      xx      P   0.000
P       13.487410000   15.559880000   12.115550000 XXXX 1      xx      P   0.000
P        2.965720000    1.802030000   11.952830000 XXXX 1      xx      P   0.000
P        8.068150000    1.802640000   11.496140000 XXXX 1      xx      P   0.000
P       13.330860000    2.099060000   11.816530000 XXXX 1      xx      P   0.000
P        3.211500000    7.437190000   12.203680000 XXXX 1      xx      P   0.000
P        8.222200000    7.477240000   11.764780000 XXXX 1      xx      P   0.000
P       13.386250000    7.377130000   11.516980000 XXXX 1      xx      P   0.000
P        3.183210000   13.007540000   11.798410000 XXXX 1      xx      P   0.000
P        8.445150000   13.307900000   11.906470000 XXXX 1      xx      P   0.000
P       13.645380000   13.359270000   11.860010000 XXXX 1      xx      P   0.000
P        0.356900000    1.850160000    9.432430000 XXXX 1      xx      P   0.000
P        5.417590000    1.803690000    9.715820000 XXXX 1      xx      P   0.000
P       10.683470000    1.658060000    9.677220000 XXXX 1      xx      P   0.000
P        0.454780000    7.077030000    9.717740000 XXXX 1      xx      P   0.000
P        5.543800000    7.627670000    9.344880000 XXXX 1      xx      P   0.000
P       10.769910000    7.546120000    9.350030000 XXXX 1      xx      P   0.000
P        0.426060000   12.940510000    9.603460000 XXXX 1      xx      P   0.000
P        5.853430000   13.222130000    9.427570000 XXXX 1      xx      P   0.000
P       11.096690000   13.107270000    9.395510000 XXXX 1      xx      P   0.000
In       2.806100000    4.544350000    9.376120000 XXXX 1      xx      In  0.000
In       8.204820000    4.439260000    9.476810000 XXXX 1      xx      In  0.000
In      13.216200000    4.557290000    9.480530000 XXXX 1      xx      In  0.000
In       2.561670000   10.219910000    9.744340000 XXXX 1      xx      In  0.000
In       8.150610000    9.992110000    9.447470000 XXXX 1      xx      In  0.000
In      13.344070000   10.089630000    9.308180000 XXXX 1      xx      In  0.000
In       3.041180000   15.547880000    9.461720000 XXXX 1      xx      In  0.000
In       8.279810000   15.841100000    9.412390000 XXXX 1      xx      In  0.000
In      13.540640000   16.008980000    9.394850000 XXXX 1      xx      In  0.000
In       0.138840000    4.218830000   11.769780000 XXXX 1      xx      In  0.000
In       5.462040000    4.721750000   11.681590000 XXXX 1      xx      In  0.000
In      10.631180000    4.763380000   11.561990000 XXXX 1      xx      In  0.000
In      15.950160000   10.397760000   12.066290000 XXXX 1      xx      In  0.000
In       5.642570000   10.243030000   11.860160000 XXXX 1      xx      In  0.000
In      10.707060000   10.257490000   11.777590000 XXXX 1      xx      In  0.000
In      16.085210000   16.053760000   11.614210000 XXXX 1      xx      In  0.000
In       5.809340000   16.030750000   11.818990000 XXXX 1      xx      In  0.000
In      10.996580000   16.062010000   11.759780000 XXXX 1      xx      In  0.000
end
end
                                                                          0.0000
!DATE     May 15 21:11:07 2019
PBC   15.845   16.830   21.258   90.000   90.000   87.648
P        5.280810000    1.752610000   12.052470000 XXXX 1      xx      P   0.000
P       10.316000000    1.738680000   11.918020000 XXXX 1      xx      P   0.000
P       15.573660000    1.910870000   11.575320000 XXXX 1      xx      P   0.000
P        5.348620000    7.436470000   11.525180000 XXXX 1      xx      P   0.000
P       10.431140000    7.269060000   11.571810000 XXXX 1      xx      P   0.000
P       15.604180000    7.279200000   11.804570000 XXXX 1      xx      P   0.000
P        5.441860000   12.919340000   11.612840000 XXXX 1      xx      P   0.000
P       10.616660000   12.972000000   11.557070000 XXXX 1      xx      P   0.000
P       15.877880000   13.100210000   11.866790000 XXXX 1      xx      P   0.000
P        0.134680000    3.991010000    9.073930000 XXXX 1      xx      P   0.000
P        5.442070000    3.936450000    9.052830000 XXXX 1      xx      P   0.000
P       10.539200000    3.713020000    8.853640000 XXXX 1      xx      P   0.000
P       15.959370000    9.617570000    9.404290000 XXXX 1      xx      P   0.000
P        5.445710000    9.816650000    9.107710000 XXXX 1      xx      P   0.000
P       10.636910000    9.743120000    8.974060000 XXXX 1      xx      P   0.000
P        0.319390000   15.116890000    8.999190000 XXXX 1      xx      P   0.000
P        5.575250000   15.419310000    9.086690000 XXXX 1      xx      P   0.000
P       10.982020000   15.323800000    9.166230000 XXXX 1      xx      P   0.000
P        2.534170000    1.450300000    9.540360000 XXXX 1      xx      P   0.000
P        7.620300000    1.659940000    9.211240000 XXXX 1      xx      P   0.000
P       12.939850000    1.865270000    9.643150000 XXXX 1      xx      P   0.000
P        2.652640000    7.200980000   10.060600000 XXXX 1      xx      P   0.000
P        7.767050000    7.243330000    9.551510000 XXXX 1      xx      P   0.000
P       13.013470000    7.219760000    9.295340000 XXXX 1      xx      P   0.000
P        2.675960000   12.772580000    9.623070000 XXXX 1      xx      P   0.000
P        8.053160000   12.822020000    9.705520000 XXXX 1      xx      P   0.000
P       13.286900000   12.953860000    9.667190000 XXXX 1      xx      P   0.000
P        2.794010000    4.002180000   12.144890000 XXXX 1      xx      P   0.000
P        7.899090000    3.950790000   12.187340000 XXXX 1      xx      P   0.000
P       13.185060000    4.260470000   12.272820000 XXXX 1      xx      P   0.000
P        2.898840000    9.620950000   12.366340000 XXXX 1      xx      P   0.000
P        8.192500000    9.617030000   12.318430000 XXXX 1      xx      P   0.000
P       13.289650000    9.580180000   11.980520000 XXXX 1      xx      P   0.000
P        2.987220000   15.230100000   12.107540000 XXXX 1      xx      P   0.000
P        8.441880000   15.571840000   12.171710000 XXXX 1      xx      P   0.000
P       13.489500000   15.560280000   12.110570000 XXXX 1      xx      P   0.000
P        2.975820000    1.798140000   11.944850000 XXXX 1      xx      P   0.000
P        8.070440000    1.804010000   11.485590000 XXXX 1      xx      P   0.000
P       13.334250000    2.099190000   11.818660000 XXXX 1      xx      P   0.000
P        3.205890000    7.444620000   12.219170000 XXXX 1      xx      P   0.000
P        8.219040000    7.482750000   11.774390000 XXXX 1      xx      P   0.000
P       13.383510000    7.359710000   11.503370000 XXXX 1      xx      P   0.000
P        3.193700000   13.017010000   11.796770000 XXXX 1      xx      P   0.000
P        8.451760000   13.320310000   11.913650000 XXXX 1      xx      P   0.000
P       13.640220000   13.353630000   11.860370000 XXXX 1      xx      P   0.000
P        0.348750000    1.852540000    9.423130000 XXXX 1      xx      P   0.000
P        5.416840000    1.810490000    9.722260000 XXXX 1      xx      P   0.000
P       10.685220000    1.664760000    9.683800000 XXXX 1      xx      P   0.000
P        0.453090000    7.076900000    9.735150000 XXXX 1      xx      P   0.000
P        5.544580000    7.628610000    9.346010000 XXXX 1      xx      P   0.000
P       10.782250000    7.544290000    9.343040000 XXXX 1      xx      P   0.000
P        0.424150000   12.946360000    9.597110000 XXXX 1      xx      P   0.000
P        5.861870000   13.220990000    9.430740000 XXXX 1      xx      P   0.000
P       11.097470000   13.101300000    9.400930000 XXXX 1      xx      P   0.000
In       2.808530000    4.544480000    9.372070000 XXXX 1      xx      In  0.000
In       8.206080000    4.436260000    9.474490000 XXXX 1      xx      In  0.000
In      13.213510000    4.552600000    9.477990000 XXXX 1      xx      In  0.000
In       2.553240000   10.219580000    9.752920000 XXXX 1      xx      In  0.000
In       8.147170000    9.989090000    9.448610000 XXXX 1      xx      In  0.000
In      13.343770000   10.084470000    9.305930000 XXXX 1      xx      In  0.000
In       3.040990000   15.547050000    9.461550000 XXXX 1      xx      In  0.000
In       8.282630000   15.839790000    9.410950000 XXXX 1      xx      In  0.000
In      13.540550000   16.006950000    9.392230000 XXXX 1      xx      In  0.000
In       0.139160000    4.214280000   11.770420000 XXXX 1      xx      In  0.000
In       5.463730000    4.725170000   11.676560000 XXXX 1      xx      In  0.000
In      10.629020000    4.763570000   11.555450000 XXXX 1      xx      In  0.000
In      15.945970000   10.395580000   12.072720000 XXXX 1      xx      In  0.000
In       5.645620000   10.247610000   11.863790000 XXXX 1      xx      In  0.000
In      10.704890000   10.259170000   11.776780000 XXXX 1      xx      In  0.000
In      16.085390000   16.056800000   11.611880000 XXXX 1      xx      In  0.000
In       5.812140000   16.036110000   11.821870000 XXXX 1      xx      In  0.000
In      10.998500000   16.062340000   11.759650000 XXXX 1      xx      In  0.000
end
end
                                                                          0.0000
!DATE     May 15 21:11:07 2019
PBC   15.845   16.830   21.258   90.000   90.000   87.648
P        5.273260000    1.756810000   12.054720000 XXXX 1      xx      P   0.000
P       10.316770000    1.751400000   11.918130000 XXXX 1      xx      P   0.000
P       15.572070000    1.908950000   11.577190000 XXXX 1      xx      P   0.000
P        5.357040000    7.440650000   11.524900000 XXXX 1      xx      P   0.000
P       10.421770000    7.266630000   11.565090000 XXXX 1      xx      P   0.000
P       15.605410000    7.275180000   11.805240000 XXXX 1      xx      P   0.000
P        5.439160000   12.924670000   11.615960000 XXXX 1      xx      P   0.000
P       10.622590000   12.971270000   11.558010000 XXXX 1      xx      P   0.000
P       15.883150000   13.103220000   11.870930000 XXXX 1      xx      P   0.000
P        0.139040000    3.987840000    9.073770000 XXXX 1      xx      P   0.000
P        5.443520000    3.936480000    9.057950000 XXXX 1      xx      P   0.000
P       10.533050000    3.708130000    8.846270000 XXXX 1      xx      P   0.000
P       15.954660000    9.619020000    9.415590000 XXXX 1      xx      P   0.000
P        5.452280000    9.820370000    9.100610000 XXXX 1      xx      P   0.000
P       10.636280000    9.739190000    8.972010000 XXXX 1      xx      P   0.000
P        0.319190000   15.106390000    8.995420000 XXXX 1      xx      P   0.000
P        5.578220000   15.419830000    9.082310000 XXXX 1      xx      P   0.000
P       10.986000000   15.335450000    9.163230000 XXXX 1      xx      P   0.000
P        2.543470000    1.448510000    9.552730000 XXXX 1      xx      P   0.000
P        7.618060000    1.660490000    9.211360000 XXXX 1      xx      P   0.000
P       12.935450000    1.869740000    9.643480000 XXXX 1      xx      P   0.000
P        2.654800000    7.202780000   10.059860000 XXXX 1      xx      P   0.000
P        7.764540000    7.235590000    9.546730000 XXXX 1      xx      P   0.000
P       13.006220000    7.222910000    9.294150000 XXXX 1      xx      P   0.000
P        2.665600000   12.773530000    9.631540000 XXXX 1      xx      P   0.000
P        8.049060000   12.822290000    9.701760000 XXXX 1      xx      P   0.000
P       13.292450000   12.949560000    9.669250000 XXXX 1      xx      P   0.000
P        2.797520000    4.005290000   12.154370000 XXXX 1      xx      P   0.000
P        7.898430000    3.950140000   12.193930000 XXXX 1      xx      P   0.000
P       13.180600000    4.257550000   12.281540000 XXXX 1      xx      P   0.000
P        2.896460000    9.624280000   12.368950000 XXXX 1      xx      P   0.000
P        8.197170000    9.608800000   12.310930000 XXXX 1      xx      P   0.000
P       13.283240000    9.590320000   11.974060000 XXXX 1      xx      P   0.000
P        2.992870000   15.230040000   12.106700000 XXXX 1      xx      P   0.000
P        8.443840000   15.562220000   12.164510000 XXXX 1      xx      P   0.000
P       13.492420000   15.560230000   12.105600000 XXXX 1      xx      P   0.000
P        2.985830000    1.794570000   11.936000000 XXXX 1      xx      P   0.000
P        8.072730000    1.805740000   11.475530000 XXXX 1      xx      P   0.000
P       13.337790000    2.098950000   11.820500000 XXXX 1      xx      P   0.000
P        3.200050000    7.451920000   12.233620000 XXXX 1      xx      P   0.000
P        8.215950000    7.487740000   11.783450000 XXXX 1      xx      P   0.000
P       13.381130000    7.343420000   11.490630000 XXXX 1      xx      P   0.000
P        3.204020000   13.026640000   11.795140000 XXXX 1      xx      P   0.000
P        8.458310000   13.332460000   11.919880000 XXXX 1      xx      P   0.000
P       13.635160000   13.347690000   11.860750000 XXXX 1      xx      P   0.000
P        0.340490000    1.853970000    9.414160000 XXXX 1      xx      P   0.000
P        5.416450000    1.817510000    9.728610000 XXXX 1      xx      P   0.000
P       10.687190000    1.672000000    9.690360000 XXXX 1      xx      P   0.000
P        0.451300000    7.077560000    9.752100000 XXXX 1      xx      P   0.000
P        5.545440000    7.629280000    9.347070000 XXXX 1      xx      P   0.000
P       10.794250000    7.542400000    9.336300000 XXXX 1      xx      P   0.000
P        0.422400000   12.952020000    9.591100000 XXXX 1      xx      P   0.000
P        5.869960000   13.219510000    9.434140000 XXXX 1      xx      P   0.000
P       11.098150000   13.096000000    9.406260000 XXXX 1      xx      P   0.000
In       2.810980000    4.544550000    9.368260000 XXXX 1      xx      In  0.000
In       8.206930000    4.433520000    9.472240000 XXXX 1      xx      In  0.000
In      13.210950000    4.548060000    9.475530000 XXXX 1      xx      In  0.000
In       2.545250000   10.218950000    9.761270000 XXXX 1      xx      In  0.000
In       8.143540000    9.986360000    9.449830000 XXXX 1      xx      In  0.000
In      13.343510000   10.079670000    9.303900000 XXXX 1      xx      In  0.000
In       3.040630000   15.546500000    9.461430000 XXXX 1      xx      In  0.000
In       8.285520000   15.838410000    9.409560000 XXXX 1      xx      In  0.000
In      13.540550000   16.004850000    9.389660000 XXXX 1      xx      In  0.000
In       0.139490000    4.210070000   11.771080000 XXXX 1      xx      In  0.000
In       5.465260000    4.728540000   11.671530000 XXXX 1      xx      In  0.000
In      10.626910000    4.763350000   11.549120000 XXXX 1      xx      In  0.000
In      15.941860000   10.393320000   12.078890000 XXXX 1      xx      In  0.000
In       5.648510000   10.252170000   11.867180000 XXXX 1      xx      In  0.000
In      10.702860000   10.260920000   11.775880000 XXXX 1      xx      In  0.000
In      16.085830000   16.059770000   11.609700000 XXXX 1      xx      In  0.000
In       5.814760000   16.041050000   11.824620000 XXXX 1      xx      In  0.000
In      11.000310000   16.062350000   11.759510000 XXXX 1      xx      In  0.000
end
end
                                                                          0.0000
!DATE     May 15 21:11:07 2019
PBC   15.845   16.830   21.258   90.000   90.000   87.648
P        5.265060000    1.761150000   12.056170000 XXXX 1      xx      P   0.000
P       10.316990000    1.764770000   11.917590000 XXXX 1      xx      P   0.000
P       15.570590000    1.906860000   11.578940000 XXXX 1      xx      P   0.000
P        5.364720000    7.443840000   11.525550000 XXXX 1      xx      P   0.000
P       10.412570000    7.265260000   11.558260000 XXXX 1      xx      P   0.000
P       15.606390000    7.270990000   11.806370000 XXXX 1      xx      P   0.000
P        5.436270000   12.930170000   11.619000000 XXXX 1      xx      P   0.000
P       10.628490000   12.970350000   11.559770000 XXXX 1      xx      P   0.000
P       15.887860000   13.106450000   11.874280000 XXXX 1      xx      P   0.000
P        0.143310000    3.985170000    9.073670000 XXXX 1      xx      P   0.000
P        5.444780000    3.936660000    9.063110000 XXXX 1      xx      P   0.000
P       10.527990000    3.704000000    8.839080000 XXXX 1      xx      P   0.000
P       15.950270000    9.620570000    9.426520000 XXXX 1      xx      P   0.000
P        5.458640000    9.824020000    9.094110000 XXXX 1      xx      P   0.000
P       10.636800000    9.735040000    8.970340000 XXXX 1      xx      P   0.000
P        0.319030000   15.096040000    8.992160000 XXXX 1      xx      P   0.000
P        5.582150000   15.419710000    9.078570000 XXXX 1      xx      P   0.000
P       10.989380000   15.346680000    9.160130000 XXXX 1      xx      P   0.000
P        2.552510000    1.447220000    9.565780000 XXXX 1      xx      P   0.000
P        7.615780000    1.660870000    9.212260000 XXXX 1      xx      P   0.000
P       12.931070000    1.873350000    9.643830000 XXXX 1      xx      P   0.000
P        2.656730000    7.204260000   10.058660000 XXXX 1      xx      P   0.000
P        7.762080000    7.227760000    9.542420000 XXXX 1      xx      P   0.000
P       12.999140000    7.226230000    9.293060000 XXXX 1      xx      P   0.000
P        2.655240000   12.774820000    9.639930000 XXXX 1      xx      P   0.000
P        8.044790000   12.823390000    9.698550000 XXXX 1      xx      P   0.000
P       13.297940000   12.944860000    9.671000000 XXXX 1      xx      P   0.000
P        2.801320000    4.007860000   12.163350000 XXXX 1      xx      P   0.000
P        7.899070000    3.949250000   12.200080000 XXXX 1      xx      P   0.000
P       13.176100000    4.254840000   12.289380000 XXXX 1      xx      P   0.000
P        2.894000000    9.628010000   12.371530000 XXXX 1      xx      P   0.000
P        8.201830000    9.601140000   12.303140000 XXXX 1      xx      P   0.000
P       13.276810000    9.599730000   11.967610000 XXXX 1      xx      P   0.000
P        2.998240000   15.229960000   12.105680000 XXXX 1      xx      P   0.000
P        8.444990000   15.552000000   12.157060000 XXXX 1      xx      P   0.000
P       13.496100000   15.559700000   12.100640000 XXXX 1      xx      P   0.000
P        2.995550000    1.791420000   11.926410000 XXXX 1      xx      P   0.000
P        8.075000000    1.807860000   11.466070000 XXXX 1      xx      P   0.000
P       13.341420000    2.098330000   11.822020000 XXXX 1      xx      P   0.000
P        3.194150000    7.459020000   12.246840000 XXXX 1      xx      P   0.000
P        8.212900000    7.492000000   11.791760000 XXXX 1      xx      P   0.000
P       13.379140000    7.328470000   11.478930000 XXXX 1      xx      P   0.000
P        3.214020000   13.036340000   11.793600000 XXXX 1      xx      P   0.000
P        8.464780000   13.344080000   11.925060000 XXXX 1      xx      P   0.000
P       13.630330000   13.341540000   11.861190000 XXXX 1      xx      P   0.000
P        0.332290000    1.854350000    9.405650000 XXXX 1      xx      P   0.000
P        5.416390000    1.824660000    9.734840000 XXXX 1      xx      P   0.000
P       10.689330000    1.679660000    9.696860000 XXXX 1      xx      P   0.000
P        0.449520000    7.078990000    9.768340000 XXXX 1      xx      P   0.000
P        5.546360000    7.629700000    9.348040000 XXXX 1      xx      P   0.000
P       10.805650000    7.540470000    9.329840000 XXXX 1      xx      P   0.000
P        0.420750000   12.957340000    9.585540000 XXXX 1      xx      P   0.000
P        5.877560000   13.217770000    9.437730000 XXXX 1      xx      P   0.000
P       11.098780000   13.091530000    9.411400000 XXXX 1      xx      P   0.000
In       2.813450000    4.544560000    9.364720000 XXXX 1      xx      In  0.000
In       8.207370000    4.431050000    9.470070000 XXXX 1      xx      In  0.000
In      13.208520000    4.543700000    9.473130000 XXXX 1      xx      In  0.000
In       2.537720000   10.218040000    9.769400000 XXXX 1      xx      In  0.000
In       8.139740000    9.983910000    9.451120000 XXXX 1      xx      In  0.000
In      13.343280000   10.075230000    9.302100000 XXXX 1      xx      In  0.000
In       3.040130000   15.546200000    9.461360000 XXXX 1      xx      In  0.000
In       8.288450000   15.836950000    9.408210000 XXXX 1      xx      In  0.000
In      13.540650000   16.002690000    9.387140000 XXXX 1      xx      In  0.000
In       0.139840000    4.206210000   11.771780000 XXXX 1      xx      In  0.000
In       5.466640000    4.731880000   11.666540000 XXXX 1      xx      In  0.000
In      10.624860000    4.762740000   11.543000000 XXXX 1      xx      In  0.000
In      15.937850000   10.391020000   12.084810000 XXXX 1      xx      In  0.000
In       5.651230000   10.256690000   11.870350000 XXXX 1      xx      In  0.000
In      10.700970000   10.262740000   11.774890000 XXXX 1      xx      In  0.000
In      16.086530000   16.062650000   11.607680000 XXXX 1      xx      In  0.000
In       5.817200000   16.045580000   11.827250000 XXXX 1      xx      In  0.000
In      11.002020000   16.062080000   11.759360000 XXXX 1      xx      In  0.000
end
end
                                                                          0.0000
!DATE     May 15 21:11:07 2019
PBC   15.845   16.830   21.258   90.000   90.000   87.648
P        5.256380000    1.765590000   12.056860000 XXXX 1      xx      P   0.000
P       10.316650000    1.778640000   11.916420000 XXXX 1      xx      P   0.000
P       15.569240000    1.904630000   11.580500000 XXXX 1      xx      P   0.000
P        5.371550000    7.446070000   11.527170000 XXXX 1      xx      P   0.000
P       10.403610000    7.264920000   11.551350000 XXXX 1      xx      P   0.000
P       15.607020000    7.266620000   11.808110000 XXXX 1      xx      P   0.000
P        5.433300000   12.935810000   11.621910000 XXXX 1      xx      P   0.000
P       10.634310000   12.969300000   11.562360000 XXXX 1      xx      P   0.000
P       15.891910000   13.109860000   11.876810000 XXXX 1      xx      P   0.000
P        0.147450000    3.983080000    9.073620000 XXXX 1      xx      P   0.000
P        5.445880000    3.937030000    9.068290000 XXXX 1      xx      P   0.000
P       10.524020000    3.700690000    8.832030000 XXXX 1      xx      P   0.000
P       15.946250000    9.622170000    9.437080000 XXXX 1      xx      P   0.000
P        5.464790000    9.827550000    9.088210000 XXXX 1      xx      P   0.000
P       10.638390000    9.730720000    8.969040000 XXXX 1      xx      P   0.000
P        0.318900000   15.086020000    8.989380000 XXXX 1      xx      P   0.000
P        5.587000000   15.418960000    9.075470000 XXXX 1      xx      P   0.000
P       10.992140000   15.357340000    9.156970000 XXXX 1      xx      P   0.000
P        2.561150000    1.446440000    9.579370000 XXXX 1      xx      P   0.000
P        7.613450000    1.661080000    9.213870000 XXXX 1      xx      P   0.000
P       12.926780000    1.876090000    9.644220000 XXXX 1      xx      P   0.000
P        2.658440000    7.205450000   10.057150000 XXXX 1      xx      P   0.000
P        7.759690000    7.219880000    9.538660000 XXXX 1      xx      P   0.000
P       12.992440000    7.229620000    9.291960000 XXXX 1      xx      P   0.000
P        2.645000000   12.776410000    9.648130000 XXXX 1      xx      P   0.000
P        8.040490000   12.825280000    9.695980000 XXXX 1      xx      P   0.000
P       13.303290000   12.939780000    9.672450000 XXXX 1      xx      P   0.000
P        2.805400000    4.009850000   12.171750000 XXXX 1      xx      P   0.000
P        7.900920000    3.948110000   12.205730000 XXXX 1      xx      P   0.000
P       13.171600000    4.252380000   12.296330000 XXXX 1      xx      P   0.000
P        2.891480000    9.632180000   12.374090000 XXXX 1      xx      P   0.000
P        8.206430000    9.594260000   12.295120000 XXXX 1      xx      P   0.000
P       13.270400000    9.608230000   11.961160000 XXXX 1      xx      P   0.000
P        3.003310000   15.229940000   12.104490000 XXXX 1      xx      P   0.000
P        8.445410000   15.541440000   12.149430000 XXXX 1      xx      P   0.000
P       13.500470000   15.558660000   12.095710000 XXXX 1      xx      P   0.000
P        3.004810000    1.788740000   11.916230000 XXXX 1      xx      P   0.000
P        8.077250000    1.810360000   11.457320000 XXXX 1      xx      P   0.000
P       13.345070000    2.097340000   11.823190000 XXXX 1      xx      P   0.000
P        3.188320000    7.465860000   12.258700000 XXXX 1      xx      P   0.000
P        8.209890000    7.495340000   11.799170000 XXXX 1      xx      P   0.000
P       13.377570000    7.314990000   11.468450000 XXXX 1      xx      P   0.000
P        3.223560000   13.046000000   11.792230000 XXXX 1      xx      P   0.000
P        8.471130000   13.354970000   11.929130000 XXXX 1      xx      P   0.000
P       13.625830000   13.335260000   11.861710000 XXXX 1      xx      P   0.000
P        0.324310000    1.853630000    9.397710000 XXXX 1      xx      P   0.000
P        5.416660000    1.831830000    9.740900000 XXXX 1      xx      P   0.000
P       10.691590000    1.687630000    9.703260000 XXXX 1      xx      P   0.000
P        0.447840000    7.081200000    9.783630000 XXXX 1      xx      P   0.000
P        5.547340000    7.629930000    9.348890000 XXXX 1      xx      P   0.000
P       10.816230000    7.538530000    9.323710000 XXXX 1      xx      P   0.000
P        0.419160000   12.962170000    9.580580000 XXXX 1      xx      P   0.000
P        5.884570000   13.215840000    9.441460000 XXXX 1      xx      P   0.000
P       11.099410000   13.088010000    9.416260000 XXXX 1      xx      P   0.000
In       2.815920000    4.544520000    9.361440000 XXXX 1      xx      In  0.000
In       8.207410000    4.428850000    9.467990000 XXXX 1      xx      In  0.000
In      13.206240000    4.539520000    9.470810000 XXXX 1      xx      In  0.000
In       2.530640000   10.216870000    9.777290000 XXXX 1      xx      In  0.000
In       8.135780000    9.981740000    9.452480000 XXXX 1      xx      In  0.000
In      13.343080000   10.071170000    9.300500000 XXXX 1      xx      In  0.000
In       3.039510000   15.546170000    9.461340000 XXXX 1      xx      In  0.000
In       8.291430000   15.835440000    9.406880000 XXXX 1      xx      In  0.000
In      13.540840000   16.000480000    9.384680000 XXXX 1      xx      In  0.000
In       0.140220000    4.202690000   11.772490000 XXXX 1      xx      In  0.000
In       5.467860000    4.735180000   11.661590000 XXXX 1      xx      In  0.000
In      10.622850000    4.761750000   11.537110000 XXXX 1      xx      In  0.000
In      15.933920000   10.388670000   12.090470000 XXXX 1      xx      In  0.000
In       5.653790000   10.261170000   11.873280000 XXXX 1      xx      In  0.000
In      10.699240000   10.264630000   11.773830000 XXXX 1      xx      In  0.000
In      16.087480000   16.065440000   11.605820000 XXXX 1      xx      In  0.000
In       5.819470000   16.049690000   11.829750000 XXXX 1      xx      In  0.000
In      11.003620000   16.061570000   11.759210000 XXXX 1      xx      In  0.000
end
end
                                                                          0.0000
!DATE     May 15 21:11:07 2019
PBC   15.845   16.830   21.258   90.000   90.000   87.648
P        5.247400000    1.770120000   12.056830000 XXXX 1      xx      P   0.000
P       10.315780000    1.792860000   11.914710000 XXXX 1      xx      P   0.000
P       15.568050000    1.902290000   11.581820000 XXXX 1      xx      P   0.000
P        5.377420000    7.447380000   11.529760000 XXXX 1      xx      P   0.000
P       10.395000000    7.265540000   11.544380000 XXXX 1      xx      P   0.000
P       15.607210000    7.262080000   11.810620000 XXXX 1      xx      P   0.000
P        5.430390000   12.941550000   11.624700000 XXXX 1      xx      P   0.000
P       10.640010000   12.968170000   11.565780000 XXXX 1      xx      P   0.000
P       15.895230000   13.113390000   11.878500000 XXXX 1      xx      P   0.000
P        0.151400000    3.981600000    9.073610000 XXXX 1      xx      P   0.000
P        5.446820000    3.937630000    9.073410000 XXXX 1      xx      P   0.000
P       10.521150000    3.698210000    8.825100000 XXXX 1      xx      P   0.000
P       15.942570000    9.623790000    9.447260000 XXXX 1      xx      P   0.000
P        5.470680000    9.830940000    9.082930000 XXXX 1      xx      P   0.000
P       10.640990000    9.726270000    8.968110000 XXXX 1      xx      P   0.000
P        0.318790000   15.076490000    8.987030000 XXXX 1      xx      P   0.000
P        5.592690000   15.417570000    9.073050000 XXXX 1      xx      P   0.000
P       10.994290000   15.367320000    9.153760000 XXXX 1      xx      P   0.000
P        2.569320000    1.446210000    9.593350000 XXXX 1      xx      P   0.000
P        7.611090000    1.661120000    9.216100000 XXXX 1      xx      P   0.000
P       12.922630000    1.877930000    9.644700000 XXXX 1      xx      P   0.000
P        2.659920000    7.206360000   10.055490000 XXXX 1      xx      P   0.000
P        7.757380000    7.212010000    9.535500000 XXXX 1      xx      P   0.000
P       12.986320000    7.232990000    9.290750000 XXXX 1      xx      P   0.000
P        2.634970000   12.778260000    9.656080000 XXXX 1      xx      P   0.000
P        8.036280000   12.827880000    9.694100000 XXXX 1      xx      P   0.000
P       13.308440000   12.934340000    9.673570000 XXXX 1      xx      P   0.000
P        2.809740000    4.011210000   12.179590000 XXXX 1      xx      P   0.000
P        7.903920000    3.946740000   12.210850000 XXXX 1      xx      P   0.000
P       13.167130000    4.250160000   12.302380000 XXXX 1      xx      P   0.000
P        2.888930000    9.636770000   12.376660000 XXXX 1      xx      P   0.000
P        8.210920000    9.588320000   12.286940000 XXXX 1      xx      P   0.000
P       13.264040000    9.615690000   11.954740000 XXXX 1      xx      P   0.000
P        3.008090000   15.230080000   12.103150000 XXXX 1      xx      P   0.000
P        8.445130000   15.530790000   12.141660000 XXXX 1      xx      P   0.000
P       13.505470000   15.557100000   12.090840000 XXXX 1      xx      P   0.000
P        3.013440000    1.786560000   11.905600000 XXXX 1      xx      P   0.000
P        8.079470000    1.813230000   11.449370000 XXXX 1      xx      P   0.000
P       13.348700000    2.095980000   11.824030000 XXXX 1      xx      P   0.000
P        3.182660000    7.472400000   12.269080000 XXXX 1      xx      P   0.000
P        8.206910000    7.497590000   11.805550000 XXXX 1      xx      P   0.000
P       13.376390000    7.303100000   11.459300000 XXXX 1      xx      P   0.000
P        3.232530000   13.055520000   11.791080000 XXXX 1      xx      P   0.000
P        8.477340000   13.364880000   11.932050000 XXXX 1      xx      P   0.000
P       13.621780000   13.328900000   11.862330000 XXXX 1      xx      P   0.000
P        0.316670000    1.851780000    9.390430000 XXXX 1      xx      P   0.000
P        5.417250000    1.838940000    9.746750000 XXXX 1      xx      P   0.000
P       10.693930000    1.695830000    9.709500000 XXXX 1      xx      P   0.000
P        0.446350000    7.084150000    9.797760000 XXXX 1      xx      P   0.000
P        5.548360000    7.629990000    9.349640000 XXXX 1      xx      P   0.000
P       10.825770000    7.536600000    9.317920000 XXXX 1      xx      P   0.000
P        0.417580000   12.966390000    9.576300000 XXXX 1      xx      P   0.000
P        5.890900000   13.213760000    9.445300000 XXXX 1      xx      P   0.000
P       11.100090000   13.085500000    9.420790000 XXXX 1      xx      P   0.000
In       2.818390000    4.544410000    9.358430000 XXXX 1      xx      In  0.000
In       8.207040000    4.426900000    9.466000000 XXXX 1      xx      In  0.000
In      13.204090000    4.535530000    9.468560000 XXXX 1      xx      In  0.000
In       2.524020000   10.215440000    9.784940000 XXXX 1      xx      In  0.000
In       8.131680000    9.979840000    9.453880000 XXXX 1      xx      In  0.000
In      13.342900000   10.067480000    9.299120000 XXXX 1      xx      In  0.000
In       3.038760000   15.546380000    9.461360000 XXXX 1      xx      In  0.000
In       8.294450000   15.833870000    9.405590000 XXXX 1      xx      In  0.000
In      13.541140000   15.998210000    9.382270000 XXXX 1      xx      In  0.000
In       0.140630000    4.199500000   11.773220000 XXXX 1      xx      In  0.000
In       5.468940000    4.738450000   11.656700000 XXXX 1      xx      In  0.000
In      10.620890000    4.760400000   11.531420000 XXXX 1      xx      In  0.000
In      15.930070000   10.386290000   12.095910000 XXXX 1      xx      In  0.000
In       5.656190000   10.265620000   11.875980000 XXXX 1      xx      In  0.000
In      10.697650000   10.266580000   11.772680000 XXXX 1      xx      In  0.000
In      16.088680000   16.068110000   11.604090000 XXXX 1      xx      In  0.000
In       5.821560000   16.053410000   11.832120000 XXXX 1      xx      In  0.000
In      11.005120000   16.060850000   11.759060000 XXXX 1      xx      In  0.000
end
end
                                                                          0.0000
!DATE     May 15 21:11:07 2019
PBC   15.845   16.830   21.258   90.000   90.000   87.648
P        5.238280000    1.774720000   12.056140000 XXXX 1      xx      P   0.000
P       10.314370000    1.807300000   11.912510000 XXXX 1      xx      P   0.000
P       15.567050000    1.899860000   11.582830000 XXXX 1      xx      P   0.000
P        5.382290000    7.447810000   11.533280000 XXXX 1      xx      P   0.000
P       10.386810000    7.267040000   11.537360000 XXXX 1      xx      P   0.000
P       15.606890000    7.257370000   11.814000000 XXXX 1      xx      P   0.000
P        5.427650000   12.947350000   11.627350000 XXXX 1      xx      P   0.000
P       10.645600000   12.967000000   11.570030000 XXXX 1      xx      P   0.000
P       15.897790000   13.117000000   11.879320000 XXXX 1      xx      P   0.000
P        0.155160000    3.980750000    9.073650000 XXXX 1      xx      P   0.000
P        5.447610000    3.938520000    9.078430000 XXXX 1      xx      P   0.000
P       10.519360000    3.696600000    8.818260000 XXXX 1      xx      P   0.000
P       15.939250000    9.625400000    9.457050000 XXXX 1      xx      P   0.000
P        5.476310000    9.834150000    9.078270000 XXXX 1      xx      P   0.000
P       10.644500000    9.721750000    8.967530000 XXXX 1      xx      P   0.000
P        0.318690000   15.067630000    8.985060000 XXXX 1      xx      P   0.000
P        5.599170000   15.415550000    9.071310000 XXXX 1      xx      P   0.000
P       10.995820000   15.376530000    9.150540000 XXXX 1      xx      P   0.000
P        2.576940000    1.446520000    9.607570000 XXXX 1      xx      P   0.000
P        7.608720000    1.661000000    9.218880000 XXXX 1      xx      P   0.000
P       12.918710000    1.878870000    9.645270000 XXXX 1      xx      P   0.000
P        2.661170000    7.207020000   10.053780000 XXXX 1      xx      P   0.000
P        7.755150000    7.204160000    9.533000000 XXXX 1      xx      P   0.000
P       12.980940000    7.236260000    9.289360000 XXXX 1      xx      P   0.000
P        2.625250000   12.780340000    9.663720000 XXXX 1      xx      P   0.000
P        8.032300000   12.831150000    9.692960000 XXXX 1      xx      P   0.000
P       13.313330000   12.928580000    9.674380000 XXXX 1      xx      P   0.000
P        2.814300000    4.011950000   12.186810000 XXXX 1      xx      P   0.000
P        7.907980000    3.945130000   12.215400000 XXXX 1      xx      P   0.000
P       13.162720000    4.248210000   12.307540000 XXXX 1      xx      P   0.000
P        2.886340000    9.641790000   12.379250000 XXXX 1      xx      P   0.000
P        8.215290000    9.583470000   12.278630000 XXXX 1      xx      P   0.000
P       13.257750000    9.622030000   11.948340000 XXXX 1      xx      P   0.000
P        3.012550000   15.230480000   12.101690000 XXXX 1      xx      P   0.000
P        8.444220000   15.520330000   12.133810000 XXXX 1      xx      P   0.000
P       13.511020000   15.554980000   12.086020000 XXXX 1      xx      P   0.000
P        3.021280000    1.784930000   11.894660000 XXXX 1      xx      P   0.000
P        8.081660000    1.816460000   11.442280000 XXXX 1      xx      P   0.000
P       13.352260000    2.094250000   11.824530000 XXXX 1      xx      P   0.000
P        3.177240000    7.478600000   12.277910000 XXXX 1      xx      P   0.000
P        8.203930000    7.498620000   11.810810000 XXXX 1      xx      P   0.000
P       13.375630000    7.292860000   11.451610000 XXXX 1      xx      P   0.000
P        3.240820000   13.064850000   11.790210000 XXXX 1      xx      P   0.000
P        8.483380000   13.373580000   11.933800000 XXXX 1      xx      P   0.000
P       13.618230000   13.322530000   11.863060000 XXXX 1      xx      P   0.000
P        0.309480000    1.848800000    9.383880000 XXXX 1      xx      P   0.000
P        5.418130000    1.845930000    9.752360000 XXXX 1      xx      P   0.000
P       10.696290000    1.704160000    9.715540000 XXXX 1      xx      P   0.000
P        0.445120000    7.087820000    9.810600000 XXXX 1      xx      P   0.000
P        5.549420000    7.629940000    9.350290000 XXXX 1      xx      P   0.000
P       10.834070000    7.534690000    9.312480000 XXXX 1      xx      P   0.000
P        0.415950000   12.969870000    9.572780000 XXXX 1      xx      P   0.000
P        5.896450000   13.211610000    9.449240000 XXXX 1      xx      P   0.000
P       11.100860000   13.084080000    9.424960000 XXXX 1      xx      P   0.000
In       2.820850000    4.544250000    9.355680000 XXXX 1      xx      In  0.000
In       8.206290000    4.425200000    9.464100000 XXXX 1      xx      In  0.000
In      13.202080000    4.531730000    9.466380000 XXXX 1      xx      In  0.000
In       2.517830000   10.213780000    9.792380000 XXXX 1      xx      In  0.000
In       8.127460000    9.978210000    9.455330000 XXXX 1      xx      In  0.000
In      13.342740000   10.064140000    9.297930000 XXXX 1      xx      In  0.000
In       3.037930000   15.546830000    9.461420000 XXXX 1      xx      In  0.000
In       8.297510000   15.832250000    9.404300000 XXXX 1      xx      In  0.000
In      13.541550000   15.995910000    9.379910000 XXXX 1      xx      In  0.000
In       0.141080000    4.196630000   11.773950000 XXXX 1      xx      In  0.000
In       5.469900000    4.741700000   11.651870000 XXXX 1      xx      In  0.000
In      10.618990000    4.758700000   11.525950000 XXXX 1      xx      In  0.000
In      15.926290000   10.383900000   12.101130000 XXXX 1      xx      In  0.000
In       5.658430000   10.270020000   11.878460000 XXXX 1      xx      In  0.000
In      10.696210000   10.268590000   11.771440000 XXXX 1      xx      In  0.000
In      16.090130000   16.070670000   11.602510000 XXXX 1      xx      In  0.000
In       5.823490000   16.056740000   11.834350000 XXXX 1      xx      In  0.000
In      11.006520000   16.059950000   11.758910000 XXXX 1      xx      In  0.000
end
end
                                                                          0.0000
!DATE     May 15 21:11:07 2019
PBC   15.845   16.830   21.258   90.000   90.000   87.648
P        5.229170000    1.779350000   12.054840000 XXXX 1      xx      P   0.000
P       10.312440000    1.821840000   11.909910000 XXXX 1      xx      P   0.000
P       15.566270000    1.897360000   11.583520000 XXXX 1      xx      P   0.000
P        5.386110000    7.447390000   11.537710000 XXXX 1      xx      P   0.000
P       10.379100000    7.269330000   11.530300000 XXXX 1      xx      P   0.000
P       15.606010000    7.252480000   11.818370000 XXXX 1      xx      P   0.000
P        5.425180000   12.953190000   11.629860000 XXXX 1      xx      P   0.000
P       10.651050000   12.965820000   11.575080000 XXXX 1      xx      P   0.000
P       15.899550000   13.120650000   11.879280000 XXXX 1      xx      P   0.000
P        0.158690000    3.980500000    9.073730000 XXXX 1      xx      P   0.000
P        5.448280000    3.939730000    9.083320000 XXXX 1      xx      P   0.000
P       10.518610000    3.695860000    8.811480000 XXXX 1      xx      P   0.000
P       15.936250000    9.627000000    9.466480000 XXXX 1      xx      P   0.000
P        5.481660000    9.837160000    9.074230000 XXXX 1      xx      P   0.000
P       10.648840000    9.717190000    8.967280000 XXXX 1      xx      P   0.000
P        0.318590000   15.059580000    8.983430000 XXXX 1      xx      P   0.000
P        5.606360000   15.412930000    9.070260000 XXXX 1      xx      P   0.000
P       10.996740000   15.384920000    9.147330000 XXXX 1      xx      P   0.000
P        2.583970000    1.447380000    9.621870000 XXXX 1      xx      P   0.000
P        7.606340000    1.660730000    9.222140000 XXXX 1      xx      P   0.000
P       12.915070000    1.878900000    9.645930000 XXXX 1      xx      P   0.000
P        2.662190000    7.207460000   10.052130000 XXXX 1      xx      P   0.000
P        7.753000000    7.196360000    9.531170000 XXXX 1      xx      P   0.000
P       12.976460000    7.239350000    9.287710000 XXXX 1      xx      P   0.000
P        2.615930000   12.782600000    9.671030000 XXXX 1      xx      P   0.000
P        8.028670000   12.835010000    9.692560000 XXXX 1      xx      P   0.000
P       13.317920000   12.922510000    9.674860000 XXXX 1      xx      P   0.000
P        2.819070000    4.012050000   12.193420000 XXXX 1      xx      P   0.000
P        7.913010000    3.943340000   12.219360000 XXXX 1      xx      P   0.000
P       13.158390000    4.246520000   12.311820000 XXXX 1      xx      P   0.000
P        2.883730000    9.647220000   12.381900000 XXXX 1      xx      P   0.000
P        8.219520000    9.579840000   12.270220000 XXXX 1      xx      P   0.000
P       13.251550000    9.627210000   11.941960000 XXXX 1      xx      P   0.000
P        3.016690000   15.231240000   12.100120000 XXXX 1      xx      P   0.000
P        8.442730000   15.510290000   12.125910000 XXXX 1      xx      P   0.000
P       13.517050000   15.552310000   12.081240000 XXXX 1      xx      P   0.000
P        3.028170000    1.783880000   11.883540000 XXXX 1      xx      P   0.000
P        8.083820000    1.820050000   11.436120000 XXXX 1      xx      P   0.000
P       13.355690000    2.092180000   11.824700000 XXXX 1      xx      P   0.000
P        3.172130000    7.484440000   12.285150000 XXXX 1      xx      P   0.000
P        8.200940000    7.498320000   11.814880000 XXXX 1      xx      P   0.000
P       13.375250000    7.284300000   11.445450000 XXXX 1      xx      P   0.000
P        3.248350000   13.073890000   11.789670000 XXXX 1      xx      P   0.000
P        8.489240000   13.380840000   11.934370000 XXXX 1      xx      P   0.000
P       13.615270000   13.316190000   11.863910000 XXXX 1      xx      P   0.000
P        0.302810000    1.844700000    9.378100000 XXXX 1      xx      P   0.000
P        5.419280000    1.852730000    9.757710000 XXXX 1      xx      P   0.000
P       10.698640000    1.712570000    9.721320000 XXXX 1      xx      P   0.000
P        0.444210000    7.092180000    9.822010000 XXXX 1      xx      P   0.000
P        5.550500000    7.629810000    9.350870000 XXXX 1      xx      P   0.000
P       10.840970000    7.532820000    9.307390000 XXXX 1      xx      P   0.000
P        0.414220000   12.972520000    9.570110000 XXXX 1      xx      P   0.000
P        5.901150000   13.209420000    9.453250000 XXXX 1      xx      P   0.000
P       11.101780000   13.083760000    9.428780000 XXXX 1      xx      P   0.000
In       2.823300000    4.544040000    9.353190000 XXXX 1      xx      In  0.000
In       8.205160000    4.423740000    9.462280000 XXXX 1      xx      In  0.000
In      13.200210000    4.528120000    9.464250000 XXXX 1      xx      In  0.000
In       2.512050000   10.211890000    9.799610000 XXXX 1      xx      In  0.000
In       8.123130000    9.976820000    9.456800000 XXXX 1      xx      In  0.000
In      13.342590000   10.061150000    9.296920000 XXXX 1      xx      In  0.000
In       3.037020000   15.547520000    9.461510000 XXXX 1      xx      In  0.000
In       8.300620000   15.830570000    9.403030000 XXXX 1      xx      In  0.000
In      13.542060000   15.993550000    9.377600000 XXXX 1      xx      In  0.000
In       0.141570000    4.194070000   11.774700000 XXXX 1      xx      In  0.000
In       5.470740000    4.744930000   11.647100000 XXXX 1      xx      In  0.000
In      10.617120000    4.756690000   11.520670000 XXXX 1      xx      In  0.000
In      15.922580000   10.381490000   12.106160000 XXXX 1      xx      In  0.000
In       5.660510000   10.274400000   11.880730000 XXXX 1      xx      In  0.000
In      10.694900000   10.270650000   11.770120000 XXXX 1      xx      In  0.000
In      16.091820000   16.073130000   11.601070000 XXXX 1      xx      In  0.000
In       5.825260000   16.059700000   11.836450000 XXXX 1      xx      In  0.000
In      11.007850000   16.058900000   11.758770000 XXXX 1      xx      In  0.000
end
end
                                                                          0.0000
!DATE     May 15 21:11:07 2019
PBC   15.845   16.830   21.258   90.000   90.000   87.648
P        5.220230000    1.783990000   12.053000000 XXXX 1      xx      P   0.000
P       10.310010000    1.836380000   11.906980000 XXXX 1      xx      P   0.000
P       15.565730000    1.894820000   11.583840000 XXXX 1      xx      P   0.000
P        5.388850000    7.446180000   11.543010000 XXXX 1      xx      P   0.000
P       10.371910000    7.272320000   11.523200000 XXXX 1      xx      P   0.000
P       15.604520000    7.247420000   11.823790000 XXXX 1      xx      P   0.000
P        5.423080000   12.959050000   11.632250000 XXXX 1      xx      P   0.000
P       10.656370000   12.964680000   11.580900000 XXXX 1      xx      P   0.000
P       15.900490000   13.124300000   11.878380000 XXXX 1      xx      P   0.000
P        0.161970000    3.980820000    9.073890000 XXXX 1      xx      P   0.000
P        5.448830000    3.941320000    9.088050000 XXXX 1      xx      P   0.000
P       10.518870000    3.696040000    8.804720000 XXXX 1      xx      P   0.000
P       15.933560000    9.628570000    9.475550000 XXXX 1      xx      P   0.000
P        5.486710000    9.839930000    9.070790000 XXXX 1      xx      P   0.000
P       10.653910000    9.712650000    8.967360000 XXXX 1      xx      P   0.000
P        0.318470000   15.052450000    8.982100000 XXXX 1      xx      P   0.000
P        5.614180000   15.409720000    9.069890000 XXXX 1      xx      P   0.000
P       10.997070000   15.392440000    9.144130000 XXXX 1      xx      P   0.000
P        2.590380000    1.448780000    9.636110000 XXXX 1      xx      P   0.000
P        7.603980000    1.660330000    9.225810000 XXXX 1      xx      P   0.000
P       12.911770000    1.878040000    9.646700000 XXXX 1      xx      P   0.000
P        2.662990000    7.207700000   10.050600000 XXXX 1      xx      P   0.000
P        7.750920000    7.188630000    9.530040000 XXXX 1      xx      P   0.000
P       12.973040000    7.242210000    9.285770000 XXXX 1      xx      P   0.000
P        2.607050000   12.784990000    9.677990000 XXXX 1      xx      P   0.000
P        8.025520000   12.839390000    9.692920000 XXXX 1      xx      P   0.000
P       13.322170000   12.916160000    9.675040000 XXXX 1      xx      P   0.000
P        2.824020000    4.011530000   12.199410000 XXXX 1      xx      P   0.000
P        7.918920000    3.941390000   12.222710000 XXXX 1      xx      P   0.000
P       13.154160000    4.245070000   12.315210000 XXXX 1      xx      P   0.000
P        2.881120000    9.653060000   12.384640000 XXXX 1      xx      P   0.000
P        8.223560000    9.577490000   12.261740000 XXXX 1      xx      P   0.000
P       13.245470000    9.631180000   11.935620000 XXXX 1      xx      P   0.000
P        3.020520000   15.232430000   12.098440000 XXXX 1      xx      P   0.000
P        8.440740000   15.500880000   12.117990000 XXXX 1      xx      P   0.000
P       13.523500000   15.549060000   12.076500000 XXXX 1      xx      P   0.000
P        3.033980000    1.783420000   11.872360000 XXXX 1      xx      P   0.000
P        8.085950000    1.823960000   11.430950000 XXXX 1      xx      P   0.000
P       13.358970000    2.089760000   11.824540000 XXXX 1      xx      P   0.000
P        3.167360000    7.489920000   12.290750000 XXXX 1      xx      P   0.000
P        8.197910000    7.496620000   11.817750000 XXXX 1      xx      P   0.000
P       13.375250000    7.277410000   11.440850000 XXXX 1      xx      P   0.000
P        3.255050000   13.082590000   11.789490000 XXXX 1      xx      P   0.000
P        8.494910000   13.386440000   11.933760000 XXXX 1      xx      P   0.000
P       13.612930000   13.309920000   11.864860000 XXXX 1      xx      P   0.000
P        0.296710000    1.839550000    9.373140000 XXXX 1      xx      P   0.000
P        5.420700000    1.859270000    9.762760000 XXXX 1      xx      P   0.000
P       10.700930000    1.720990000    9.726810000 XXXX 1      xx      P   0.000
P        0.443660000    7.097180000    9.831920000 XXXX 1      xx      P   0.000
P        5.551600000    7.629620000    9.351430000 XXXX 1      xx      P   0.000
P       10.846310000    7.531000000    9.302630000 XXXX 1      xx      P   0.000
P        0.412330000   12.974230000    9.568320000 XXXX 1      xx      P   0.000
P        5.904940000   13.207240000    9.457300000 XXXX 1      xx      P   0.000
P       11.102880000   13.084570000    9.432240000 XXXX 1      xx      P   0.000
In       2.825750000    4.543770000    9.350960000 XXXX 1      xx      In  0.000
In       8.203650000    4.422510000    9.460540000 XXXX 1      xx      In  0.000
In      13.198470000    4.524700000    9.462180000 XXXX 1      xx      In  0.000
In       2.506680000   10.209780000    9.806650000 XXXX 1      xx      In  0.000
In       8.118710000    9.975680000    9.458310000 XXXX 1      xx      In  0.000
In      13.342460000   10.058500000    9.296090000 XXXX 1      xx      In  0.000
In       3.036040000   15.548440000    9.461610000 XXXX 1      xx      In  0.000
In       8.303760000   15.828850000    9.401750000 XXXX 1      xx      In  0.000
In      13.542680000   15.991150000    9.375320000 XXXX 1      xx      In  0.000
In       0.142110000    4.191800000   11.775450000 XXXX 1      xx      In  0.000
In       5.471470000    4.748160000   11.642400000 XXXX 1      xx      In  0.000
In      10.615300000    4.754370000   11.515580000 XXXX 1      xx      In  0.000
In      15.918900000   10.379080000   12.111020000 XXXX 1      xx      In  0.000
In       5.662450000   10.278770000   11.882780000 XXXX 1      xx      In  0.000
In      10.693740000   10.272770000   11.768700000 XXXX 1      xx      In  0.000
In      16.093770000   16.075470000   11.599740000 XXXX 1      xx      In  0.000
In       5.826880000   16.062310000   11.838410000 XXXX 1      xx      In  0.000
In      11.009090000   16.057740000   11.758640000 XXXX 1      xx      In  0.000
end
end
                                                                          0.0000
!DATE     May 15 21:11:07 2019
PBC   15.845   16.830   21.258   90.000   90.000   87.648
P        5.211600000    1.788600000   12.050650000 XXXX 1      xx      P   0.000
P       10.307090000    1.850850000   11.903780000 XXXX 1      xx      P   0.000
P       15.565460000    1.892250000   11.583760000 XXXX 1      xx      P   0.000
P        5.390480000    7.444220000   11.549120000 XXXX 1      xx      P   0.000
P       10.365270000    7.275900000   11.516070000 XXXX 1      xx      P   0.000
P       15.602400000    7.242200000   11.830310000 XXXX 1      xx      P   0.000
P        5.421420000   12.964900000   11.634520000 XXXX 1      xx      P   0.000
P       10.661570000   12.963610000   11.587470000 XXXX 1      xx      P   0.000
P       15.900600000   13.127900000   11.876630000 XXXX 1      xx      P   0.000
P        0.164990000    3.981650000    9.074120000 XXXX 1      xx      P   0.000
P        5.449300000    3.943330000    9.092590000 XXXX 1      xx      P   0.000
P       10.520090000    3.697110000    8.797940000 XXXX 1      xx      P   0.000
P       15.931160000    9.630120000    9.484280000 XXXX 1      xx      P   0.000
P        5.491490000    9.842450000    9.067940000 XXXX 1      xx      P   0.000
P       10.659620000    9.708140000    8.967760000 XXXX 1      xx      P   0.000
P        0.318340000   15.046360000    8.981030000 XXXX 1      xx      P   0.000
P        5.622560000   15.405940000    9.070190000 XXXX 1      xx      P   0.000
P       10.996850000   15.399090000    9.140980000 XXXX 1      xx      P   0.000
P        2.596150000    1.450700000    9.650110000 XXXX 1      xx      P   0.000
P        7.601640000    1.659800000    9.229820000 XXXX 1      xx      P   0.000
P       12.908860000    1.876290000    9.647590000 XXXX 1      xx      P   0.000
P        2.663560000    7.207760000   10.049260000 XXXX 1      xx      P   0.000
P        7.748920000    7.180970000    9.529610000 XXXX 1      xx      P   0.000
P       12.970790000    7.244770000    9.283500000 XXXX 1      xx      P   0.000
P        2.598680000   12.787460000    9.684560000 XXXX 1      xx      P   0.000
P        8.022940000   12.844210000    9.694050000 XXXX 1      xx      P   0.000
P       13.326060000   12.909540000    9.674920000 XXXX 1      xx      P   0.000
P        2.829130000    4.010400000   12.204790000 XXXX 1      xx      P   0.000
P        7.925640000    3.939320000   12.225460000 XXXX 1      xx      P   0.000
P       13.150070000    4.243840000   12.317730000 XXXX 1      xx      P   0.000
P        2.878500000    9.659300000   12.387490000 XXXX 1      xx      P   0.000
P        8.227370000    9.576440000   12.253200000 XXXX 1      xx      P   0.000
P       13.239550000    9.633940000   11.929330000 XXXX 1      xx      P   0.000
P        3.024050000   15.234140000   12.096680000 XXXX 1      xx      P   0.000
P        8.438300000   15.492360000   12.110060000 XXXX 1      xx      P   0.000
P       13.530300000   15.545240000   12.071780000 XXXX 1      xx      P   0.000
P        3.038570000    1.783570000   11.861290000 XXXX 1      xx      P   0.000
P        8.088030000    1.828180000   11.426820000 XXXX 1      xx      P   0.000
P       13.362060000    2.087010000   11.824090000 XXXX 1      xx      P   0.000
P        3.162960000    7.495040000   12.294740000 XXXX 1      xx      P   0.000
P        8.194810000    7.493510000   11.819370000 XXXX 1      xx      P   0.000
P       13.375610000    7.272200000   11.437830000 XXXX 1      xx      P   0.000
P        3.260840000   13.090910000   11.789720000 XXXX 1      xx      P   0.000
P        8.500390000   13.390180000   11.931970000 XXXX 1      xx      P   0.000
P       13.611260000   13.303750000   11.865900000 XXXX 1      xx      P   0.000
P        0.291230000    1.833410000    9.369020000 XXXX 1      xx      P   0.000
P        5.422350000    1.865520000    9.767480000 XXXX 1      xx      P   0.000
P       10.703140000    1.729390000    9.731960000 XXXX 1      xx      P   0.000
P        0.443510000    7.102780000    9.840310000 XXXX 1      xx      P   0.000
P        5.552690000    7.629400000    9.352000000 XXXX 1      xx      P   0.000
P       10.850000000    7.529200000    9.298180000 XXXX 1      xx      P   0.000
P        0.410220000   12.974940000    9.567470000 XXXX 1      xx      P   0.000
P        5.907770000   13.205100000    9.461390000 XXXX 1      xx      P   0.000
P       11.104180000   13.086530000    9.435350000 XXXX 1      xx      P   0.000
In       2.828180000    4.543440000    9.348970000 XXXX 1      xx      In  0.000
In       8.201780000    4.421510000    9.458870000 XXXX 1      xx      In  0.000
In      13.196870000    4.521460000    9.460160000 XXXX 1      xx      In  0.000
In       2.501690000   10.207480000    9.813530000 XXXX 1      xx      In  0.000
In       8.114200000    9.974780000    9.459830000 XXXX 1      xx      In  0.000
In      13.342340000   10.056180000    9.295420000 XXXX 1      xx      In  0.000
In       3.035020000   15.549590000    9.461740000 XXXX 1      xx      In  0.000
In       8.306960000   15.827070000    9.400460000 XXXX 1      xx      In  0.000
In      13.543410000   15.988690000    9.373080000 XXXX 1      xx      In  0.000
In       0.142700000    4.189810000   11.776200000 XXXX 1      xx      In  0.000
In       5.472120000    4.751390000   11.637760000 XXXX 1      xx      In  0.000
In      10.613510000    4.751770000   11.510650000 XXXX 1      xx      In  0.000
In      15.915250000   10.376660000   12.115750000 XXXX 1      xx      In  0.000
In       5.664250000   10.283130000   11.884640000 XXXX 1      xx      In  0.000
In      10.692710000   10.274940000   11.767190000 XXXX 1      xx      In  0.000
In      16.095980000   16.077700000   11.598540000 XXXX 1      xx      In  0.000
In       5.828350000   16.064590000   11.840260000 XXXX 1      xx      In  0.000
In      11.010260000   16.056470000   11.758510000 XXXX 1      xx      In  0.000
end
end
                                                                          0.0000
!DATE     May 15 21:11:07 2019
PBC   15.845   16.830   21.258   90.000   90.000   87.648
P        5.203410000    1.793170000   12.047840000 XXXX 1      xx      P   0.000
P       10.303700000    1.865170000   11.900380000 XXXX 1      xx      P   0.000
P       15.565480000    1.889670000   11.583270000 XXXX 1      xx      P   0.000
P        5.390980000    7.441570000   11.555990000 XXXX 1      xx      P   0.000
P       10.359240000    7.279980000   11.508900000 XXXX 1      xx      P   0.000
P       15.599660000    7.236830000   11.837920000 XXXX 1      xx      P   0.000
P        5.420270000   12.970730000   11.636710000 XXXX 1      xx      P   0.000
P       10.666670000   12.962630000   11.594720000 XXXX 1      xx      P   0.000
P       15.899880000   13.131420000   11.874050000 XXXX 1      xx      P   0.000
P        0.167740000    3.982910000    9.074430000 XXXX 1      xx      P   0.000
P        5.449690000    3.945800000    9.096920000 XXXX 1      xx      P   0.000
P       10.522210000    3.699110000    8.791110000 XXXX 1      xx      P   0.000
P       15.929020000    9.631660000    9.492710000 XXXX 1      xx      P   0.000
P        5.495960000    9.844680000    9.065690000 XXXX 1      xx      P   0.000
P       10.665900000    9.703730000    8.968450000 XXXX 1      xx      P   0.000
P        0.318160000   15.041390000    8.980170000 XXXX 1      xx      P   0.000
P        5.631420000   15.401610000    9.071170000 XXXX 1      xx      P   0.000
P       10.996100000   15.404860000    9.137880000 XXXX 1      xx      P   0.000
P        2.601240000    1.453130000    9.663730000 XXXX 1      xx      P   0.000
P        7.599350000    1.659160000    9.234130000 XXXX 1      xx      P   0.000
P       12.906380000    1.873660000    9.648610000 XXXX 1      xx      P   0.000
P        2.663930000    7.207670000   10.048170000 XXXX 1      xx      P   0.000
P        7.746980000    7.173400000    9.529880000 XXXX 1      xx      P   0.000
P       12.969810000    7.246980000    9.280900000 XXXX 1      xx      P   0.000
P        2.590870000   12.789970000    9.690750000 XXXX 1      xx      P   0.000
P        8.021020000   12.849420000    9.695930000 XXXX 1      xx      P   0.000
P       13.329560000   12.902660000    9.674520000 XXXX 1      xx      P   0.000
P        2.834360000    4.008670000   12.209550000 XXXX 1      xx      P   0.000
P        7.933080000    3.937180000   12.227620000 XXXX 1      xx      P   0.000
P       13.146120000    4.242810000   12.319370000 XXXX 1      xx      P   0.000
P        2.875890000    9.665920000   12.390490000 XXXX 1      xx      P   0.000
P        8.230900000    9.576660000   12.244600000 XXXX 1      xx      P   0.000
P       13.233830000    9.635460000   11.923110000 XXXX 1      xx      P   0.000
P        3.027290000   15.236460000   12.094840000 XXXX 1      xx      P   0.000
P        8.435440000   15.484860000   12.102130000 XXXX 1      xx      P   0.000
P       13.537380000   15.540810000   12.067070000 XXXX 1      xx      P   0.000
P        3.041820000    1.784360000   11.850460000 XXXX 1      xx      P   0.000
P        8.090060000    1.832690000   11.423760000 XXXX 1      xx      P   0.000
P       13.364920000    2.083930000   11.823350000 XXXX 1      xx      P   0.000
P        3.158950000    7.499820000   12.297100000 XXXX 1      xx      P   0.000
P        8.191640000    7.489010000   11.819750000 XXXX 1      xx      P   0.000
P       13.376310000    7.268640000   11.436380000 XXXX 1      xx      P   0.000
P        3.265670000   13.098790000   11.790370000 XXXX 1      xx      P   0.000
P        8.505660000   13.391890000   11.929020000 XXXX 1      xx      P   0.000
P       13.610300000   13.297710000   11.867030000 XXXX 1      xx      P   0.000
P        0.286390000    1.826350000    9.365780000 XXXX 1      xx      P   0.000
P        5.424220000    1.871440000    9.771850000 XXXX 1      xx      P   0.000
P       10.705230000    1.737750000    9.736700000 XXXX 1      xx      P   0.000
P        0.443740000    7.108980000    9.847210000 XXXX 1      xx      P   0.000
P        5.553780000    7.629170000    9.352660000 XXXX 1      xx      P   0.000
P       10.851950000    7.527440000    9.294040000 XXXX 1      xx      P   0.000
P        0.407850000   12.974600000    9.567560000 XXXX 1      xx      P   0.000
P        5.909590000   13.203030000    9.465490000 XXXX 1      xx      P   0.000
P       11.105700000   13.089610000    9.438170000 XXXX 1      xx      P   0.000
In       2.830610000    4.543060000    9.347220000 XXXX 1      xx      In  0.000
In       8.199560000    4.420720000    9.457250000 XXXX 1      xx      In  0.000
In      13.195390000    4.518390000    9.458160000 XXXX 1      xx      In  0.000
In       2.497060000   10.204970000    9.820280000 XXXX 1      xx      In  0.000
In       8.109610000    9.974110000    9.461390000 XXXX 1      xx      In  0.000
In      13.342230000   10.054180000    9.294900000 XXXX 1      xx      In  0.000
In       3.033970000   15.550980000    9.461870000 XXXX 1      xx      In  0.000
In       8.310220000   15.825240000    9.399150000 XXXX 1      xx      In  0.000
In      13.544260000   15.986160000    9.370850000 XXXX 1      xx      In  0.000
In       0.143350000    4.188070000   11.776950000 XXXX 1      xx      In  0.000
In       5.472700000    4.754640000   11.633170000 XXXX 1      xx      In  0.000
In      10.611750000    4.748910000   11.505860000 XXXX 1      xx      In  0.000
In      15.911610000   10.374240000   12.120360000 XXXX 1      xx      In  0.000
In       5.665910000   10.287510000   11.886310000 XXXX 1      xx      In  0.000
In      10.691820000   10.277160000   11.765570000 XXXX 1      xx      In  0.000
In      16.098450000   16.079830000   11.597440000 XXXX 1      xx      In  0.000
In       5.829680000   16.066560000   11.841980000 XXXX 1      xx      In  0.000
In      11.011380000   16.055110000   11.758390000 XXXX 1      xx      In  0.000
end
end
                                                                          0.0000
!DATE     May 15 21:11:07 2019
PBC   15.845   16.830   21.258   90.000   90.000   87.648
P        5.195750000    1.797680000   12.044610000 XXXX 1      xx      P   0.000
P       10.299870000    1.879260000   11.896870000 XXXX 1      xx      P   0.000
P       15.565800000    1.887090000   11.582340000 XXXX 1      xx      P   0.000
P        5.390330000    7.438270000   11.563580000 XXXX 1      xx      P   0.000
P       10.353840000    7.284480000   11.501680000 XXXX 1      xx      P   0.000
P       15.596300000    7.231310000   11.846590000 XXXX 1      xx      P   0.000
P        5.419680000   12.976550000   11.638840000 XXXX 1      xx      P   0.000
P       10.671680000   12.961780000   11.602600000 XXXX 1      xx      P   0.000
P       15.898340000   13.134830000   11.870670000 XXXX 1      xx      P   0.000
P        0.170220000    3.984520000    9.074850000 XXXX 1      xx      P   0.000
P        5.450020000    3.948780000    9.101000000 XXXX 1      xx      P   0.000
P       10.525180000    3.702040000    8.784200000 XXXX 1      xx      P   0.000
P       15.927110000    9.633210000    9.500840000 XXXX 1      xx      P   0.000
P        5.500140000    9.846620000    9.064020000 XXXX 1      xx      P   0.000
P       10.672640000    9.699430000    8.969440000 XXXX 1      xx      P   0.000
P        0.317950000   15.037600000    8.979490000 XXXX 1      xx      P   0.000
P        5.640710000   15.396770000    9.072820000 XXXX 1      xx      P   0.000
P       10.994850000   15.409740000    9.134840000 XXXX 1      xx      P   0.000
P        2.605640000    1.456040000    9.676790000 XXXX 1      xx      P   0.000
P        7.597120000    1.658410000    9.238670000 XXXX 1      xx      P   0.000
P       12.904400000    1.870170000    9.649740000 XXXX 1      xx      P   0.000
P        2.664090000    7.207440000   10.047350000 XXXX 1      xx      P   0.000
P        7.745120000    7.165930000    9.530860000 XXXX 1      xx      P   0.000
P       12.970150000    7.248800000    9.277970000 XXXX 1      xx      P   0.000
P        2.583680000   12.792460000    9.696530000 XXXX 1      xx      P   0.000
P        8.019860000   12.854960000    9.698560000 XXXX 1      xx      P   0.000
P       13.332660000   12.895520000    9.673840000 XXXX 1      xx      P   0.000
P        2.839680000    4.006360000   12.213700000 XXXX 1      xx      P   0.000
P        7.941150000    3.935010000   12.229180000 XXXX 1      xx      P   0.000
P       13.142340000    4.241930000   12.320120000 XXXX 1      xx      P   0.000
P        2.873320000    9.672910000   12.393650000 XXXX 1      xx      P   0.000
P        8.234120000    9.578120000   12.235910000 XXXX 1      xx      P   0.000
P       13.228320000    9.635740000   11.916990000 XXXX 1      xx      P   0.000
P        3.030220000   15.239450000   12.092950000 XXXX 1      xx      P   0.000
P        8.432220000   15.478540000   12.094210000 XXXX 1      xx      P   0.000
P       13.544690000   15.535780000   12.062340000 XXXX 1      xx      P   0.000
P        3.043650000    1.785790000   11.840050000 XXXX 1      xx      P   0.000
P        8.092030000    1.837450000   11.421820000 XXXX 1      xx      P   0.000
P       13.367530000    2.080530000   11.822360000 XXXX 1      xx      P   0.000
P        3.155350000    7.504290000   12.297850000 XXXX 1      xx      P   0.000
P        8.188390000    7.483160000   11.818890000 XXXX 1      xx      P   0.000
P       13.377310000    7.266730000   11.436500000 XXXX 1      xx      P   0.000
P        3.269480000   13.106210000   11.791490000 XXXX 1      xx      P   0.000
P        8.510730000   13.391450000   11.924900000 XXXX 1      xx      P   0.000
P       13.610060000   13.291780000   11.868210000 XXXX 1      xx      P   0.000
P        0.282230000    1.818500000    9.363440000 XXXX 1      xx      P   0.000
P        5.426290000    1.877020000    9.775830000 XXXX 1      xx      P   0.000
P       10.707160000    1.746050000    9.740980000 XXXX 1      xx      P   0.000
P        0.444340000    7.115750000    9.852690000 XXXX 1      xx      P   0.000
P        5.554840000    7.628950000    9.353460000 XXXX 1      xx      P   0.000
P       10.852130000    7.525700000    9.290150000 XXXX 1      xx      P   0.000
P        0.405150000   12.973160000    9.568620000 XXXX 1      xx      P   0.000
P        5.910380000   13.201050000    9.469620000 XXXX 1      xx      P   0.000
P       11.107470000   13.093830000    9.440740000 XXXX 1      xx      P   0.000
In       2.833040000    4.542620000    9.345710000 XXXX 1      xx      In  0.000
In       8.196990000    4.420130000    9.455680000 XXXX 1      xx      In  0.000
In      13.194040000    4.515480000    9.456200000 XXXX 1      xx      In  0.000
In       2.492770000   10.202270000    9.826910000 XXXX 1      xx      In  0.000
In       8.104940000    9.973660000    9.462960000 XXXX 1      xx      In  0.000
In      13.342140000   10.052490000    9.294520000 XXXX 1      xx      In  0.000
In       3.032910000   15.552590000    9.462010000 XXXX 1      xx      In  0.000
In       8.313550000   15.823360000    9.397800000 XXXX 1      xx      In  0.000
In      13.545230000   15.983560000    9.368640000 XXXX 1      xx      In  0.000
In       0.144060000    4.186580000   11.777700000 XXXX 1      xx      In  0.000
In       5.473230000    4.757910000   11.628650000 XXXX 1      xx      In  0.000
In      10.610020000    4.745800000   11.501200000 XXXX 1      xx      In  0.000
In      15.907970000   10.371800000   12.124900000 XXXX 1      xx      In  0.000
In       5.667450000   10.291920000   11.887790000 XXXX 1      xx      In  0.000
In      10.691050000   10.279450000   11.763830000 XXXX 1      xx      In  0.000
In      16.101210000   16.081860000   11.596450000 XXXX 1      xx      In  0.000
In       5.830880000   16.068230000   11.843590000 XXXX 1      xx      In  0.000
In      11.012450000   16.053690000   11.758290000 XXXX 1      xx      In  0.000
end
end
                                                                          0.0000
!DATE     May 15 21:11:07 2019
PBC   15.845   16.830   21.258   90.000   90.000   87.648
P        5.188730000    1.802100000   12.041010000 XXXX 1      xx      P   0.000
P       10.295640000    1.893090000   11.893300000 XXXX 1      xx      P   0.000
P       15.566430000    1.884530000   11.580970000 XXXX 1      xx      P   0.000
P        5.388530000    7.434400000   11.571810000 XXXX 1      xx      P   0.000
P       10.349120000    7.289290000   11.494430000 XXXX 1      xx      P   0.000
P       15.592380000    7.225670000   11.856250000 XXXX 1      xx      P   0.000
P        5.419700000   12.982340000   11.640940000 XXXX 1      xx      P   0.000
P       10.676600000   12.961070000   11.611050000 XXXX 1      xx      P   0.000
P       15.895990000   13.138090000   11.866510000 XXXX 1      xx      P   0.000
P        0.172420000    3.986380000    9.075400000 XXXX 1      xx      P   0.000
P        5.450300000    3.952280000    9.104800000 XXXX 1      xx      P   0.000
P       10.528960000    3.705900000    8.777200000 XXXX 1      xx      P   0.000
P       15.925420000    9.634800000    9.508710000 XXXX 1      xx      P   0.000
P        5.503980000    9.848220000    9.062940000 XXXX 1      xx      P   0.000
P       10.679770000    9.695290000    8.970720000 XXXX 1      xx      P   0.000
P        0.317680000   15.035000000    8.978990000 XXXX 1      xx      P   0.000
P        5.650330000   15.391430000    9.075150000 XXXX 1      xx      P   0.000
P       10.993150000   15.413750000    9.131890000 XXXX 1      xx      P   0.000
P        2.609300000    1.459400000    9.689080000 XXXX 1      xx      P   0.000
P        7.594990000    1.657560000    9.243410000 XXXX 1      xx      P   0.000
P       12.902920000    1.865810000    9.650990000 XXXX 1      xx      P   0.000
P        2.664060000    7.207110000   10.046820000 XXXX 1      xx      P   0.000
P        7.743330000    7.158590000    9.532560000 XXXX 1      xx      P   0.000
P       12.971830000    7.250180000    9.274760000 XXXX 1      xx      P   0.000
P        2.577160000   12.794890000    9.701920000 XXXX 1      xx      P   0.000
P        8.019510000   12.860770000    9.701910000 XXXX 1      xx      P   0.000
P       13.335320000   12.888120000    9.672890000 XXXX 1      xx      P   0.000
P        2.845070000    4.003480000   12.217250000 XXXX 1      xx      P   0.000
P        7.949780000    3.932890000   12.230140000 XXXX 1      xx      P   0.000
P       13.138750000    4.241150000   12.319980000 XXXX 1      xx      P   0.000
P        2.870800000    9.680260000   12.397000000 XXXX 1      xx      P   0.000
P        8.236970000    9.580710000   12.227110000 XXXX 1      xx      P   0.000
P       13.223050000    9.634790000   11.910990000 XXXX 1      xx      P   0.000
P        3.032840000   15.243190000   12.091010000 XXXX 1      xx      P   0.000
P        8.428690000   15.473510000   12.086320000 XXXX 1      xx      P   0.000
P       13.552160000   15.530130000   12.057610000 XXXX 1      xx      P   0.000
P        3.043990000    1.787900000   11.830240000 XXXX 1      xx      P   0.000
P        8.093910000    1.842450000   11.421010000 XXXX 1      xx      P   0.000
P       13.369890000    2.076840000   11.821130000 XXXX 1      xx      P   0.000
P        3.152150000    7.508470000   12.297000000 XXXX 1      xx      P   0.000
P        8.185040000    7.476030000   11.816800000 XXXX 1      xx      P   0.000
P       13.378550000    7.266440000   11.438150000 XXXX 1      xx      P   0.000
P        3.272220000   13.113150000   11.793090000 XXXX 1      xx      P   0.000
P        8.515580000   13.388770000   11.919670000 XXXX 1      xx      P   0.000
P       13.610560000   13.285970000   11.869440000 XXXX 1      xx      P   0.000
P        0.278790000    1.809940000    9.362000000 XXXX 1      xx      P   0.000
P        5.428540000    1.882220000    9.779400000 XXXX 1      xx      P   0.000
P       10.708920000    1.754270000    9.744730000 XXXX 1      xx      P   0.000
P        0.445290000    7.123040000    9.856850000 XXXX 1      xx      P   0.000
P        5.555860000    7.628740000    9.354490000 XXXX 1      xx      P   0.000
P       10.850550000    7.523950000    9.286500000 XXXX 1      xx      P   0.000
P        0.402090000   12.970620000    9.570640000 XXXX 1      xx      P   0.000
P        5.910120000   13.199150000    9.473750000 XXXX 1      xx      P   0.000
P       11.109480000   13.099150000    9.443110000 XXXX 1      xx      P   0.000
In       2.835460000    4.542110000    9.344420000 XXXX 1      xx      In  0.000
In       8.194080000    4.419730000    9.454140000 XXXX 1      xx      In  0.000
In      13.192810000    4.512730000    9.454250000 XXXX 1      xx      In  0.000
In       2.488810000   10.199380000    9.833450000 XXXX 1      xx      In  0.000
In       8.100210000    9.973440000    9.464550000 XXXX 1      xx      In  0.000
In      13.342050000   10.051100000    9.294270000 XXXX 1      xx      In  0.000
In       3.031830000   15.554440000    9.462150000 XXXX 1      xx      In  0.000
In       8.316960000   15.821420000    9.396420000 XXXX 1      xx      In  0.000
In      13.546320000   15.980870000    9.366430000 XXXX 1      xx      In  0.000
In       0.144850000    4.185330000   11.778450000 XXXX 1      xx      In  0.000
In       5.473710000    4.761200000   11.624180000 XXXX 1      xx      In  0.000
In      10.608300000    4.742460000   11.496650000 XXXX 1      xx      In  0.000
In      15.904290000   10.369350000   12.129370000 XXXX 1      xx      In  0.000
In       5.668870000   10.296380000   11.889110000 XXXX 1      xx      In  0.000
In      10.690420000   10.281800000   11.761960000 XXXX 1      xx      In  0.000
In      16.104260000   16.083780000   11.595560000 XXXX 1      xx      In  0.000
In       5.831940000   16.069620000   11.845100000 XXXX 1      xx      In  0.000
In      11.013480000   16.052210000   11.758200000 XXXX 1      xx      In  0.000
end
end
                                                                          0.0000
!DATE     May 15 21:11:07 2019
PBC   15.845   16.830   21.258   90.000   90.000   87.648
P        5.182420000    1.806400000   12.037090000 XXXX 1      xx      P   0.000
P       10.291020000    1.906580000   11.889760000 XXXX 1      xx      P   0.000
P       15.567380000    1.882010000   11.579140000 XXXX 1      xx      P   0.000
P        5.385570000    7.430020000   11.580620000 XXXX 1      xx      P   0.000
P       10.345110000    7.294330000   11.487120000 XXXX 1      xx      P   0.000
P       15.587930000    7.219920000   11.866790000 XXXX 1      xx      P   0.000
P        5.420350000   12.988120000   11.643050000 XXXX 1      xx      P   0.000
P       10.681480000   12.960530000   11.619990000 XXXX 1      xx      P   0.000
P       15.892850000   13.141150000   11.861620000 XXXX 1      xx      P   0.000
P        0.174320000    3.988380000    9.076090000 XXXX 1      xx      P   0.000
P        5.450540000    3.956330000    9.108310000 XXXX 1      xx      P   0.000
P       10.533510000    3.710720000    8.770100000 XXXX 1      xx      P   0.000
P       15.923910000    9.636460000    9.516320000 XXXX 1      xx      P   0.000
P        5.507480000    9.849470000    9.062450000 XXXX 1      xx      P   0.000
P       10.687190000    9.691320000    8.972270000 XXXX 1      xx      P   0.000
P        0.317350000   15.033620000    8.978630000 XXXX 1      xx      P   0.000
P        5.660240000   15.385600000    9.078150000 XXXX 1      xx      P   0.000
P       10.991040000   15.416880000    9.129040000 XXXX 1      xx      P   0.000
P        2.612190000    1.463190000    9.700390000 XXXX 1      xx      P   0.000
P        7.592980000    1.656610000    9.248320000 XXXX 1      xx      P   0.000
P       12.902000000    1.860600000    9.652360000 XXXX 1      xx      P   0.000
P        2.663840000    7.206700000   10.046590000 XXXX 1      xx      P   0.000
P        7.741630000    7.151390000    9.534970000 XXXX 1      xx      P   0.000
P       12.974830000    7.251090000    9.271300000 XXXX 1      xx      P   0.000
P        2.571350000   12.797200000    9.706930000 XXXX 1      xx      P   0.000
P        8.020030000   12.866810000    9.705940000 XXXX 1      xx      P   0.000
P       13.337530000   12.880490000    9.671690000 XXXX 1      xx      P   0.000
P        2.850470000    4.000070000   12.220210000 XXXX 1      xx      P   0.000
P        7.958890000    3.930880000   12.230510000 XXXX 1      xx      P   0.000
P       13.135370000    4.240450000   12.318920000 XXXX 1      xx      P   0.000
P        2.868350000    9.687930000   12.400540000 XXXX 1      xx      P   0.000
P        8.239400000    9.584320000   12.218160000 XXXX 1      xx      P   0.000
P       13.218060000    9.632600000   11.905140000 XXXX 1      xx      P   0.000
P        3.035170000   15.247750000   12.089040000 XXXX 1      xx      P   0.000
P        8.424890000   15.469820000   12.078470000 XXXX 1      xx      P   0.000
P       13.559730000   15.523840000   12.052850000 XXXX 1      xx      P   0.000
P        3.042790000    1.790710000   11.821210000 XXXX 1      xx      P   0.000
P        8.095700000    1.847670000   11.421340000 XXXX 1      xx      P   0.000
P       13.371960000    2.072860000   11.819690000 XXXX 1      xx      P   0.000
P        3.149370000    7.512400000   12.294560000 XXXX 1      xx      P   0.000
P        8.181600000    7.467750000   11.813530000 XXXX 1      xx      P   0.000
P       13.380000000    7.267770000   11.441280000 XXXX 1      xx      P   0.000
P        3.273870000   13.119600000   11.795190000 XXXX 1      xx      P   0.000
P        8.520200000   13.383800000   11.913330000 XXXX 1      xx      P   0.000
P       13.611790000   13.280270000   11.870670000 XXXX 1      xx      P   0.000
P        0.276100000    1.800790000    9.361470000 XXXX 1      xx      P   0.000
P        5.430950000    1.887030000    9.782510000 XXXX 1      xx      P   0.000
P       10.710460000    1.762400000    9.747880000 XXXX 1      xx      P   0.000
P        0.446540000    7.130790000    9.859820000 XXXX 1      xx      P   0.000
P        5.556820000    7.628560000    9.355820000 XXXX 1      xx      P   0.000
P       10.847260000    7.522190000    9.283050000 XXXX 1      xx      P   0.000
P        0.398620000   12.966970000    9.573610000 XXXX 1      xx      P   0.000
P        5.908820000   13.197320000    9.477890000 XXXX 1      xx      P   0.000
P       11.111750000   13.105580000    9.445340000 XXXX 1      xx      P   0.000
In       2.837880000    4.541540000    9.343360000 XXXX 1      xx      In  0.000
In       8.190840000    4.419510000    9.452620000 XXXX 1      xx      In  0.000
In      13.191710000    4.510130000    9.452310000 XXXX 1      xx      In  0.000
In       2.485160000   10.196310000    9.839930000 XXXX 1      xx      In  0.000
In       8.095420000    9.973450000    9.466160000 XXXX 1      xx      In  0.000
In      13.341970000   10.050010000    9.294140000 XXXX 1      xx      In  0.000
In       3.030770000   15.556540000    9.462280000 XXXX 1      xx      In  0.000
In       8.320460000   15.819410000    9.394980000 XXXX 1      xx      In  0.000
In      13.547530000   15.978090000    9.364210000 XXXX 1      xx      In  0.000
In       0.145710000    4.184310000   11.779190000 XXXX 1      xx      In  0.000
In       5.474160000    4.764530000   11.619760000 XXXX 1      xx      In  0.000
In      10.606590000    4.738910000   11.492180000 XXXX 1      xx      In  0.000
In      15.900570000   10.366890000   12.133810000 XXXX 1      xx      In  0.000
In       5.670180000   10.300910000   11.890250000 XXXX 1      xx      In  0.000
In      10.689920000   10.284220000   11.759960000 XXXX 1      xx      In  0.000
In      16.107620000   16.085610000   11.594750000 XXXX 1      xx      In  0.000
In       5.832880000   16.070740000   11.846490000 XXXX 1      xx      In  0.000
In      11.014480000   16.050670000   11.758130000 XXXX 1      xx      In  0.000
end
end
                                                                          0.0000
!DATE     May 15 21:11:07 2019
PBC   15.845   16.830   21.258   90.000   90.000   87.648
P        5.176910000    1.810560000   12.032880000 XXXX 1      xx      P   0.000
P       10.286080000    1.919670000   11.886300000 XXXX 1      xx      P   0.000
P       15.568660000    1.879560000   11.576850000 XXXX 1      xx      P   0.000
P        5.381450000    7.425210000   11.589960000 XXXX 1      xx      P   0.000
P       10.341810000    7.299500000   11.479770000 XXXX 1      xx      P   0.000
P       15.582990000    7.214090000   11.878130000 XXXX 1      xx      P   0.000
P        5.421640000   12.993880000   11.645210000 XXXX 1      xx      P   0.000
P       10.686310000   12.960180000   11.629340000 XXXX 1      xx      P   0.000
P       15.888930000   13.143980000   11.856050000 XXXX 1      xx      P   0.000
P        0.175910000    3.990390000    9.076930000 XXXX 1      xx      P   0.000
P        5.450770000    3.960960000    9.111500000 XXXX 1      xx      P   0.000
P       10.538790000    3.716520000    8.762890000 XXXX 1      xx      P   0.000
P       15.922560000    9.638250000    9.523670000 XXXX 1      xx      P   0.000
P        5.510610000    9.850330000    9.062550000 XXXX 1      xx      P   0.000
P       10.694810000    9.687570000    8.974090000 XXXX 1      xx      P   0.000
P        0.316960000   15.033410000    8.978430000 XXXX 1      xx      P   0.000
P        5.670350000   15.379320000    9.081820000 XXXX 1      xx      P   0.000
P       10.988600000   15.419160000    9.126290000 XXXX 1      xx      P   0.000
P        2.614270000    1.467370000    9.710470000 XXXX 1      xx      P   0.000
P        7.591120000    1.655580000    9.253380000 XXXX 1      xx      P   0.000
P       12.901630000    1.854540000    9.653840000 XXXX 1      xx      P   0.000
P        2.663440000    7.206230000   10.046660000 XXXX 1      xx      P   0.000
P        7.739990000    7.144350000    9.538060000 XXXX 1      xx      P   0.000
P       12.979120000    7.251500000    9.267680000 XXXX 1      xx      P   0.000
P        2.566280000   12.799360000    9.711580000 XXXX 1      xx      P   0.000
P        8.021440000   12.873020000    9.710610000 XXXX 1      xx      P   0.000
P       13.339260000   12.872640000    9.670250000 XXXX 1      xx      P   0.000
P        2.855850000    3.996150000   12.222580000 XXXX 1      xx      P   0.000
P        7.968420000    3.929050000   12.230300000 XXXX 1      xx      P   0.000
P       13.132230000    4.239760000   12.316930000 XXXX 1      xx      P   0.000
P        2.865970000    9.695900000   12.404320000 XXXX 1      xx      P   0.000
P        8.241380000    9.588810000   12.209030000 XXXX 1      xx      P   0.000
P       13.213360000    9.629180000   11.899480000 XXXX 1      xx      P   0.000
P        3.037200000   15.253160000   12.087050000 XXXX 1      xx      P   0.000
P        8.420870000   15.467500000   12.070670000 XXXX 1      xx      P   0.000
P       13.567330000   15.516930000   12.048070000 XXXX 1      xx      P   0.000
P        3.040030000    1.794210000   11.813180000 XXXX 1      xx      P   0.000
P        8.097360000    1.853070000   11.422840000 XXXX 1      xx      P   0.000
P       13.373750000    2.068600000   11.818070000 XXXX 1      xx      P   0.000
P        3.146990000    7.516120000   12.290560000 XXXX 1      xx      P   0.000
P        8.178090000    7.458440000   11.809110000 XXXX 1      xx      P   0.000
P       13.381610000    7.270700000   11.445840000 XXXX 1      xx      P   0.000
P        3.274420000   13.125540000   11.797810000 XXXX 1      xx      P   0.000
P        8.524560000   13.376580000   11.905960000 XXXX 1      xx      P   0.000
P       13.613760000   13.274680000   11.871870000 XXXX 1      xx      P   0.000
P        0.274200000    1.791170000    9.361840000 XXXX 1      xx      P   0.000
P        5.433500000    1.891420000    9.785110000 XXXX 1      xx      P   0.000
P       10.711750000    1.770440000    9.750350000 XXXX 1      xx      P   0.000
P        0.448030000    7.138960000    9.861770000 XXXX 1      xx      P   0.000
P        5.557700000    7.628400000    9.357530000 XXXX 1      xx      P   0.000
P       10.842350000    7.520380000    9.279780000 XXXX 1      xx      P   0.000
P        0.394720000   12.962270000    9.577490000 XXXX 1      xx      P   0.000
P        5.906500000   13.195560000    9.482020000 XXXX 1      xx      P   0.000
P       11.114280000   13.113090000    9.447490000 XXXX 1      xx      P   0.000
In       2.840300000    4.540890000    9.342520000 XXXX 1      xx      In  0.000
In       8.187260000    4.419470000    9.451110000 XXXX 1      xx      In  0.000
In      13.190730000    4.507670000    9.450380000 XXXX 1      xx      In  0.000
In       2.481820000   10.193050000    9.846380000 XXXX 1      xx      In  0.000
In       8.090580000    9.973680000    9.467790000 XXXX 1      xx      In  0.000
In      13.341920000   10.049200000    9.294130000 XXXX 1      xx      In  0.000
In       3.029720000   15.558890000    9.462400000 XXXX 1      xx      In  0.000
In       8.324060000   15.817330000    9.393480000 XXXX 1      xx      In  0.000
In      13.548870000   15.975180000    9.361970000 XXXX 1      xx      In  0.000
In       0.146650000    4.183500000   11.779920000 XXXX 1      xx      In  0.000
In       5.474590000    4.767910000   11.615390000 XXXX 1      xx      In  0.000
In      10.604890000    4.735150000   11.487780000 XXXX 1      xx      In  0.000
In      15.896780000   10.364400000   12.138250000 XXXX 1      xx      In  0.000
In       5.671370000   10.305520000   11.891230000 XXXX 1      xx      In  0.000
In      10.689550000   10.286720000   11.757810000 XXXX 1      xx      In  0.000
In      16.111310000   16.087330000   11.594030000 XXXX 1      xx      In  0.000
In       5.833700000   16.071610000   11.847790000 XXXX 1      xx      In  0.000
In      11.015460000   16.049100000   11.758080000 XXXX 1      xx      In  0.000
end
end
                                                                          0.0000
!DATE     May 15 21:11:07 2019
PBC   15.845   16.830   21.258   90.000   90.000   87.648
P        5.172210000    1.814530000   12.028430000 XXXX 1      xx      P   0.000
P       10.280850000    1.932300000   11.883000000 XXXX 1      xx      P   0.000
P       15.570260000    1.877200000   11.574120000 XXXX 1      xx      P   0.000
P        5.376170000    7.420030000   11.599740000 XXXX 1      xx      P   0.000
P       10.339270000    7.304710000   11.472380000 XXXX 1      xx      P   0.000
P       15.577640000    7.208210000   11.890110000 XXXX 1      xx      P   0.000
P        5.423540000   12.999620000   11.647460000 XXXX 1      xx      P   0.000
P       10.691150000   12.960040000   11.639040000 XXXX 1      xx      P   0.000
P       15.884290000   13.146550000   11.849830000 XXXX 1      xx      P   0.000
P        0.177170000    3.992330000    9.077970000 XXXX 1      xx      P   0.000
P        5.450980000    3.966170000    9.114330000 XXXX 1      xx      P   0.000
P       10.544770000    3.723280000    8.755570000 XXXX 1      xx      P   0.000
P       15.921360000    9.640200000    9.530760000 XXXX 1      xx      P   0.000
P        5.513360000    9.850800000    9.063250000 XXXX 1      xx      P   0.000
P       10.702530000    9.684090000    8.976170000 XXXX 1      xx      P   0.000
P        0.316500000   15.034340000    8.978390000 XXXX 1      xx      P   0.000
P        5.680600000   15.372630000    9.086180000 XXXX 1      xx      P   0.000
P       10.985860000   15.420600000    9.123660000 XXXX 1      xx      P   0.000
P        2.615480000    1.471910000    9.719100000 XXXX 1      xx      P   0.000
P        7.589470000    1.654470000    9.258550000 XXXX 1      xx      P   0.000
P       12.901860000    1.847650000    9.655410000 XXXX 1      xx      P   0.000
P        2.662880000    7.205730000   10.047030000 XXXX 1      xx      P   0.000
P        7.738430000    7.137510000    9.541810000 XXXX 1      xx      P   0.000
P       12.984610000    7.251390000    9.263970000 XXXX 1      xx      P   0.000
P        2.561990000   12.801320000    9.715860000 XXXX 1      xx      P   0.000
P        8.023730000   12.879340000    9.715850000 XXXX 1      xx      P   0.000
P       13.340490000   12.864590000    9.668570000 XXXX 1      xx      P   0.000
P        2.861160000    3.991780000   12.224360000 XXXX 1      xx      P   0.000
P        7.978280000    3.927510000   12.229510000 XXXX 1      xx      P   0.000
P       13.129340000    4.239040000   12.313960000 XXXX 1      xx      P   0.000
P        2.863690000    9.704120000   12.408350000 XXXX 1      xx      P   0.000
P        8.242840000    9.594010000   12.199700000 XXXX 1      xx      P   0.000
P       13.209000000    9.624520000   11.894030000 XXXX 1      xx      P   0.000
P        3.038920000   15.259460000   12.085070000 XXXX 1      xx      P   0.000
P        8.416680000   15.466460000   12.062930000 XXXX 1      xx      P   0.000
P       13.574890000   15.509380000   12.043250000 XXXX 1      xx      P   0.000
P        3.035690000    1.798410000   11.806360000 XXXX 1      xx      P   0.000
P        8.098860000    1.858590000   11.425510000 XXXX 1      xx      P   0.000
P       13.375250000    2.064090000   11.816310000 XXXX 1      xx      P   0.000
P        3.144990000    7.519650000   12.285020000 XXXX 1      xx      P   0.000
P        8.174500000    7.448210000   11.803550000 XXXX 1      xx      P   0.000
P       13.383300000    7.275200000   11.451730000 XXXX 1      xx      P   0.000
P        3.273880000   13.130990000   11.800980000 XXXX 1      xx      P   0.000
P        8.528640000   13.367170000   11.897610000 XXXX 1      xx      P   0.000
P       13.616450000   13.269190000   11.873010000 XXXX 1      xx      P   0.000
P        0.273130000    1.781200000    9.363120000 XXXX 1      xx      P   0.000
P        5.436170000    1.895390000    9.787170000 XXXX 1      xx      P   0.000
P       10.712760000    1.778390000    9.752050000 XXXX 1      xx      P   0.000
P        0.449680000    7.147480000    9.862870000 XXXX 1      xx      P   0.000
P        5.558490000    7.628260000    9.359720000 XXXX 1      xx      P   0.000
P       10.835950000    7.518470000    9.276640000 XXXX 1      xx      P   0.000
P        0.390380000   12.956570000    9.582210000 XXXX 1      xx      P   0.000
P        5.903190000   13.193820000    9.486140000 XXXX 1      xx      P   0.000
P       11.117100000   13.121650000    9.449630000 XXXX 1      xx      P   0.000
In       2.842720000    4.540180000    9.341900000 XXXX 1      xx      In  0.000
In       8.183350000    4.419590000    9.449590000 XXXX 1      xx      In  0.000
In      13.189890000    4.505350000    9.448450000 XXXX 1      xx      In  0.000
In       2.478780000   10.189600000    9.852800000 XXXX 1      xx      In  0.000
In       8.085690000    9.974150000    9.469440000 XXXX 1      xx      In  0.000
In      13.341870000   10.048680000    9.294220000 XXXX 1      xx      In  0.000
In       3.028710000   15.561500000    9.462500000 XXXX 1      xx      In  0.000
In       8.327770000   15.815180000    9.391920000 XXXX 1      xx      In  0.000
In      13.550330000   15.972160000    9.359710000 XXXX 1      xx      In  0.000
In       0.147670000    4.182910000   11.780640000 XXXX 1      xx      In  0.000
In       5.475020000    4.771320000   11.611080000 XXXX 1      xx      In  0.000
In      10.603200000    4.731200000   11.483440000 XXXX 1      xx      In  0.000
In      15.892910000   10.361890000   12.142700000 XXXX 1      xx      In  0.000
In       5.672460000   10.310240000   11.892050000 XXXX 1      xx      In  0.000
In      10.689310000   10.289290000   11.755500000 XXXX 1      xx      In  0.000
In      16.115350000   16.088960000   11.593400000 XXXX 1      xx      In  0.000
In       5.834380000   16.072230000   11.848980000 XXXX 1      xx      In  0.000
In      11.016430000   16.047490000   11.758040000 XXXX 1      xx      In  0.000
end
end
                                                                          0.0000
!DATE     May 15 21:11:07 2019
PBC   15.845   16.830   21.258   90.000   90.000   87.648
P        5.168360000    1.818300000   12.023760000 XXXX 1      xx      P   0.000
P       10.275410000    1.944390000   11.879900000 XXXX 1      xx      P   0.000
P       15.572180000    1.874930000   11.570960000 XXXX 1      xx      P   0.000
P        5.369730000    7.414580000   11.609920000 XXXX 1      xx      P   0.000
P       10.337490000    7.309850000   11.464970000 XXXX 1      xx      P   0.000
P       15.571960000    7.202280000   11.902610000 XXXX 1      xx      P   0.000
P        5.426010000   13.005340000   11.649840000 XXXX 1      xx      P   0.000
P       10.696000000   12.960100000   11.648990000 XXXX 1      xx      P   0.000
P       15.878970000   13.148810000   11.843040000 XXXX 1      xx      P   0.000
P        0.178090000    3.994060000    9.079210000 XXXX 1      xx      P   0.000
P        5.451180000    3.971970000    9.116770000 XXXX 1      xx      P   0.000
P       10.551410000    3.731010000    8.748150000 XXXX 1      xx      P   0.000
P       15.920270000    9.642380000    9.537600000 XXXX 1      xx      P   0.000
P        5.515700000    9.850820000    9.064560000 XXXX 1      xx      P   0.000
P       10.710240000    9.680910000    8.978500000 XXXX 1      xx      P   0.000
P        0.315960000   15.036320000    8.978530000 XXXX 1      xx      P   0.000
P        5.690870000   15.365570000    9.091210000 XXXX 1      xx      P   0.000
P       10.982890000   15.421220000    9.121180000 XXXX 1      xx      P   0.000
P        2.615770000    1.476780000    9.726040000 XXXX 1      xx      P   0.000
P        7.588060000    1.653310000    9.263840000 XXXX 1      xx      P   0.000
P       12.902670000    1.839950000    9.657060000 XXXX 1      xx      P   0.000
P        2.662180000    7.205230000   10.047660000 XXXX 1      xx      P   0.000
P        7.736930000    7.130890000    9.546200000 XXXX 1      xx      P   0.000
P       12.991200000    7.250740000    9.260280000 XXXX 1      xx      P   0.000
P        2.558470000   12.803040000    9.719800000 XXXX 1      xx      P   0.000
P        8.026900000   12.885690000    9.721540000 XXXX 1      xx      P   0.000
P       13.341190000   12.856380000    9.666690000 XXXX 1      xx      P   0.000
P        2.866380000    3.987020000   12.225570000 XXXX 1      xx      P   0.000
P        7.988400000    3.926350000   12.228170000 XXXX 1      xx      P   0.000
P       13.126740000    4.238240000   12.310000000 XXXX 1      xx      P   0.000
P        2.861530000    9.712550000   12.412640000 XXXX 1      xx      P   0.000
P        8.243720000    9.599780000   12.190130000 XXXX 1      xx      P   0.000
P       13.205010000    9.618630000   11.888830000 XXXX 1      xx      P   0.000
P        3.040340000   15.266680000   12.083110000 XXXX 1      xx      P   0.000
P        8.412370000   15.466600000   12.055240000 XXXX 1      xx      P   0.000
P       13.582350000   15.501180000   12.038390000 XXXX 1      xx      P   0.000
P        3.029820000    1.803290000   11.800960000 XXXX 1      xx      P   0.000
P        8.100150000    1.864180000   11.429340000 XXXX 1      xx      P   0.000
P       13.376450000    2.059340000   11.814440000 XXXX 1      xx      P   0.000
P        3.143340000    7.523040000   12.277970000 XXXX 1      xx      P   0.000
P        8.170860000    7.437230000   11.796910000 XXXX 1      xx      P   0.000
P       13.385010000    7.281250000   11.458890000 XXXX 1      xx      P   0.000
P        3.272240000   13.135940000   11.804700000 XXXX 1      xx      P   0.000
P        8.532410000   13.355720000   11.888390000 XXXX 1      xx      P   0.000
P       13.619850000   13.263810000   11.874020000 XXXX 1      xx      P   0.000
P        0.272920000    1.771010000    9.365290000 XXXX 1      xx      P   0.000
P        5.438940000    1.898930000    9.788650000 XXXX 1      xx      P   0.000
P       10.713480000    1.786290000    9.752910000 XXXX 1      xx      P   0.000
P        0.451430000    7.156230000    9.863300000 XXXX 1      xx      P   0.000
P        5.559160000    7.628160000    9.362460000 XXXX 1      xx      P   0.000
P       10.828220000    7.516450000    9.273570000 XXXX 1      xx      P   0.000
P        0.385590000   12.949950000    9.587720000 XXXX 1      xx      P   0.000
P        5.898960000   13.192070000    9.490280000 XXXX 1      xx      P   0.000
P       11.120180000   13.131220000    9.451830000 XXXX 1      xx      P   0.000
In       2.845140000    4.539380000    9.341510000 XXXX 1      xx      In  0.000
In       8.179120000    4.419870000    9.448040000 XXXX 1      xx      In  0.000
In      13.189170000    4.503170000    9.446510000 XXXX 1      xx      In  0.000
In       2.476050000   10.185980000    9.859220000 XXXX 1      xx      In  0.000
In       8.080770000    9.974850000    9.471100000 XXXX 1      xx      In  0.000
In      13.341850000   10.048450000    9.294420000 XXXX 1      xx      In  0.000
In       3.027750000   15.564370000    9.462580000 XXXX 1      xx      In  0.000
In       8.331600000   15.812960000    9.390280000 XXXX 1      xx      In  0.000
In      13.551930000   15.969000000    9.357420000 XXXX 1      xx      In  0.000
In       0.148790000    4.182540000   11.781340000 XXXX 1      xx      In  0.000
In       5.475460000    4.774790000   11.606840000 XXXX 1      xx      In  0.000
In      10.601510000    4.727090000   11.479130000 XXXX 1      xx      In  0.000
In      15.888950000   10.359340000   12.147180000 XXXX 1      xx      In  0.000
In       5.673440000   10.315090000   11.892720000 XXXX 1      xx      In  0.000
In      10.689210000   10.291930000   11.753020000 XXXX 1      xx      In  0.000
In      16.119760000   16.090490000   11.592850000 XXXX 1      xx      In  0.000
In       5.834940000   16.072610000   11.850070000 XXXX 1      xx      In  0.000
In      11.017380000   16.045860000   11.758030000 XXXX 1      xx      In  0.000
end
end
                                                                          0.0000
!DATE     May 15 21:11:07 2019
PBC   15.845   16.830   21.258   90.000   90.000   87.648
P        5.165340000    1.821820000   12.018900000 XXXX 1      xx      P   0.000
P       10.269830000    1.955850000   11.877090000 XXXX 1      xx      P   0.000
P       15.574400000    1.872770000   11.567390000 XXXX 1      xx      P   0.000
P        5.362120000    7.408920000   11.620420000 XXXX 1      xx      P   0.000
P       10.336500000    7.314840000   11.457560000 XXXX 1      xx      P   0.000
P       15.566070000    7.196370000   11.915480000 XXXX 1      xx      P   0.000
P        5.429000000   13.011050000   11.652400000 XXXX 1      xx      P   0.000
P       10.700880000   12.960380000   11.659100000 XXXX 1      xx      P   0.000
P       15.873040000   13.150710000   11.835780000 XXXX 1      xx      P   0.000
P        0.178670000    3.995490000    9.080690000 XXXX 1      xx      P   0.000
P        5.451400000    3.978330000    9.118790000 XXXX 1      xx      P   0.000
P       10.558650000    3.739710000    8.740640000 XXXX 1      xx      P   0.000
P       15.919290000    9.644850000    9.544150000 XXXX 1      xx      P   0.000
P        5.517580000    9.850380000    9.066490000 XXXX 1      xx      P   0.000
P       10.717830000    9.678080000    8.981060000 XXXX 1      xx      P   0.000
P        0.315350000   15.039260000    8.978850000 XXXX 1      xx      P   0.000
P        5.701090000   15.358200000    9.096930000 XXXX 1      xx      P   0.000
P       10.979780000   15.421050000    9.118840000 XXXX 1      xx      P   0.000
P        2.615080000    1.481920000    9.731060000 XXXX 1      xx      P   0.000
P        7.586940000    1.652100000    9.269230000 XXXX 1      xx      P   0.000
P       12.904060000    1.831480000    9.658780000 XXXX 1      xx      P   0.000
P        2.661340000    7.204760000   10.048520000 XXXX 1      xx      P   0.000
P        7.735490000    7.124520000    9.551200000 XXXX 1      xx      P   0.000
P       12.998750000    7.249560000    9.256710000 XXXX 1      xx      P   0.000
P        2.555760000   12.804490000    9.723400000 XXXX 1      xx      P   0.000
P        8.030910000   12.892020000    9.727560000 XXXX 1      xx      P   0.000
P       13.341350000   12.848070000    9.664630000 XXXX 1      xx      P   0.000
P        2.871440000    3.981960000   12.226220000 XXXX 1      xx      P   0.000
P        7.998690000    3.925710000   12.226290000 XXXX 1      xx      P   0.000
P       13.124450000    4.237290000   12.305010000 XXXX 1      xx      P   0.000
P        2.859510000    9.721120000   12.417210000 XXXX 1      xx      P   0.000
P        8.243950000    9.605920000   12.180300000 XXXX 1      xx      P   0.000
P       13.201440000    9.611530000   11.883940000 XXXX 1      xx      P   0.000
P        3.041450000   15.274820000   12.081190000 XXXX 1      xx      P   0.000
P        8.407980000   15.467780000   12.047620000 XXXX 1      xx      P   0.000
P       13.589660000   15.492350000   12.033490000 XXXX 1      xx      P   0.000
P        3.022440000    1.808830000   11.797170000 XXXX 1      xx      P   0.000
P        8.101190000    1.869750000   11.434340000 XXXX 1      xx      P   0.000
P       13.377350000    2.054380000   11.812500000 XXXX 1      xx      P   0.000
P        3.142010000    7.526310000   12.269480000 XXXX 1      xx      P   0.000
P        8.167240000    7.425670000   11.789260000 XXXX 1      xx      P   0.000
P       13.386670000    7.288810000   11.467200000 XXXX 1      xx      P   0.000
P        3.269530000   13.140400000   11.808990000 XXXX 1      xx      P   0.000
P        8.535840000   13.342430000   11.878410000 XXXX 1      xx      P   0.000
P       13.623900000   13.258520000   11.874870000 XXXX 1      xx      P   0.000
P        0.273590000    1.760710000    9.368320000 XXXX 1      xx      P   0.000
P        5.441750000    1.902050000    9.789470000 XXXX 1      xx      P   0.000
P       10.713920000    1.794130000    9.752850000 XXXX 1      xx      P   0.000
P        0.453180000    7.165130000    9.863240000 XXXX 1      xx      P   0.000
P        5.559680000    7.628070000    9.365840000 XXXX 1      xx      P   0.000
P       10.819360000    7.514270000    9.270530000 XXXX 1      xx      P   0.000
P        0.380360000   12.942530000    9.593910000 XXXX 1      xx      P   0.000
P        5.893890000   13.190260000    9.494410000 XXXX 1      xx      P   0.000
P       11.123510000   13.141750000    9.454150000 XXXX 1      xx      P   0.000
In       2.847540000    4.538510000    9.341360000 XXXX 1      xx      In  0.000
In       8.174580000    4.420300000    9.446460000 XXXX 1      xx      In  0.000
In      13.188590000    4.501110000    9.444560000 XXXX 1      xx      In  0.000
In       2.473620000   10.182180000    9.865650000 XXXX 1      xx      In  0.000
In       8.075830000    9.975800000    9.472780000 XXXX 1      xx      In  0.000
In      13.341850000   10.048490000    9.294710000 XXXX 1      xx      In  0.000
In       3.026850000   15.567530000    9.462630000 XXXX 1      xx      In  0.000
In       8.335550000   15.810660000    9.388560000 XXXX 1      xx      In  0.000
In      13.553660000   15.965680000    9.355090000 XXXX 1      xx      In  0.000
In       0.150010000    4.182380000   11.782030000 XXXX 1      xx      In  0.000
In       5.475910000    4.778290000   11.602670000 XXXX 1      xx      In  0.000
In      10.599820000    4.722820000   11.474840000 XXXX 1      xx      In  0.000
In      15.884870000   10.356760000   12.151720000 XXXX 1      xx      In  0.000
In       5.674300000   10.320060000   11.893220000 XXXX 1      xx      In  0.000
In      10.689260000   10.294670000   11.750350000 XXXX 1      xx      In  0.000
In      16.124560000   16.091910000   11.592380000 XXXX 1      xx      In  0.000
In       5.835360000   16.072770000   11.851070000 XXXX 1      xx      In  0.000
In      11.018340000   16.044200000   11.758040000 XXXX 1      xx      In  0.000
end
end
                                                                          0.0000
!DATE     May 15 21:11:07 2019
PBC   15.845   16.830   21.258   90.000   90.000   87.648
P        5.163090000    1.825070000   12.013890000 XXXX 1      xx      P   0.000
P       10.264210000    1.966630000   11.874590000 XXXX 1      xx      P   0.000
P       15.576920000    1.870750000   11.563470000 XXXX 1      xx      P   0.000
P        5.353380000    7.403120000   11.631160000 XXXX 1      xx      P   0.000
P       10.336280000    7.319580000   11.450200000 XXXX 1      xx      P   0.000
P       15.560080000    7.190530000   11.928560000 XXXX 1      xx      P   0.000
P        5.432420000   13.016740000   11.655210000 XXXX 1      xx      P   0.000
P       10.705810000   12.960870000   11.669280000 XXXX 1      xx      P   0.000
P       15.866590000   13.152220000   11.828130000 XXXX 1      xx      P   0.000
P        0.178890000    3.996500000    9.082420000 XXXX 1      xx      P   0.000
P        5.451630000    3.985250000    9.120350000 XXXX 1      xx      P   0.000
P       10.566450000    3.749350000    8.733090000 XXXX 1      xx      P   0.000
P       15.918400000    9.647670000    9.550410000 XXXX 1      xx      P   0.000
P        5.518960000    9.849450000    9.069040000 XXXX 1      xx      P   0.000
P       10.725190000    9.675630000    8.983850000 XXXX 1      xx      P   0.000
P        0.314650000   15.043040000    8.979400000 XXXX 1      xx      P   0.000
P        5.711160000   15.350590000    9.103320000 XXXX 1      xx      P   0.000
P       10.976590000   15.420120000    9.116670000 XXXX 1      xx      P   0.000
P        2.613380000    1.487310000    9.733950000 XXXX 1      xx      P   0.000
P        7.586180000    1.650870000    9.274720000 XXXX 1      xx      P   0.000
P       12.906030000    1.822260000    9.660530000 XXXX 1      xx      P   0.000
P        2.660380000    7.204350000   10.049560000 XXXX 1      xx      P   0.000
P        7.734120000    7.118450000    9.556750000 XXXX 1      xx      P   0.000
P       13.007100000    7.247820000    9.253400000 XXXX 1      xx      P   0.000
P        2.553860000   12.805620000    9.726680000 XXXX 1      xx      P   0.000
P        8.035690000   12.898240000    9.733760000 XXXX 1      xx      P   0.000
P       13.340970000   12.839710000    9.662410000 XXXX 1      xx      P   0.000
P        2.876270000    3.976690000   12.226310000 XXXX 1      xx      P   0.000
P        8.009040000    3.925690000   12.223890000 XXXX 1      xx      P   0.000
P       13.122490000    4.236150000   12.298960000 XXXX 1      xx      P   0.000
P        2.857640000    9.729780000   12.422060000 XXXX 1      xx      P   0.000
P        8.243480000    9.612250000   12.170190000 XXXX 1      xx      P   0.000
P       13.198320000    9.603290000   11.879400000 XXXX 1      xx      P   0.000
P        3.042220000   15.283820000   12.079320000 XXXX 1      xx      P   0.000
P        8.403590000   15.469780000   12.040080000 XXXX 1      xx      P   0.000
P       13.596730000   15.482910000   12.028570000 XXXX 1      xx      P   0.000
P        3.013670000    1.814960000   11.795170000 XXXX 1      xx      P   0.000
P        8.101930000    1.875240000   11.440470000 XXXX 1      xx      P   0.000
P       13.377980000    2.049230000   11.810520000 XXXX 1      xx      P   0.000
P        3.140950000    7.529500000   12.259620000 XXXX 1      xx      P   0.000
P        8.163690000    7.413700000   11.780680000 XXXX 1      xx      P   0.000
P       13.388190000    7.297830000   11.476550000 XXXX 1      xx      P   0.000
P        3.265800000   13.144390000   11.813850000 XXXX 1      xx      P   0.000
P        8.538890000   13.327540000   11.867820000 XXXX 1      xx      P   0.000
P       13.628550000   13.253320000   11.875500000 XXXX 1      xx      P   0.000
P        0.275190000    1.750420000    9.372170000 XXXX 1      xx      P   0.000
P        5.444560000    1.904750000    9.789600000 XXXX 1      xx      P   0.000
P       10.714090000    1.801930000    9.751800000 XXXX 1      xx      P   0.000
P        0.454840000    7.174060000    9.862860000 XXXX 1      xx      P   0.000
P        5.560030000    7.628010000    9.369920000 XXXX 1      xx      P   0.000
P       10.809570000    7.511900000    9.267480000 XXXX 1      xx      P   0.000
P        0.374740000   12.934430000    9.600670000 XXXX 1      xx      P   0.000
P        5.888090000   13.188310000    9.498560000 XXXX 1      xx      P   0.000
P       11.127070000   13.153170000    9.456670000 XXXX 1      xx      P   0.000
In       2.849920000    4.537550000    9.341430000 XXXX 1      xx      In  0.000
In       8.169740000    4.420870000    9.444840000 XXXX 1      xx      In  0.000
In      13.188150000    4.499190000    9.442610000 XXXX 1      xx      In  0.000
In       2.471510000   10.178200000    9.872090000 XXXX 1      xx      In  0.000
In       8.070890000    9.977010000    9.474460000 XXXX 1      xx      In  0.000
In      13.341880000   10.048820000    9.295100000 XXXX 1      xx      In  0.000
In       3.026010000   15.570980000    9.462640000 XXXX 1      xx      In  0.000
In       8.339630000   15.808280000    9.386750000 XXXX 1      xx      In  0.000
In      13.555510000   15.962210000    9.352720000 XXXX 1      xx      In  0.000
In       0.151330000    4.182430000   11.782700000 XXXX 1      xx      In  0.000
In       5.476400000    4.781840000   11.598580000 XXXX 1      xx      In  0.000
In      10.598150000    4.718420000   11.470570000 XXXX 1      xx      In  0.000
In      15.880670000   10.354150000   12.156320000 XXXX 1      xx      In  0.000
In       5.675060000   10.325170000   11.893560000 XXXX 1      xx      In  0.000
In      10.689450000   10.297480000   11.747490000 XXXX 1      xx      In  0.000
In      16.129760000   16.093230000   11.592000000 XXXX 1      xx      In  0.000
In       5.835650000   16.072700000   11.851950000 XXXX 1      xx      In  0.000
In      11.019300000   16.042540000   11.758090000 XXXX 1      xx      In  0.000
end
end
                                                                          0.0000
!DATE     May 15 21:11:07 2019
PBC   15.845   16.830   21.258   90.000   90.000   87.648
P        5.161570000    1.828020000   12.008740000 XXXX 1      xx      P   0.000
P       10.258630000    1.976610000   11.872450000 XXXX 1      xx      P   0.000
P       15.579700000    1.868880000   11.559250000 XXXX 1      xx      P   0.000
P        5.343550000    7.397280000   11.642050000 XXXX 1      xx      P   0.000
P       10.336830000    7.323960000   11.442940000 XXXX 1      xx      P   0.000
P       15.554100000    7.184840000   11.941700000 XXXX 1      xx      P   0.000
P        5.436160000   13.022420000   11.658300000 XXXX 1      xx      P   0.000
P       10.710800000   12.961580000   11.679400000 XXXX 1      xx      P   0.000
P       15.859750000   13.153290000   11.820250000 XXXX 1      xx      P   0.000
P        0.178770000    3.997010000    9.084430000 XXXX 1      xx      P   0.000
P        5.451880000    3.992670000    9.121420000 XXXX 1      xx      P   0.000
P       10.574710000    3.759900000    8.725530000 XXXX 1      xx      P   0.000
P       15.917580000    9.650890000    9.556330000 XXXX 1      xx      P   0.000
P        5.519800000    9.848020000    9.072210000 XXXX 1      xx      P   0.000
P       10.732190000    9.673580000    8.986840000 XXXX 1      xx      P   0.000
P        0.313870000   15.047520000    8.980180000 XXXX 1      xx      P   0.000
P        5.720960000   15.342840000    9.110360000 XXXX 1      xx      P   0.000
P       10.973410000   15.418480000    9.114690000 XXXX 1      xx      P   0.000
P        2.610650000    1.492900000    9.734570000 XXXX 1      xx      P   0.000
P        7.585830000    1.649620000    9.280310000 XXXX 1      xx      P   0.000
P       12.908530000    1.812350000    9.662280000 XXXX 1      xx      P   0.000
P        2.659310000    7.204020000   10.050690000 XXXX 1      xx      P   0.000
P        7.732800000    7.112740000    9.562770000 XXXX 1      xx      P   0.000
P       13.016080000    7.245530000    9.250470000 XXXX 1      xx      P   0.000
P        2.552760000   12.806430000    9.729650000 XXXX 1      xx      P   0.000
P        8.041160000   12.904260000    9.739930000 XXXX 1      xx      P   0.000
P       13.340060000   12.831340000    9.660050000 XXXX 1      xx      P   0.000
P        2.880820000    3.971370000   12.225860000 XXXX 1      xx      P   0.000
P        8.019360000    3.926420000   12.221010000 XXXX 1      xx      P   0.000
P       13.120890000    4.234760000   12.291810000 XXXX 1      xx      P   0.000
P        2.855960000    9.738460000   12.427210000 XXXX 1      xx      P   0.000
P        8.242290000    9.618590000   12.159810000 XXXX 1      xx      P   0.000
P       13.195710000    9.593950000   11.875300000 XXXX 1      xx      P   0.000
P        3.042650000   15.293650000   12.077520000 XXXX 1      xx      P   0.000
P        8.399260000   15.472390000   12.032660000 XXXX 1      xx      P   0.000
P       13.603490000   15.472910000   12.023640000 XXXX 1      xx      P   0.000
P        3.003620000    1.821570000   11.795070000 XXXX 1      xx      P   0.000
P        8.102320000    1.880550000   11.447670000 XXXX 1      xx      P   0.000
P       13.378330000    2.043910000   11.808540000 XXXX 1      xx      P   0.000
P        3.140100000    7.532660000   12.248490000 XXXX 1      xx      P   0.000
P        8.160260000    7.401510000   11.771280000 XXXX 1      xx      P   0.000
P       13.389530000    7.308220000   11.486810000 XXXX 1      xx      P   0.000
P        3.261100000   13.147930000   11.819290000 XXXX 1      xx      P   0.000
P        8.541540000   13.311320000   11.856820000 XXXX 1      xx      P   0.000
P       13.633710000   13.248200000   11.875870000 XXXX 1      xx      P   0.000
P        0.277710000    1.740280000    9.376770000 XXXX 1      xx      P   0.000
P        5.447320000    1.907050000    9.788970000 XXXX 1      xx      P   0.000
P       10.713990000    1.809700000    9.749670000 XXXX 1      xx      P   0.000
P        0.456310000    7.182890000    9.862350000 XXXX 1      xx      P   0.000
P        5.560190000    7.627950000    9.374780000 XXXX 1      xx      P   0.000
P       10.799080000    7.509330000    9.264360000 XXXX 1      xx      P   0.000
P        0.368760000   12.925790000    9.607840000 XXXX 1      xx      P   0.000
P        5.881680000   13.186180000    9.502750000 XXXX 1      xx      P   0.000
P       11.130820000   13.165380000    9.459460000 XXXX 1      xx      P   0.000
In       2.852280000    4.536510000    9.341750000 XXXX 1      xx      In  0.000
In       8.164620000    4.421570000    9.443140000 XXXX 1      xx      In  0.000
In      13.187870000    4.497400000    9.440650000 XXXX 1      xx      In  0.000
In       2.469710000   10.174070000    9.878540000 XXXX 1      xx      In  0.000
In       8.065960000    9.978490000    9.476150000 XXXX 1      xx      In  0.000
In      13.341930000   10.049420000    9.295560000 XXXX 1      xx      In  0.000
In       3.025270000   15.574710000    9.462620000 XXXX 1      xx      In  0.000
In       8.343840000   15.805820000    9.384860000 XXXX 1      xx      In  0.000
In      13.557490000   15.958570000    9.350300000 XXXX 1      xx      In  0.000
In       0.152760000    4.182690000   11.783350000 XXXX 1      xx      In  0.000
In       5.476920000    4.785410000   11.594600000 XXXX 1      xx      In  0.000
In      10.596500000    4.713920000   11.466320000 XXXX 1      xx      In  0.000
In      15.876350000   10.351490000   12.160980000 XXXX 1      xx      In  0.000
In       5.675690000   10.330440000   11.893750000 XXXX 1      xx      In  0.000
In      10.689790000   10.300370000   11.744440000 XXXX 1      xx      In  0.000
In      16.135380000   16.094440000   11.591700000 XXXX 1      xx      In  0.000
In       5.835790000   16.072410000   11.852740000 XXXX 1      xx      In  0.000
In      11.020270000   16.040870000   11.758160000 XXXX 1      xx      In  0.000
end
end
                                                                          0.0000
!DATE     May 15 21:11:07 2019
PBC   15.845   16.830   21.258   90.000   90.000   87.648
P        5.160720000    1.830650000   12.003510000 XXXX 1      xx      P   0.000
P       10.253210000    1.985670000   11.870680000 XXXX 1      xx      P   0.000
P       15.582720000    1.867170000   11.554800000 XXXX 1      xx      P   0.000
P        5.332710000    7.391490000   11.653030000 XXXX 1      xx      P   0.000
P       10.338120000    7.327910000   11.435810000 XXXX 1      xx      P   0.000
P       15.548240000    7.179360000   11.954740000 XXXX 1      xx      P   0.000
P        5.440110000   13.028080000   11.661750000 XXXX 1      xx      P   0.000
P       10.715840000   12.962510000   11.689360000 XXXX 1      xx      P   0.000
P       15.852650000   13.153870000   11.812280000 XXXX 1      xx      P   0.000
P        0.178290000    3.996930000    9.086710000 XXXX 1      xx      P   0.000
P        5.452160000    4.000540000    9.121950000 XXXX 1      xx      P   0.000
P       10.583380000    3.771330000    8.718030000 XXXX 1      xx      P   0.000
P       15.916810000    9.654590000    9.561890000 XXXX 1      xx      P   0.000
P        5.520050000    9.846080000    9.076020000 XXXX 1      xx      P   0.000
P       10.738730000    9.671960000    8.990040000 XXXX 1      xx      P   0.000
P        0.313020000   15.052550000    8.981240000 XXXX 1      xx      P   0.000
P        5.730350000   15.335030000    9.118010000 XXXX 1      xx      P   0.000
P       10.970310000   15.416180000    9.112900000 XXXX 1      xx      P   0.000
P        2.606870000    1.498680000    9.732830000 XXXX 1      xx      P   0.000
P        7.585950000    1.648370000    9.286010000 XXXX 1      xx      P   0.000
P       12.911520000    1.801810000    9.664000000 XXXX 1      xx      P   0.000
P        2.658130000    7.203800000   10.051850000 XXXX 1      xx      P   0.000
P        7.731520000    7.107430000    9.569130000 XXXX 1      xx      P   0.000
P       13.025500000    7.242710000    9.248040000 XXXX 1      xx      P   0.000
P        2.552440000   12.806880000    9.732330000 XXXX 1      xx      P   0.000
P        8.047210000   12.909970000    9.745810000 XXXX 1      xx      P   0.000
P       13.338630000   12.823050000    9.657560000 XXXX 1      xx      P   0.000
P        2.885020000    3.966140000   12.224900000 XXXX 1      xx      P   0.000
P        8.029510000    3.928010000   12.217660000 XXXX 1      xx      P   0.000
P       13.119670000    4.233070000   12.283570000 XXXX 1      xx      P   0.000
P        2.854510000    9.747080000   12.432650000 XXXX 1      xx      P   0.000
P        8.240330000    9.624750000   12.149180000 XXXX 1      xx      P   0.000
P       13.193630000    9.583630000   11.871680000 XXXX 1      xx      P   0.000
P        3.042730000   15.304250000   12.075810000 XXXX 1      xx      P   0.000
P        8.395080000   15.475400000   12.025390000 XXXX 1      xx      P   0.000
P       13.609850000   15.462390000   12.018690000 XXXX 1      xx      P   0.000
P        2.992460000    1.828530000   11.796930000 XXXX 1      xx      P   0.000
P        8.102280000    1.885570000   11.455880000 XXXX 1      xx      P   0.000
P       13.378450000    2.038440000   11.806610000 XXXX 1      xx      P   0.000
P        3.139410000    7.535810000   12.236230000 XXXX 1      xx      P   0.000
P        8.157050000    7.389320000   11.761200000 XXXX 1      xx      P   0.000
P       13.390600000    7.319840000   11.497830000 XXXX 1      xx      P   0.000
P        3.255500000   13.151050000   11.825300000 XXXX 1      xx      P   0.000
P        8.543770000   13.294110000   11.845670000 XXXX 1      xx      P   0.000
P       13.639280000   13.243130000   11.875910000 XXXX 1      xx      P   0.000
P        0.281180000    1.730440000    9.382020000 XXXX 1      xx      P   0.000
P        5.449970000    1.908980000    9.787560000 XXXX 1      xx      P   0.000
P       10.713630000    1.817450000    9.746420000 XXXX 1      xx      P   0.000
P        0.457520000    7.191510000    9.861870000 XXXX 1      xx      P   0.000
P        5.560130000    7.627880000    9.380490000 XXXX 1      xx      P   0.000
P       10.788130000    7.506570000    9.261110000 XXXX 1      xx      P   0.000
P        0.362510000   12.916790000    9.615230000 XXXX 1      xx      P   0.000
P        5.874800000   13.183780000    9.506980000 XXXX 1      xx      P   0.000
P       11.134730000   13.178260000    9.462610000 XXXX 1      xx      P   0.000
In       2.854590000    4.535370000    9.342310000 XXXX 1      xx      In  0.000
In       8.159230000    4.422410000    9.441380000 XXXX 1      xx      In  0.000
In      13.187740000    4.495740000    9.438690000 XXXX 1      xx      In  0.000
In       2.468250000   10.169790000    9.885010000 XXXX 1      xx      In  0.000
In       8.061080000    9.980240000    9.477820000 XXXX 1      xx      In  0.000
In      13.342010000   10.050300000    9.296100000 XXXX 1      xx      In  0.000
In       3.024620000   15.578740000    9.462550000 XXXX 1      xx      In  0.000
In       8.348170000   15.803280000    9.382880000 XXXX 1      xx      In  0.000
In      13.559590000   15.954760000    9.347840000 XXXX 1      xx      In  0.000
In       0.154300000    4.183160000   11.783980000 XXXX 1      xx      In  0.000
In       5.477490000    4.788990000   11.590740000 XXXX 1      xx      In  0.000
In      10.594880000    4.709340000   11.462070000 XXXX 1      xx      In  0.000
In      15.871910000   10.348800000   12.165720000 XXXX 1      xx      In  0.000
In       5.676190000   10.335850000   11.893780000 XXXX 1      xx      In  0.000
In      10.690290000   10.303340000   11.741180000 XXXX 1      xx      In  0.000
In       0.300600000   15.746110000   11.591520000 XXXX 1      xx      In  0.000
In       5.835780000   16.071900000   11.853410000 XXXX 1      xx      In  0.000
In      11.021250000   16.039210000   11.758270000 XXXX 1      xx      In  0.000
end
end
                                                                          0.0000
!DATE     May 15 21:11:07 2019
PBC   15.845   16.830   21.258   90.000   90.000   87.648
P        5.160430000    1.832930000   11.998200000 XXXX 1      xx      P   0.000
P       10.248070000    1.993710000   11.869300000 XXXX 1      xx      P   0.000
P       15.585940000    1.865640000   11.550230000 XXXX 1      xx      P   0.000
P        5.320960000    7.385860000   11.663970000 XXXX 1      xx      P   0.000
P       10.340110000    7.331330000   11.428880000 XXXX 1      xx      P   0.000
P       15.542640000    7.174170000   11.967530000 XXXX 1      xx      P   0.000
P        5.444130000   13.033700000   11.665600000 XXXX 1      xx      P   0.000
P       10.720920000   12.963670000   11.699040000 XXXX 1      xx      P   0.000
P       15.845450000   13.153920000   11.804430000 XXXX 1      xx      P   0.000
P        0.177450000    3.996180000    9.089280000 XXXX 1      xx      P   0.000
P        5.452450000    4.008780000    9.121920000 XXXX 1      xx      P   0.000
P       10.592370000    3.783550000    8.710630000 XXXX 1      xx      P   0.000
P       15.916070000    9.658810000    9.567060000 XXXX 1      xx      P   0.000
P        5.519660000    9.843620000    9.080470000 XXXX 1      xx      P   0.000
P       10.744670000    9.670780000    8.993420000 XXXX 1      xx      P   0.000
P        0.312110000   15.057950000    8.982600000 XXXX 1      xx      P   0.000
P        5.739220000   15.327280000    9.126240000 XXXX 1      xx      P   0.000
P       10.967410000   15.413310000    9.111310000 XXXX 1      xx      P   0.000
P        2.602070000    1.504600000    9.728740000 XXXX 1      xx      P   0.000
P        7.586590000    1.647140000    9.291830000 XXXX 1      xx      P   0.000
P       12.914950000    1.790730000    9.665670000 XXXX 1      xx      P   0.000
P        2.656860000    7.203710000   10.052910000 XXXX 1      xx      P   0.000
P        7.730270000    7.102580000    9.575690000 XXXX 1      xx      P   0.000
P       13.035190000    7.239360000    9.246260000 XXXX 1      xx      P   0.000
P        2.552880000   12.806960000    9.734750000 XXXX 1      xx      P   0.000
P        8.053710000   12.915270000    9.751120000 XXXX 1      xx      P   0.000
P       13.336680000   12.814890000    9.655000000 XXXX 1      xx      P   0.000
P        2.888810000    3.961180000   12.223440000 XXXX 1      xx      P   0.000
P        8.039390000    3.930590000   12.213910000 XXXX 1      xx      P   0.000
P       13.118850000    4.231030000   12.274230000 XXXX 1      xx      P   0.000
P        2.853300000    9.755550000   12.438380000 XXXX 1      xx      P   0.000
P        8.237600000    9.630560000   12.138350000 XXXX 1      xx      P   0.000
P       13.192120000    9.572460000   11.868620000 XXXX 1      xx      P   0.000
P        3.042460000   15.315520000   12.074200000 XXXX 1      xx      P   0.000
P        8.391140000   15.478560000   12.018310000 XXXX 1      xx      P   0.000
P       13.615760000   15.451450000   12.013760000 XXXX 1      xx      P   0.000
P        2.980340000    1.835660000   11.800720000 XXXX 1      xx      P   0.000
P        8.101760000    1.890180000   11.465030000 XXXX 1      xx      P   0.000
P       13.378360000    2.032880000   11.804770000 XXXX 1      xx      P   0.000
P        3.138780000    7.538980000   12.223030000 XXXX 1      xx      P   0.000
P        8.154110000    7.377320000   11.750620000 XXXX 1      xx      P   0.000
P       13.391340000    7.332550000   11.509430000 XXXX 1      xx      P   0.000
P        3.249080000   13.153780000   11.831870000 XXXX 1      xx      P   0.000
P        8.545540000   13.276200000   11.834630000 XXXX 1      xx      P   0.000
P       13.645100000   13.238100000   11.875590000 XXXX 1      xx      P   0.000
P        0.285580000    1.721010000    9.387830000 XXXX 1      xx      P   0.000
P        5.452430000    1.910560000    9.785310000 XXXX 1      xx      P   0.000
P       10.713040000    1.825160000    9.742040000 XXXX 1      xx      P   0.000
P        0.458360000    7.199760000    9.861590000 XXXX 1      xx      P   0.000
P        5.559820000    7.627790000    9.387080000 XXXX 1      xx      P   0.000
P       10.776990000    7.503610000    9.257660000 XXXX 1      xx      P   0.000
P        0.356080000   12.907590000    9.622620000 XXXX 1      xx      P   0.000
P        5.867610000   13.181060000    9.511250000 XXXX 1      xx      P   0.000
P       11.138730000   13.191630000    9.466180000 XXXX 1      xx      P   0.000
In       2.856850000    4.534150000    9.343110000 XXXX 1      xx      In  0.000
In       8.153600000    4.423350000    9.439530000 XXXX 1      xx      In  0.000
In      13.187780000    4.494220000    9.436730000 XXXX 1      xx      In  0.000
In       2.467140000   10.165380000    9.891470000 XXXX 1      xx      In  0.000
In       8.056270000    9.982260000    9.479480000 XXXX 1      xx      In  0.000
In      13.342130000   10.051450000    9.296700000 XXXX 1      xx      In  0.000
In       3.024080000   15.583060000    9.462430000 XXXX 1      xx      In  0.000
In       8.352610000   15.800670000    9.380810000 XXXX 1      xx      In  0.000
In      13.561800000   15.950780000    9.345330000 XXXX 1      xx      In  0.000
In       0.155940000    4.183840000   11.784580000 XXXX 1      xx      In  0.000
In       5.478120000    4.792570000   11.587020000 XXXX 1      xx      In  0.000
In      10.593290000    4.704720000   11.457830000 XXXX 1      xx      In  0.000
In      15.867330000   10.346080000   12.170530000 XXXX 1      xx      In  0.000
In       5.676560000   10.341410000   11.893650000 XXXX 1      xx      In  0.000
In      10.690950000   10.306370000   11.737710000 XXXX 1      xx      In  0.000
In       0.307050000   15.747090000   11.591410000 XXXX 1      xx      In  0.000
In       5.835620000   16.071190000   11.853970000 XXXX 1      xx      In  0.000
In      11.022230000   16.037560000   11.758410000 XXXX 1      xx      In  0.000
end
end
                                                                          0.0000
!DATE     May 15 21:11:07 2019
PBC   15.845   16.830   21.258   90.000   90.000   87.648
P        5.160580000    1.834850000   11.992860000 XXXX 1      xx      P   0.000
P       10.243320000    2.000630000   11.868300000 XXXX 1      xx      P   0.000
P       15.589320000    1.864300000   11.545630000 XXXX 1      xx      P   0.000
P        5.308430000    7.380500000   11.674790000 XXXX 1      xx      P   0.000
P       10.342740000    7.334130000   11.422200000 XXXX 1      xx      P   0.000
P       15.537410000    7.169350000   11.979940000 XXXX 1      xx      P   0.000
P        5.448100000   13.039260000   11.669890000 XXXX 1      xx      P   0.000
P       10.726020000   12.965040000   11.708330000 XXXX 1      xx      P   0.000
P       15.838330000   13.153410000   11.796880000 XXXX 1      xx      P   0.000
P        0.176270000    3.994700000    9.092140000 XXXX 1      xx      P   0.000
P        5.452770000    4.017310000    9.121290000 XXXX 1      xx      P   0.000
P       10.601580000    3.796530000    8.703420000 XXXX 1      xx      P   0.000
P       15.915340000    9.663580000    9.571790000 XXXX 1      xx      P   0.000
P        5.518590000    9.840640000    9.085540000 XXXX 1      xx      P   0.000
P       10.749890000    9.670040000    8.996960000 XXXX 1      xx      P   0.000
P        0.311150000   15.063570000    8.984280000 XXXX 1      xx      P   0.000
P        5.747420000   15.319710000    9.134990000 XXXX 1      xx      P   0.000
P       10.964800000   15.409950000    9.109930000 XXXX 1      xx      P   0.000
P        2.596280000    1.510650000    9.722360000 XXXX 1      xx      P   0.000
P        7.587810000    1.645950000    9.297780000 XXXX 1      xx      P   0.000
P       12.918730000    1.779230000    9.667220000 XXXX 1      xx      P   0.000
P        2.655490000    7.203770000   10.053780000 XXXX 1      xx      P   0.000
P        7.729030000    7.098260000    9.582290000 XXXX 1      xx      P   0.000
P       13.044940000    7.235520000    9.245240000 XXXX 1      xx      P   0.000
P        2.554010000   12.806670000    9.736920000 XXXX 1      xx      P   0.000
P        8.060510000   12.920060000    9.755540000 XXXX 1      xx      P   0.000
P       13.334260000   12.806960000    9.652360000 XXXX 1      xx      P   0.000
P        2.892120000    3.956680000   12.221500000 XXXX 1      xx      P   0.000
P        8.048860000    3.934260000   12.209810000 XXXX 1      xx      P   0.000
P       13.118470000    4.228600000   12.263800000 XXXX 1      xx      P   0.000
P        2.852360000    9.763780000   12.444380000 XXXX 1      xx      P   0.000
P        8.234100000    9.635850000   12.127370000 XXXX 1      xx      P   0.000
P       13.191210000    9.560640000   11.866200000 XXXX 1      xx      P   0.000
P        3.041830000   15.327340000   12.072700000 XXXX 1      xx      P   0.000
P        8.387500000   15.481640000   12.011470000 XXXX 1      xx      P   0.000
P       13.621150000   15.440150000   12.008860000 XXXX 1      xx      P   0.000
P        2.967440000    1.842790000   11.806340000 XXXX 1      xx      P   0.000
P        8.100700000    1.894270000   11.475020000 XXXX 1      xx      P   0.000
P       13.378110000    2.027260000   11.803060000 XXXX 1      xx      P   0.000
P        3.138100000    7.542210000   12.209080000 XXXX 1      xx      P   0.000
P        8.151520000    7.365690000   11.739720000 XXXX 1      xx      P   0.000
P       13.391720000    7.346120000   11.521430000 XXXX 1      xx      P   0.000
P        3.241960000   13.156190000   11.838970000 XXXX 1      xx      P   0.000
P        8.546870000   13.257930000   11.824020000 XXXX 1      xx      P   0.000
P       13.651030000   13.233090000   11.874860000 XXXX 1      xx      P   0.000
P        0.290890000    1.712100000    9.394060000 XXXX 1      xx      P   0.000
P        5.454670000    1.911830000    9.782200000 XXXX 1      xx      P   0.000
P       10.712240000    1.832840000    9.736490000 XXXX 1      xx      P   0.000
P        0.458750000    7.207540000    9.861650000 XXXX 1      xx      P   0.000
P        5.559260000    7.627650000    9.394590000 XXXX 1      xx      P   0.000
P       10.765890000    7.500460000    9.253980000 XXXX 1      xx      P   0.000
P        0.349590000   12.898370000    9.629780000 XXXX 1      xx      P   0.000
P        5.860290000   13.177960000    9.515570000 XXXX 1      xx      P   0.000
P       11.142760000   13.205290000    9.470220000 XXXX 1      xx      P   0.000
In       2.859030000    4.532840000    9.344160000 XXXX 1      xx      In  0.000
In       8.147770000    4.424400000    9.437600000 XXXX 1      xx      In  0.000
In      13.188000000    4.492830000    9.434780000 XXXX 1      xx      In  0.000
In       2.466380000   10.160860000    9.897920000 XXXX 1      xx      In  0.000
In       8.051550000    9.984580000    9.481100000 XXXX 1      xx      In  0.000
In      13.342280000   10.052860000    9.297370000 XXXX 1      xx      In  0.000
In       3.023660000   15.587660000    9.462240000 XXXX 1      xx      In  0.000
In       8.357140000   15.797990000    9.378650000 XXXX 1      xx      In  0.000
In      13.564120000   15.946630000    9.342780000 XXXX 1      xx      In  0.000
In       0.157680000    4.184720000   11.785150000 XXXX 1      xx      In  0.000
In       5.478810000    4.796110000   11.583460000 XXXX 1      xx      In  0.000
In      10.591760000    4.700080000   11.453590000 XXXX 1      xx      In  0.000
In      15.862640000   10.343330000   12.175410000 XXXX 1      xx      In  0.000
In       5.676790000   10.347100000   11.893370000 XXXX 1      xx      In  0.000
In      10.691770000   10.309460000   11.734030000 XXXX 1      xx      In  0.000
In       0.313910000   15.747940000   11.591400000 XXXX 1      xx      In  0.000
In       5.835300000   16.070280000   11.854420000 XXXX 1      xx      In  0.000
In      11.023240000   16.035950000   11.758590000 XXXX 1      xx      In  0.000
end
end
                                                                          0.0000
!DATE     May 15 21:11:07 2019
PBC   15.845   16.830   21.258   90.000   90.000   87.648
P        5.161080000    1.836390000   11.987520000 XXXX 1      xx      P   0.000
P       10.239090000    2.006310000   11.867630000 XXXX 1      xx      P   0.000
P       15.592790000    1.863170000   11.541170000 XXXX 1      xx      P   0.000
P        5.295310000    7.375490000   11.685380000 XXXX 1      xx      P   0.000
P       10.345970000    7.336240000   11.415820000 XXXX 1      xx      P   0.000
P       15.532650000    7.164980000   11.991860000 XXXX 1      xx      P   0.000
P        5.451840000   13.044760000   11.674660000 XXXX 1      xx      P   0.000
P       10.731100000   12.966610000   11.717120000 XXXX 1      xx      P   0.000
P       15.831470000   13.152310000   11.789850000 XXXX 1      xx      P   0.000
P        0.174740000    3.992440000    9.095270000 XXXX 1      xx      P   0.000
P        5.453120000    4.026020000    9.120030000 XXXX 1      xx      P   0.000
P       10.610930000    3.810160000    8.696460000 XXXX 1      xx      P   0.000
P       15.914620000    9.668920000    9.576070000 XXXX 1      xx      P   0.000
P        5.516800000    9.837150000    9.091240000 XXXX 1      xx      P   0.000
P       10.754270000    9.669740000    9.000650000 XXXX 1      xx      P   0.000
P        0.310150000   15.069230000    8.986280000 XXXX 1      xx      P   0.000
P        5.754860000   15.312420000    9.144190000 XXXX 1      xx      P   0.000
P       10.962570000   15.406250000    9.108760000 XXXX 1      xx      P   0.000
P        2.589600000    1.516790000    9.713830000 XXXX 1      xx      P   0.000
P        7.589670000    1.644820000    9.303880000 XXXX 1      xx      P   0.000
P       12.922770000    1.767390000    9.668630000 XXXX 1      xx      P   0.000
P        2.654020000    7.203990000   10.054310000 XXXX 1      xx      P   0.000
P        7.727770000    7.094510000    9.588720000 XXXX 1      xx      P   0.000
P       13.054580000    7.231230000    9.245110000 XXXX 1      xx      P   0.000
P        2.555790000   12.806010000    9.738900000 XXXX 1      xx      P   0.000
P        8.067480000   12.924230000    9.758750000 XXXX 1      xx      P   0.000
P       13.331380000   12.799310000    9.649680000 XXXX 1      xx      P   0.000
P        2.894900000    3.952860000   12.219130000 XXXX 1      xx      P   0.000
P        8.057800000    3.939090000   12.205380000 XXXX 1      xx      P   0.000
P       13.118540000    4.225750000   12.252290000 XXXX 1      xx      P   0.000
P        2.851700000    9.771670000   12.450600000 XXXX 1      xx      P   0.000
P        8.229830000    9.640480000   12.116320000 XXXX 1      xx      P   0.000
P       13.190890000    9.548410000   11.864490000 XXXX 1      xx      P   0.000
P        3.040860000   15.339560000   12.071330000 XXXX 1      xx      P   0.000
P        8.384260000   15.484430000   12.004910000 XXXX 1      xx      P   0.000
P       13.625960000   15.428610000   12.004020000 XXXX 1      xx      P   0.000
P        2.953970000    1.849680000   11.813630000 XXXX 1      xx      P   0.000
P        8.099030000    1.897740000   11.485730000 XXXX 1      xx      P   0.000
P       13.377750000    2.021620000   11.801530000 XXXX 1      xx      P   0.000
P        3.137280000    7.545540000   12.194610000 XXXX 1      xx      P   0.000
P        8.149390000    7.354620000   11.728730000 XXXX 1      xx      P   0.000
P       13.391700000    7.360280000   11.533630000 XXXX 1      xx      P   0.000
P        3.234250000   13.158330000   11.846550000 XXXX 1      xx      P   0.000
P        8.547750000   13.239640000   11.814190000 XXXX 1      xx      P   0.000
P       13.656880000   13.228050000   11.873680000 XXXX 1      xx      P   0.000
P        0.297070000    1.703860000    9.400550000 XXXX 1      xx      P   0.000
P        5.456600000    1.912840000    9.778230000 XXXX 1      xx      P   0.000
P       10.711250000    1.840480000    9.729800000 XXXX 1      xx      P   0.000
P        0.458600000    7.214750000    9.862190000 XXXX 1      xx      P   0.000
P        5.558430000    7.627430000    9.403060000 XXXX 1      xx      P   0.000
P       10.755080000    7.497130000    9.250010000 XXXX 1      xx      P   0.000
P        0.343160000   12.889290000    9.636470000 XXXX 1      xx      P   0.000
P        5.852980000   13.174410000    9.519960000 XXXX 1      xx      P   0.000
P       11.146740000   13.219010000    9.474790000 XXXX 1      xx      P   0.000
In       2.861130000    4.531450000    9.345460000 XXXX 1      xx      In  0.000
In       8.141770000    4.425550000    9.435570000 XXXX 1      xx      In  0.000
In      13.188400000    4.491580000    9.432840000 XXXX 1      xx      In  0.000
In       2.465990000   10.156260000    9.904340000 XXXX 1      xx      In  0.000
In       8.046970000    9.987180000    9.482670000 XXXX 1      xx      In  0.000
In      13.342460000   10.054520000    9.298100000 XXXX 1      xx      In  0.000
In       3.023380000   15.592540000    9.462000000 XXXX 1      xx      In  0.000
In       8.361750000   15.795240000    9.376400000 XXXX 1      xx      In  0.000
In      13.566540000   15.942320000    9.340200000 XXXX 1      xx      In  0.000
In       0.159530000    4.185800000   11.785700000 XXXX 1      xx      In  0.000
In       5.479560000    4.799620000   11.580100000 XXXX 1      xx      In  0.000
In      10.590310000    4.695460000   11.449370000 XXXX 1      xx      In  0.000
In      15.857840000   10.340550000   12.180350000 XXXX 1      xx      In  0.000
In       5.676870000   10.352930000   11.892930000 XXXX 1      xx      In  0.000
In      10.692750000   10.312590000   11.730160000 XXXX 1      xx      In  0.000
In       0.321160000   15.748660000   11.591490000 XXXX 1      xx      In  0.000
In       5.834810000   16.069180000   11.854750000 XXXX 1      xx      In  0.000
In      11.024250000   16.034370000   11.758820000 XXXX 1      xx      In  0.000
end
end
                                                                          0.0000
!DATE     May 15 21:11:07 2019
PBC   15.845   16.830   21.258   90.000   90.000   87.648
P        5.161780000    1.837530000   11.982190000 XXXX 1      xx      P   0.000
P       10.235480000    2.010650000   11.867270000 XXXX 1      xx      P   0.000
P       15.596290000    1.862250000   11.536960000 XXXX 1      xx      P   0.000
P        5.281790000    7.370940000   11.695650000 XXXX 1      xx      P   0.000
P       10.349710000    7.337600000   11.409810000 XXXX 1      xx      P   0.000
P       15.528450000    7.161130000   12.003170000 XXXX 1      xx      P   0.000
P        5.455220000   13.050170000   11.679940000 XXXX 1      xx      P   0.000
P       10.736140000   12.968370000   11.725320000 XXXX 1      xx      P   0.000
P       15.825080000   13.150590000   11.783540000 XXXX 1      xx      P   0.000
P        0.172890000    3.989380000    9.098680000 XXXX 1      xx      P   0.000
P        5.453480000    4.034800000    9.118130000 XXXX 1      xx      P   0.000
P       10.620310000    3.824350000    8.689820000 XXXX 1      xx      P   0.000
P       15.913920000    9.674850000    9.579850000 XXXX 1      xx      P   0.000
P        5.514240000    9.833190000    9.097530000 XXXX 1      xx      P   0.000
P       10.757730000    9.669870000    9.004460000 XXXX 1      xx      P   0.000
P        0.309130000   15.074790000    8.988620000 XXXX 1      xx      P   0.000
P        5.761440000   15.305500000    9.153770000 XXXX 1      xx      P   0.000
P       10.960820000   15.402340000    9.107780000 XXXX 1      xx      P   0.000
P        2.582100000    1.522980000    9.703390000 XXXX 1      xx      P   0.000
P        7.592200000    1.643780000    9.310150000 XXXX 1      xx      P   0.000
P       12.926980000    1.755340000    9.669840000 XXXX 1      xx      P   0.000
P        2.652420000    7.204390000   10.054360000 XXXX 1      xx      P   0.000
P        7.726460000    7.091370000    9.594760000 XXXX 1      xx      P   0.000
P       13.063920000    7.226540000    9.245960000 XXXX 1      xx      P   0.000
P        2.558140000   12.804990000    9.740710000 XXXX 1      xx      P   0.000
P        8.074450000   12.927680000    9.760450000 XXXX 1      xx      P   0.000
P       13.328100000   12.792040000    9.646990000 XXXX 1      xx      P   0.000
P        2.897070000    3.949920000   12.216360000 XXXX 1      xx      P   0.000
P        8.066070000    3.945140000   12.200670000 XXXX 1      xx      P   0.000
P       13.119070000    4.222450000   12.239740000 XXXX 1      xx      P   0.000
P        2.851350000    9.779120000   12.457010000 XXXX 1      xx      P   0.000
P        8.224840000    9.644300000   12.105270000 XXXX 1      xx      P   0.000
P       13.191190000    9.536070000   11.863560000 XXXX 1      xx      P   0.000
P        3.039540000   15.352010000   12.070110000 XXXX 1      xx      P   0.000
P        8.381490000   15.486750000   11.998700000 XXXX 1      xx      P   0.000
P       13.630140000   15.416930000   11.999250000 XXXX 1      xx      P   0.000
P        2.940110000    1.856090000   11.822350000 XXXX 1      xx      P   0.000
P        8.096730000    1.900510000   11.497080000 XXXX 1      xx      P   0.000
P       13.377310000    2.016020000   11.800190000 XXXX 1      xx      P   0.000
P        3.136180000    7.548980000   12.179880000 XXXX 1      xx      P   0.000
P        8.147790000    7.344290000   11.717910000 XXXX 1      xx      P   0.000
P       13.391220000    7.374710000   11.545840000 XXXX 1      xx      P   0.000
P        3.226060000   13.160290000   11.854550000 XXXX 1      xx      P   0.000
P        8.548220000   13.221620000   11.805440000 XXXX 1      xx      P   0.000
P       13.662490000   13.222960000   11.872040000 XXXX 1      xx      P   0.000
P        0.304040000    1.696400000    9.407140000 XXXX 1      xx      P   0.000
P        5.458170000    1.913630000    9.773410000 XXXX 1      xx      P   0.000
P       10.710100000    1.848070000    9.722010000 XXXX 1      xx      P   0.000
P        0.457850000    7.221290000    9.863320000 XXXX 1      xx      P   0.000
P        5.557320000    7.627090000    9.412490000 XXXX 1      xx      P   0.000
P       10.744810000    7.493670000    9.245740000 XXXX 1      xx      P   0.000
P        0.336910000   12.880480000    9.642460000 XXXX 1      xx      P   0.000
P        5.845850000   13.170370000    9.524420000 XXXX 1      xx      P   0.000
P       11.150620000   13.232580000    9.479910000 XXXX 1      xx      P   0.000
In       2.863110000    4.529980000    9.347000000 XXXX 1      xx      In  0.000
In       8.135640000    4.426780000    9.433450000 XXXX 1      xx      In  0.000
In      13.188990000    4.490460000    9.430920000 XXXX 1      xx      In  0.000
In       2.465980000   10.151590000    9.910700000 XXXX 1      xx      In  0.000
In       8.042550000    9.990070000    9.484170000 XXXX 1      xx      In  0.000
In      13.342670000   10.056420000    9.298870000 XXXX 1      xx      In  0.000
In       3.023240000   15.597680000    9.461680000 XXXX 1      xx      In  0.000
In       8.366430000   15.792450000    9.374070000 XXXX 1      xx      In  0.000
In      13.569040000   15.937850000    9.337590000 XXXX 1      xx      In  0.000
In       0.161480000    4.187090000   11.786210000 XXXX 1      xx      In  0.000
In       5.480390000    4.803040000   11.576940000 XXXX 1      xx      In  0.000
In      10.588930000    4.690890000   11.445160000 XXXX 1      xx      In  0.000
In      15.852940000   10.337760000   12.185340000 XXXX 1      xx      In  0.000
In       5.676800000   10.358870000   11.892350000 XXXX 1      xx      In  0.000
In      10.693880000   10.315750000   11.726090000 XXXX 1      xx      In  0.000
In       0.328780000   15.749250000   11.591690000 XXXX 1      xx      In  0.000
In       5.834150000   16.067890000   11.854960000 XXXX 1      xx      In  0.000
In      11.025280000   16.032850000   11.759090000 XXXX 1      xx      In  0.000
end
end
                                                                          0.0000
!DATE     May 15 21:11:07 2019
PBC   15.845   16.830   21.258   90.000   90.000   87.648
P        5.162570000    1.838280000   11.976900000 XXXX 1      xx      P   0.000
P       10.232600000    2.013590000   11.867140000 XXXX 1      xx      P   0.000
P       15.599770000    1.861530000   11.533180000 XXXX 1      xx      P   0.000
P        5.268090000    7.366920000   11.705510000 XXXX 1      xx      P   0.000
P       10.353900000    7.338140000   11.404220000 XXXX 1      xx      P   0.000
P       15.524900000    7.157880000   12.013800000 XXXX 1      xx      P   0.000
P        5.458100000   13.055480000   11.685750000 XXXX 1      xx      P   0.000
P       10.741070000   12.970290000   11.732830000 XXXX 1      xx      P   0.000
P       15.819350000   13.148230000   11.778180000 XXXX 1      xx      P   0.000
P        0.170740000    3.985490000    9.102330000 XXXX 1      xx      P   0.000
P        5.453830000    4.043530000    9.115560000 XXXX 1      xx      P   0.000
P       10.629620000    3.838980000    8.683560000 XXXX 1      xx      P   0.000
P       15.913220000    9.681320000    9.583100000 XXXX 1      xx      P   0.000
P        5.510910000    9.828760000    9.104410000 XXXX 1      xx      P   0.000
P       10.760190000    9.670390000    9.008360000 XXXX 1      xx      P   0.000
P        0.308110000   15.080080000    8.991280000 XXXX 1      xx      P   0.000
P        5.767050000   15.299040000    9.163670000 XXXX 1      xx      P   0.000
P       10.959640000   15.398390000    9.106980000 XXXX 1      xx      P   0.000
P        2.573910000    1.529190000    9.691320000 XXXX 1      xx      P   0.000
P        7.595430000    1.642850000    9.316620000 XXXX 1      xx      P   0.000
P       12.931250000    1.743180000    9.670820000 XXXX 1      xx      P   0.000
P        2.650690000    7.204950000   10.053800000 XXXX 1      xx      P   0.000
P        7.725080000    7.088870000    9.600160000 XXXX 1      xx      P   0.000
P       13.072820000    7.221520000    9.247860000 XXXX 1      xx      P   0.000
P        2.560990000   12.803630000    9.742390000 XXXX 1      xx      P   0.000
P        8.081300000   12.930330000    9.760360000 XXXX 1      xx      P   0.000
P       13.324470000   12.785250000    9.644290000 XXXX 1      xx      P   0.000
P        2.898600000    3.948050000   12.213230000 XXXX 1      xx      P   0.000
P        8.073550000    3.952430000   12.195730000 XXXX 1      xx      P   0.000
P       13.120070000    4.218690000   12.226230000 XXXX 1      xx      P   0.000
P        2.851300000    9.786070000   12.463570000 XXXX 1      xx      P   0.000
P        8.219150000    9.647220000   12.094320000 XXXX 1      xx      P   0.000
P       13.192080000    9.523990000   11.863480000 XXXX 1      xx      P   0.000
P        3.037890000   15.364550000   12.069070000 XXXX 1      xx      P   0.000
P        8.379240000   15.488410000   11.992890000 XXXX 1      xx      P   0.000
P       13.633680000   15.405240000   11.994580000 XXXX 1      xx      P   0.000
P        2.926060000    1.861780000   11.832230000 XXXX 1      xx      P   0.000
P        8.093800000    1.902550000   11.508970000 XXXX 1      xx      P   0.000
P       13.376860000    2.010500000   11.799090000 XXXX 1      xx      P   0.000
P        3.134650000    7.552580000   12.165170000 XXXX 1      xx      P   0.000
P        8.146820000    7.334830000   11.707520000 XXXX 1      xx      P   0.000
P       13.390280000    7.389040000   11.557870000 XXXX 1      xx      P   0.000
P        3.217500000   13.162140000   11.862900000 XXXX 1      xx      P   0.000
P        8.548300000   13.204140000   11.798070000 XXXX 1      xx      P   0.000
P       13.667650000   13.217770000   11.869900000 XXXX 1      xx      P   0.000
P        0.311690000    1.689820000    9.413630000 XXXX 1      xx      P   0.000
P        5.459330000    1.914250000    9.767740000 XXXX 1      xx      P   0.000
P       10.708840000    1.855610000    9.713180000 XXXX 1      xx      P   0.000
P        0.456440000    7.227090000    9.865120000 XXXX 1      xx      P   0.000
P        5.555920000    7.626580000    9.422870000 XXXX 1      xx      P   0.000
P       10.735270000    7.490110000    9.241130000 XXXX 1      xx      P   0.000
P        0.330990000   12.872090000    9.647520000 XXXX 1      xx      P   0.000
P        5.839040000   13.165790000    9.528960000 XXXX 1      xx      P   0.000
P       11.154320000   13.245730000    9.485630000 XXXX 1      xx      P   0.000
In       2.864980000    4.528430000    9.348790000 XXXX 1      xx      In  0.000
In       8.129410000    4.428090000    9.431220000 XXXX 1      xx      In  0.000
In      13.189780000    4.489490000    9.429020000 XXXX 1      xx      In  0.000
In       2.466360000   10.146890000    9.916990000 XXXX 1      xx      In  0.000
In       8.038310000    9.993260000    9.485580000 XXXX 1      xx      In  0.000
In      13.342920000   10.058540000    9.299680000 XXXX 1      xx      In  0.000
In       3.023250000   15.603070000    9.461280000 XXXX 1      xx      In  0.000
In       8.371150000   15.789610000    9.371660000 XXXX 1      xx      In  0.000
In      13.571610000   15.933220000    9.334960000 XXXX 1      xx      In  0.000
In       0.163510000    4.188560000   11.786700000 XXXX 1      xx      In  0.000
In       5.481300000    4.806380000   11.574010000 XXXX 1      xx      In  0.000
In      10.587660000    4.686410000   11.440970000 XXXX 1      xx      In  0.000
In      15.847970000   10.334970000   12.190360000 XXXX 1      xx      In  0.000
In       5.676550000   10.364910000   11.891630000 XXXX 1      xx      In  0.000
In      10.695160000   10.318920000   11.721840000 XXXX 1      xx      In  0.000
In       0.336730000   15.749700000   11.592000000 XXXX 1      xx      In  0.000
In       5.833330000   16.066440000   11.855050000 XXXX 1      xx      In  0.000
In      11.026330000   16.031400000   11.759410000 XXXX 1      xx      In  0.000
end
end
                                                                          0.0000
!DATE     May 15 21:11:07 2019
PBC   15.845   16.830   21.258   90.000   90.000   87.648
P        5.163310000    1.838660000   11.971640000 XXXX 1      xx      P   0.000
P       10.230500000    2.015050000   11.867170000 XXXX 1      xx      P   0.000
P       15.603180000    1.861010000   11.529960000 XXXX 1      xx      P   0.000
P        5.254450000    7.363530000   11.714890000 XXXX 1      xx      P   0.000
P       10.358460000    7.337830000   11.399080000 XXXX 1      xx      P   0.000
P       15.522040000    7.155300000   12.023660000 XXXX 1      xx      P   0.000
P        5.460350000   13.060650000   11.692090000 XXXX 1      xx      P   0.000
P       10.745850000   12.972370000   11.739610000 XXXX 1      xx      P   0.000
P       15.814480000   13.145230000   11.773920000 XXXX 1      xx      P   0.000
P        0.168310000    3.980770000    9.106230000 XXXX 1      xx      P   0.000
P        5.454130000    4.052120000    9.112330000 XXXX 1      xx      P   0.000
P       10.638760000    3.853930000    8.677760000 XXXX 1      xx      P   0.000
P       15.912520000    9.688310000    9.585820000 XXXX 1      xx      P   0.000
P        5.506770000    9.823900000    9.111840000 XXXX 1      xx      P   0.000
P       10.761590000    9.671280000    9.012320000 XXXX 1      xx      P   0.000
P        0.307110000   15.084980000    8.994260000 XXXX 1      xx      P   0.000
P        5.771630000   15.293130000    9.173810000 XXXX 1      xx      P   0.000
P       10.959080000   15.394570000    9.106340000 XXXX 1      xx      P   0.000
P        2.565190000    1.535380000    9.677940000 XXXX 1      xx      P   0.000
P        7.599380000    1.642070000    9.323310000 XXXX 1      xx      P   0.000
P       12.935470000    1.731030000    9.671530000 XXXX 1      xx      P   0.000
P        2.648780000    7.205680000   10.052470000 XXXX 1      xx      P   0.000
P        7.723590000    7.087040000    9.604680000 XXXX 1      xx      P   0.000
P       13.081130000    7.216230000    9.250880000 XXXX 1      xx      P   0.000
P        2.564280000   12.801950000    9.744000000 XXXX 1      xx      P   0.000
P        8.087880000   12.932110000    9.758260000 XXXX 1      xx      P   0.000
P       13.320540000   12.779030000    9.641600000 XXXX 1      xx      P   0.000
P        2.899450000    3.947440000   12.209790000 XXXX 1      xx      P   0.000
P        8.080160000    3.960990000   12.190590000 XXXX 1      xx      P   0.000
P       13.121540000    4.214450000   12.211820000 XXXX 1      xx      P   0.000
P        2.851560000    9.792430000   12.470230000 XXXX 1      xx      P   0.000
P        8.212830000    9.649150000   12.083570000 XXXX 1      xx      P   0.000
P       13.193530000    9.512550000   11.864310000 XXXX 1      xx      P   0.000
P        3.035920000   15.377030000   12.068220000 XXXX 1      xx      P   0.000
P        8.377570000   15.489290000   11.987530000 XXXX 1      xx      P   0.000
P       13.636540000   15.393670000   11.990020000 XXXX 1      xx      P   0.000
P        2.912010000    1.866540000   11.842950000 XXXX 1      xx      P   0.000
P        8.090250000    1.903850000   11.521290000 XXXX 1      xx      P   0.000
P       13.376430000    2.005100000   11.798240000 XXXX 1      xx      P   0.000
P        3.132560000    7.556390000   12.150740000 XXXX 1      xx      P   0.000
P        8.146570000    7.326400000   11.697840000 XXXX 1      xx      P   0.000
P       13.388880000    7.402840000   11.569530000 XXXX 1      xx      P   0.000
P        3.208700000   13.163960000   11.871520000 XXXX 1      xx      P   0.000
P        8.548020000   13.187450000   11.792310000 XXXX 1      xx      P   0.000
P       13.672190000   13.212450000   11.867270000 XXXX 1      xx      P   0.000
P        0.319890000    1.684200000    9.419830000 XXXX 1      xx      P   0.000
P        5.460040000    1.914750000    9.761250000 XXXX 1      xx      P   0.000
P       10.707510000    1.863090000    9.703400000 XXXX 1      xx      P   0.000
P        0.454320000    7.232110000    9.867630000 XXXX 1      xx      P   0.000
P        5.554230000    7.625880000    9.434150000 XXXX 1      xx      P   0.000
P       10.726660000    7.486510000    9.236200000 XXXX 1      xx      P   0.000
P        0.325530000   12.864240000    9.651430000 XXXX 1      xx      P   0.000
P        5.832690000   13.160670000    9.533600000 XXXX 1      xx      P   0.000
P       11.157770000   13.258210000    9.491950000 XXXX 1      xx      P   0.000
In       2.866710000    4.526810000    9.350800000 XXXX 1      xx      In  0.000
In       8.123120000    4.429450000    9.428890000 XXXX 1      xx      In  0.000
In      13.190770000    4.488650000    9.427160000 XXXX 1      xx      In  0.000
In       2.467140000   10.142170000    9.923180000 XXXX 1      xx      In  0.000
In       8.034280000    9.996720000    9.486870000 XXXX 1      xx      In  0.000
In      13.343180000   10.060860000    9.300520000 XXXX 1      xx      In  0.000
In       3.023410000   15.608680000    9.460800000 XXXX 1      xx      In  0.000
In       8.375890000   15.786730000    9.369170000 XXXX 1      xx      In  0.000
In      13.574250000   15.928460000    9.332320000 XXXX 1      xx      In  0.000
In       0.165630000    4.190220000   11.787160000 XXXX 1      xx      In  0.000
In       5.482290000    4.809600000   11.571330000 XXXX 1      xx      In  0.000
In      10.586500000    4.682040000   11.436800000 XXXX 1      xx      In  0.000
In      15.842930000   10.332170000   12.195410000 XXXX 1      xx      In  0.000
In       5.676140000   10.371040000   11.890770000 XXXX 1      xx      In  0.000
In      10.696590000   10.322100000   11.717430000 XXXX 1      xx      In  0.000
In       0.344990000   15.750010000   11.592430000 XXXX 1      xx      In  0.000
In       5.832340000   16.064820000   11.855020000 XXXX 1      xx      In  0.000
In      11.027380000   16.030020000   11.759770000 XXXX 1      xx      In  0.000
end
end
                                                                          0.0000
!DATE     May 15 21:11:07 2019
PBC   15.845   16.830   21.258   90.000   90.000   87.648
P        5.163910000    1.838670000   11.966420000 XXXX 1      xx      P   0.000
P       10.229240000    2.015000000   11.867260000 XXXX 1      xx      P   0.000
P       15.606460000    1.860680000   11.527450000 XXXX 1      xx      P   0.000
P        5.241120000    7.360810000   11.723750000 XXXX 1      xx      P   0.000
P       10.363290000    7.336640000   11.394410000 XXXX 1      xx      P   0.000
P       15.519930000    7.153430000   12.032680000 XXXX 1      xx      P   0.000
P        5.461860000   13.065670000   11.698960000 XXXX 1      xx      P   0.000
P       10.750420000   12.974590000   11.745590000 XXXX 1      xx      P   0.000
P       15.810590000   13.141560000   11.770910000 XXXX 1      xx      P   0.000
P        0.165640000    3.975230000    9.110340000 XXXX 1      xx      P   0.000
P        5.454350000    4.060460000    9.108410000 XXXX 1      xx      P   0.000
P       10.647630000    3.869090000    8.672460000 XXXX 1      xx      P   0.000
P       15.911840000    9.695750000    9.587970000 XXXX 1      xx      P   0.000
P        5.501810000    9.818640000    9.119800000 XXXX 1      xx      P   0.000
P       10.761880000    9.672470000    9.016320000 XXXX 1      xx      P   0.000
P        0.306140000   15.089350000    8.997550000 XXXX 1      xx      P   0.000
P        5.775110000   15.287800000    9.184150000 XXXX 1      xx      P   0.000
P       10.959210000   15.391040000    9.105840000 XXXX 1      xx      P   0.000
P        2.556100000    1.541510000    9.663570000 XXXX 1      xx      P   0.000
P        7.604050000    1.641460000    9.330270000 XXXX 1      xx      P   0.000
P       12.939550000    1.718990000    9.671930000 XXXX 1      xx      P   0.000
P        2.646680000    7.206550000   10.050230000 XXXX 1      xx      P   0.000
P        7.721970000    7.085910000    9.608090000 XXXX 1      xx      P   0.000
P       13.088730000    7.210720000    9.255050000 XXXX 1      xx      P   0.000
P        2.567930000   12.799990000    9.745570000 XXXX 1      xx      P   0.000
P        8.094070000   12.932960000    9.753980000 XXXX 1      xx      P   0.000
P       13.316330000   12.773430000    9.638930000 XXXX 1      xx      P   0.000
P        2.899600000    3.948220000   12.206050000 XXXX 1      xx      P   0.000
P        8.085810000    3.970740000   12.185280000 XXXX 1      xx      P   0.000
P       13.123500000    4.209740000   12.196590000 XXXX 1      xx      P   0.000
P        2.852120000    9.798150000   12.476980000 XXXX 1      xx      P   0.000
P        8.205950000    9.650030000   12.073110000 XXXX 1      xx      P   0.000
P       13.195490000    9.502180000   11.866100000 XXXX 1      xx      P   0.000
P        3.033680000   15.389280000   12.067580000 XXXX 1      xx      P   0.000
P        8.376510000   15.489260000   11.982660000 XXXX 1      xx      P   0.000
P       13.638700000   15.382340000   11.985600000 XXXX 1      xx      P   0.000
P        2.898160000    1.870190000   11.854210000 XXXX 1      xx      P   0.000
P        8.086080000    1.904400000   11.533960000 XXXX 1      xx      P   0.000
P       13.376070000    1.999850000   11.797640000 XXXX 1      xx      P   0.000
P        3.129750000    7.560440000   12.136870000 XXXX 1      xx      P   0.000
P        8.147100000    7.319080000   11.689110000 XXXX 1      xx      P   0.000
P       13.387050000    7.415710000   11.580660000 XXXX 1      xx      P   0.000
P        3.199770000   13.165810000   11.880340000 XXXX 1      xx      P   0.000
P        8.547400000   13.171730000   11.788330000 XXXX 1      xx      P   0.000
P       13.675920000   13.206960000   11.864150000 XXXX 1      xx      P   0.000
P        0.328470000    1.679640000    9.425570000 XXXX 1      xx      P   0.000
P        5.460270000    1.915180000    9.753980000 XXXX 1      xx      P   0.000
P       10.706160000    1.870500000    9.692770000 XXXX 1      xx      P   0.000
P        0.451450000    7.236310000    9.870890000 XXXX 1      xx      P   0.000
P        5.552270000    7.624950000    9.446310000 XXXX 1      xx      P   0.000
P       10.719150000    7.482930000    9.230950000 XXXX 1      xx      P   0.000
P        0.320650000   12.857020000    9.654060000 XXXX 1      xx      P   0.000
P        5.826900000   13.155010000    9.538340000 XXXX 1      xx      P   0.000
P       11.160900000   13.269750000    9.498900000 XXXX 1      xx      P   0.000
In       2.868290000    4.525130000    9.353050000 XXXX 1      xx      In  0.000
In       8.116820000    4.430870000    9.426450000 XXXX 1      xx      In  0.000
In      13.191980000    4.487950000    9.425330000 XXXX 1      xx      In  0.000
In       2.468310000   10.137470000    9.929260000 XXXX 1      xx      In  0.000
In       8.030470000   10.000470000    9.488030000 XXXX 1      xx      In  0.000
In      13.343460000   10.063370000    9.301400000 XXXX 1      xx      In  0.000
In       3.023740000   15.614500000    9.460240000 XXXX 1      xx      In  0.000
In       8.380630000   15.783830000    9.366600000 XXXX 1      xx      In  0.000
In      13.576940000   15.923570000    9.329690000 XXXX 1      xx      In  0.000
In       0.167820000    4.192050000   11.787600000 XXXX 1      xx      In  0.000
In       5.483350000    4.812670000   11.568910000 XXXX 1      xx      In  0.000
In      10.585480000    4.677820000   11.432670000 XXXX 1      xx      In  0.000
In      15.837860000   10.329380000   12.200460000 XXXX 1      xx      In  0.000
In       5.675550000   10.377240000   11.889790000 XXXX 1      xx      In  0.000
In      10.698150000   10.325250000   11.712860000 XXXX 1      xx      In  0.000
In       0.353520000   15.750170000   11.592980000 XXXX 1      xx      In  0.000
In       5.831180000   16.063050000   11.854880000 XXXX 1      xx      In  0.000
In      11.028450000   16.028720000   11.760190000 XXXX 1      xx      In  0.000
end
end
                                                                          0.0000
!DATE     May 15 21:11:07 2019
PBC   15.845   16.830   21.258   90.000   90.000   87.648
P        5.164250000    1.838330000   11.961230000 XXXX 1      xx      P   0.000
P       10.228840000    2.013400000   11.867320000 XXXX 1      xx      P   0.000
P       15.609560000    1.860520000   11.525750000 XXXX 1      xx      P   0.000
P        5.228310000    7.358820000   11.732030000 XXXX 1      xx      P   0.000
P       10.368320000    7.334550000   11.390230000 XXXX 1      xx      P   0.000
P       15.518580000    7.152330000   12.040800000 XXXX 1      xx      P   0.000
P        5.462540000   13.070520000   11.706350000 XXXX 1      xx      P   0.000
P       10.754740000   12.976910000   11.750770000 XXXX 1      xx      P   0.000
P       15.807840000   13.137240000   11.769250000 XXXX 1      xx      P   0.000
P        0.162750000    3.968900000    9.114620000 XXXX 1      xx      P   0.000
P        5.454470000    4.068440000    9.103820000 XXXX 1      xx      P   0.000
P       10.656130000    3.884350000    8.667710000 XXXX 1      xx      P   0.000
P       15.911180000    9.703570000    9.589570000 XXXX 1      xx      P   0.000
P        5.496030000    9.813000000    9.128250000 XXXX 1      xx      P   0.000
P       10.761040000    9.673950000    9.020300000 XXXX 1      xx      P   0.000
P        0.305220000   15.093100000    9.001130000 XXXX 1      xx      P   0.000
P        5.777480000   15.283100000    9.194590000 XXXX 1      xx      P   0.000
P       10.960060000   15.387960000    9.105470000 XXXX 1      xx      P   0.000
P        2.546840000    1.547520000    9.648550000 XXXX 1      xx      P   0.000
P        7.609410000    1.641040000    9.337510000 XXXX 1      xx      P   0.000
P       12.943410000    1.707210000    9.671990000 XXXX 1      xx      P   0.000
P        2.644330000    7.207570000   10.046960000 XXXX 1      xx      P   0.000
P        7.720170000    7.085490000    9.610200000 XXXX 1      xx      P   0.000
P       13.095520000    7.205090000    9.260390000 XXXX 1      xx      P   0.000
P        2.571850000   12.797760000    9.747160000 XXXX 1      xx      P   0.000
P        8.099780000   12.932840000    9.747490000 XXXX 1      xx      P   0.000
P       13.311930000   12.768520000    9.636290000 XXXX 1      xx      P   0.000
P        2.899040000    3.950470000   12.202060000 XXXX 1      xx      P   0.000
P        8.090440000    3.981600000   12.179850000 XXXX 1      xx      P   0.000
P       13.125930000    4.204570000   12.180630000 XXXX 1      xx      P   0.000
P        2.852960000    9.803180000   12.483760000 XXXX 1      xx      P   0.000
P        8.198630000    9.649810000   12.063020000 XXXX 1      xx      P   0.000
P       13.197920000    9.493310000   11.868890000 XXXX 1      xx      P   0.000
P        3.031170000   15.401160000   12.067170000 XXXX 1      xx      P   0.000
P        8.376060000   15.488250000   11.978320000 XXXX 1      xx      P   0.000
P       13.640180000   15.371360000   11.981320000 XXXX 1      xx      P   0.000
P        2.884680000    1.872620000   11.865680000 XXXX 1      xx      P   0.000
P        8.081340000    1.904240000   11.546900000 XXXX 1      xx      P   0.000
P       13.375820000    1.994770000   11.797300000 XXXX 1      xx      P   0.000
P        3.126120000    7.564760000   12.123820000 XXXX 1      xx      P   0.000
P        8.148490000    7.312960000   11.681560000 XXXX 1      xx      P   0.000
P       13.384850000    7.427190000   11.591140000 XXXX 1      xx      P   0.000
P        3.190810000   13.167770000   11.889270000 XXXX 1      xx      P   0.000
P        8.546500000   13.157170000   11.786220000 XXXX 1      xx      P   0.000
P       13.678690000   13.201270000   11.860540000 XXXX 1      xx      P   0.000
P        0.337240000    1.676160000    9.430650000 XXXX 1      xx      P   0.000
P        5.460010000    1.915580000    9.745980000 XXXX 1      xx      P   0.000
P       10.704850000    1.877830000    9.681370000 XXXX 1      xx      P   0.000
P        0.447790000    7.239710000    9.874910000 XXXX 1      xx      P   0.000
P        5.550030000    7.623770000    9.459270000 XXXX 1      xx      P   0.000
P       10.712870000    7.479420000    9.225410000 XXXX 1      xx      P   0.000
P        0.316460000   12.850520000    9.655300000 XXXX 1      xx      P   0.000
P        5.821770000   13.148820000    9.543210000 XXXX 1      xx      P   0.000
P       11.163650000   13.280140000    9.506490000 XXXX 1      xx      P   0.000
In       2.869700000    4.523400000    9.355510000 XXXX 1      xx      In  0.000
In       8.110530000    4.432320000    9.423920000 XXXX 1      xx      In  0.000
In      13.193390000    4.487370000    9.423530000 XXXX 1      xx      In  0.000
In       2.469880000   10.132790000    9.935200000 XXXX 1      xx      In  0.000
In       8.026920000   10.004490000    9.489030000 XXXX 1      xx      In  0.000
In      13.343750000   10.066030000    9.302300000 XXXX 1      xx      In  0.000
In       3.024230000   15.620510000    9.459590000 XXXX 1      xx      In  0.000
In       8.385360000   15.780910000    9.363970000 XXXX 1      xx      In  0.000
In      13.579660000   15.918550000    9.327050000 XXXX 1      xx      In  0.000
In       0.170070000    4.194060000   11.788010000 XXXX 1      xx      In  0.000
In       5.484500000    4.815590000   11.566770000 XXXX 1      xx      In  0.000
In      10.584590000    4.673750000   11.428580000 XXXX 1      xx      In  0.000
In      15.832760000   10.326600000   12.205500000 XXXX 1      xx      In  0.000
In       5.674780000   10.383500000   11.888680000 XXXX 1      xx      In  0.000
In      10.699840000   10.328370000   11.708160000 XXXX 1      xx      In  0.000
In       0.362290000   15.750200000   11.593660000 XXXX 1      xx      In  0.000
In       5.829870000   16.061140000   11.854620000 XXXX 1      xx      In  0.000
In      11.029520000   16.027510000   11.760650000 XXXX 1      xx      In  0.000
end
end
                                                                          0.0000
!DATE     May 15 21:11:07 2019
PBC   15.845   16.830   21.258   90.000   90.000   87.648
P        5.164250000    1.837670000   11.956070000 XXXX 1      xx      P   0.000
P       10.229280000    2.010240000   11.867240000 XXXX 1      xx      P   0.000
P       15.612440000    1.860500000   11.524980000 XXXX 1      xx      P   0.000
P        5.216260000    7.357550000   11.739730000 XXXX 1      xx      P   0.000
P       10.373480000    7.331560000   11.386530000 XXXX 1      xx      P   0.000
P       15.517990000    7.152040000   12.048020000 XXXX 1      xx      P   0.000
P        5.462310000   13.075160000   11.714210000 XXXX 1      xx      P   0.000
P       10.758740000   12.979340000   11.755130000 XXXX 1      xx      P   0.000
P       15.806330000   13.132280000   11.769010000 XXXX 1      xx      P   0.000
P        0.159690000    3.961820000    9.119040000 XXXX 1      xx      P   0.000
P        5.454430000    4.076000000    9.098580000 XXXX 1      xx      P   0.000
P       10.664220000    3.899600000    8.663550000 XXXX 1      xx      P   0.000
P       15.910560000    9.711690000    9.590600000 XXXX 1      xx      P   0.000
P        5.489460000    9.807040000    9.137160000 XXXX 1      xx      P   0.000
P       10.759080000    9.675640000    9.024260000 XXXX 1      xx      P   0.000
P        0.304390000   15.096130000    9.004990000 XXXX 1      xx      P   0.000
P        5.778700000   15.279040000    9.205060000 XXXX 1      xx      P   0.000
P       10.961670000   15.385470000    9.105190000 XXXX 1      xx      P   0.000
P        2.537600000    1.553360000    9.633160000 XXXX 1      xx      P   0.000
P        7.615420000    1.640840000    9.345070000 XXXX 1      xx      P   0.000
P       12.946960000    1.695790000    9.671670000 XXXX 1      xx      P   0.000
P        2.641690000    7.208720000   10.042550000 XXXX 1      xx      P   0.000
P        7.718190000    7.085790000    9.610860000 XXXX 1      xx      P   0.000
P       13.101410000    7.199390000    9.266910000 XXXX 1      xx      P   0.000
P        2.575960000   12.795320000    9.748810000 XXXX 1      xx      P   0.000
P        8.104930000   12.931740000    9.738810000 XXXX 1      xx      P   0.000
P       13.307390000   12.764350000    9.633690000 XXXX 1      xx      P   0.000
P        2.897770000    3.954230000   12.197830000 XXXX 1      xx      P   0.000
P        8.093960000    3.993480000   12.174310000 XXXX 1      xx      P   0.000
P       13.128830000    4.198950000   12.164020000 XXXX 1      xx      P   0.000
P        2.854080000    9.807480000   12.490550000 XXXX 1      xx      P   0.000
P        8.190950000    9.648470000   12.053420000 XXXX 1      xx      P   0.000
P       13.200730000    9.486350000   11.872710000 XXXX 1      xx      P   0.000
P        3.028440000   15.412550000   12.067010000 XXXX 1      xx      P   0.000
P        8.376260000   15.486170000   11.974550000 XXXX 1      xx      P   0.000
P       13.640980000   15.360860000   11.977200000 XXXX 1      xx      P   0.000
P        2.871750000    1.873770000   11.877080000 XXXX 1      xx      P   0.000
P        8.076100000    1.903440000   11.560040000 XXXX 1      xx      P   0.000
P       13.375720000    1.989870000   11.797200000 XXXX 1      xx      P   0.000
P        3.121520000    7.569350000   12.111810000 XXXX 1      xx      P   0.000
P        8.150750000    7.308120000   11.675380000 XXXX 1      xx      P   0.000
P       13.382330000    7.436860000   11.600850000 XXXX 1      xx      P   0.000
P        3.181910000   13.169910000   11.898230000 XXXX 1      xx      P   0.000
P        8.545330000   13.143890000   11.785940000 XXXX 1      xx      P   0.000
P       13.680380000   13.195370000   11.856480000 XXXX 1      xx      P   0.000
P        0.345980000    1.673820000    9.434950000 XXXX 1      xx      P   0.000
P        5.459250000    1.916000000    9.737300000 XXXX 1      xx      P   0.000
P       10.703610000    1.885060000    9.669330000 XXXX 1      xx      P   0.000
P        0.443330000    7.242340000    9.879690000 XXXX 1      xx      P   0.000
P        5.547530000    7.622330000    9.472980000 XXXX 1      xx      P   0.000
P       10.707940000    7.476050000    9.219610000 XXXX 1      xx      P   0.000
P        0.313080000   12.844830000    9.655070000 XXXX 1      xx      P   0.000
P        5.817350000   13.142160000    9.548200000 XXXX 1      xx      P   0.000
P       11.165950000   13.289160000    9.514710000 XXXX 1      xx      P   0.000
In       2.870950000    4.521620000    9.358180000 XXXX 1      xx      In  0.000
In       8.104290000    4.433810000    9.421290000 XXXX 1      xx      In  0.000
In      13.195030000    4.486920000    9.421770000 XXXX 1      xx      In  0.000
In       2.471860000   10.128170000    9.941000000 XXXX 1      xx      In  0.000
In       8.023610000   10.008780000    9.489860000 XXXX 1      xx      In  0.000
In      13.344050000   10.068830000    9.303220000 XXXX 1      xx      In  0.000
In       3.024890000   15.626690000    9.458850000 XXXX 1      xx      In  0.000
In       8.390040000   15.777980000    9.361280000 XXXX 1      xx      In  0.000
In      13.582420000   15.913420000    9.324430000 XXXX 1      xx      In  0.000
In       0.172380000    4.196230000   11.788400000 XXXX 1      xx      In  0.000
In       5.485730000    4.818340000   11.564900000 XXXX 1      xx      In  0.000
In      10.583870000    4.669870000   11.424540000 XXXX 1      xx      In  0.000
In      15.827670000   10.323830000   12.210530000 XXXX 1      xx      In  0.000
In       5.673830000   10.389800000   11.887470000 XXXX 1      xx      In  0.000
In      10.701640000   10.331440000   11.703330000 XXXX 1      xx      In  0.000
In       0.371240000   15.750080000   11.594460000 XXXX 1      xx      In  0.000
In       5.828420000   16.059100000   11.854260000 XXXX 1      xx      In  0.000
In      11.030610000   16.026400000   11.761170000 XXXX 1      xx      In  0.000
end
end
                                                                          0.0000
!DATE     May 15 21:11:07 2019
PBC   15.845   16.830   21.258   90.000   90.000   87.648
P        5.163810000    1.836700000   11.950930000 XXXX 1      xx      P   0.000
P       10.230560000    2.005530000   11.866920000 XXXX 1      xx      P   0.000
P       15.615050000    1.860610000   11.525190000 XXXX 1      xx      P   0.000
P        5.205160000    7.357010000   11.746860000 XXXX 1      xx      P   0.000
P       10.378720000    7.327670000   11.383280000 XXXX 1      xx      P   0.000
P       15.518170000    7.152570000   12.054320000 XXXX 1      xx      P   0.000
P        5.461140000   13.079570000   11.722510000 XXXX 1      xx      P   0.000
P       10.762380000   12.981820000   11.758690000 XXXX 1      xx      P   0.000
P       15.806130000   13.126700000   11.770170000 XXXX 1      xx      P   0.000
P        0.156480000    3.954030000    9.123560000 XXXX 1      xx      P   0.000
P        5.454220000    4.083040000    9.092710000 XXXX 1      xx      P   0.000
P       10.671820000    3.914770000    8.660020000 XXXX 1      xx      P   0.000
P       15.909980000    9.719990000    9.591090000 XXXX 1      xx      P   0.000
P        5.482100000    9.800810000    9.146490000 XXXX 1      xx      P   0.000
P       10.756010000    9.677510000    9.028160000 XXXX 1      xx      P   0.000
P        0.303660000   15.098380000    9.009090000 XXXX 1      xx      P   0.000
P        5.778800000   15.275610000    9.215510000 XXXX 1      xx      P   0.000
P       10.964040000   15.383690000    9.104980000 XXXX 1      xx      P   0.000
P        2.528620000    1.559000000    9.617720000 XXXX 1      xx      P   0.000
P        7.622040000    1.640870000    9.352990000 XXXX 1      xx      P   0.000
P       12.950150000    1.684840000    9.670940000 XXXX 1      xx      P   0.000
P        2.638730000    7.209980000   10.036930000 XXXX 1      xx      P   0.000
P        7.716000000    7.086800000    9.609960000 XXXX 1      xx      P   0.000
P       13.106350000    7.193680000    9.274590000 XXXX 1      xx      P   0.000
P        2.580210000   12.792710000    9.750560000 XXXX 1      xx      P   0.000
P        8.109450000   12.929660000    9.728080000 XXXX 1      xx      P   0.000
P       13.302790000   12.760970000    9.631140000 XXXX 1      xx      P   0.000
P        2.895780000    3.959460000   12.193370000 XXXX 1      xx      P   0.000
P        8.096340000    4.006220000   12.168660000 XXXX 1      xx      P   0.000
P       13.132150000    4.192890000   12.146870000 XXXX 1      xx      P   0.000
P        2.855440000    9.811030000   12.497290000 XXXX 1      xx      P   0.000
P        8.183030000    9.645980000   12.044390000 XXXX 1      xx      P   0.000
P       13.203870000    9.481650000   11.877580000 XXXX 1      xx      P   0.000
P        3.025520000   15.423310000   12.067100000 XXXX 1      xx      P   0.000
P        8.377090000   15.482980000   11.971350000 XXXX 1      xx      P   0.000
P       13.641130000   15.350920000   11.973260000 XXXX 1      xx      P   0.000
P        2.859500000    1.873640000   11.888150000 XXXX 1      xx      P   0.000
P        8.070450000    1.902090000   11.573300000 XXXX 1      xx      P   0.000
P       13.375800000    1.985180000   11.797320000 XXXX 1      xx      P   0.000
P        3.115870000    7.574210000   12.101030000 XXXX 1      xx      P   0.000
P        8.153910000    7.304580000   11.670690000 XXXX 1      xx      P   0.000
P       13.379550000    7.444330000   11.609690000 XXXX 1      xx      P   0.000
P        3.173170000   13.172300000   11.907130000 XXXX 1      xx      P   0.000
P        8.543910000   13.131980000   11.787410000 XXXX 1      xx      P   0.000
P       13.680920000   13.189220000   11.851980000 XXXX 1      xx      P   0.000
P        0.354440000    1.672610000    9.438350000 XXXX 1      xx      P   0.000
P        5.458030000    1.916460000    9.728000000 XXXX 1      xx      P   0.000
P       10.702480000    1.892180000    9.656800000 XXXX 1      xx      P   0.000
P        0.438060000    7.244250000    9.885210000 XXXX 1      xx      P   0.000
P        5.544800000    7.620620000    9.487350000 XXXX 1      xx      P   0.000
P       10.704430000    7.472850000    9.213610000 XXXX 1      xx      P   0.000
P        0.310580000   12.840010000    9.653360000 XXXX 1      xx      P   0.000
P        5.813710000   13.135080000    9.553330000 XXXX 1      xx      P   0.000
P       11.167730000   13.296660000    9.523530000 XXXX 1      xx      P   0.000
In       2.872000000    4.519800000    9.361060000 XXXX 1      xx      In  0.000
In       8.098130000    4.435320000    9.418570000 XXXX 1      xx      In  0.000
In      13.196880000    4.486590000    9.420040000 XXXX 1      xx      In  0.000
In       2.474230000   10.123620000    9.946630000 XXXX 1      xx      In  0.000
In       8.020560000   10.013330000    9.490480000 XXXX 1      xx      In  0.000
In      13.344340000   10.071750000    9.304160000 XXXX 1      xx      In  0.000
In       3.025720000   15.633010000    9.458010000 XXXX 1      xx      In  0.000
In       8.394660000   15.775040000    9.358530000 XXXX 1      xx      In  0.000
In      13.585200000   15.908190000    9.321840000 XXXX 1      xx      In  0.000
In       0.174740000    4.198570000   11.788770000 XXXX 1      xx      In  0.000
In       5.487040000    4.820890000   11.563330000 XXXX 1      xx      In  0.000
In      10.583310000    4.666160000   11.420540000 XXXX 1      xx      In  0.000
In      15.822580000   10.321090000   12.215530000 XXXX 1      xx      In  0.000
In       5.672670000   10.396120000   11.886150000 XXXX 1      xx      In  0.000
In      10.703540000   10.334450000   11.698400000 XXXX 1      xx      In  0.000
In       0.380350000   15.749820000   11.595390000 XXXX 1      xx      In  0.000
In       5.826820000   16.056940000   11.853790000 XXXX 1      xx      In  0.000
In      11.031710000   16.025390000   11.761750000 XXXX 1      xx      In  0.000
end
end
