  Supercell 331 from POSCAR
 1.000000
     15.840813352529      0.349424263479     -0.000016118700
      0.319556293094     16.826850501406     -0.000000810672
      0.000003417594     -0.000007872587     21.258271417199
   P    In
   54   18
 Direct
    0.317489631659    0.088996981267    0.549754610317
    0.650822974926    0.088996981267    0.549754610317
    0.984156318194    0.088996981267    0.549754610317
    0.317489631659    0.422330324535    0.549754610317
    0.650822974926    0.422330324535    0.549754610317
    0.984156318194    0.422330324535    0.549754610317
    0.317489631659    0.755663667802    0.549754610317
    0.650822974926    0.755663667802    0.549754610317
    0.984156318194    0.755663667802    0.549754610317
    0.002008364547    0.231287946352    0.429211285221
    0.335341707815    0.231287946352    0.429211285221
    0.668675051082    0.231287946352    0.429211285221
    0.002008364547    0.564621289619    0.429211285221
    0.335341707815    0.564621289619    0.429211285221
    0.668675051082    0.564621289619    0.429211285221
    0.002008364547    0.897954632887    0.429211285221
    0.335341707815    0.897954632887    0.429211285221
    0.668675051082    0.897954632887    0.429211285221
    0.150822872273    0.088997038390    0.450250263356
    0.484156215540    0.088997038390    0.450250263356
    0.817489558808    0.088997038390    0.450250263356
    0.150822872273    0.422330381658    0.450250263356
    0.484156215540    0.422330381658    0.450250263356
    0.817489558808    0.422330381658    0.450250263356
    0.150822872273    0.755663724925    0.450250263356
    0.484156215540    0.755663724925    0.450250263356
    0.817489558808    0.755663724925    0.450250263356
    0.168674944010    0.231287942208    0.570793706849
    0.502008287277    0.231287942208    0.570793706849
    0.835341630545    0.231287942208    0.570793706849
    0.168674944010    0.564621285476    0.570793706849
    0.502008287277    0.564621285476    0.570793706849
    0.835341630545    0.564621285476    0.570793706849
    0.168674944010    0.897954628743    0.570793706849
    0.502008287277    0.897954628743    0.570793706849
    0.835341630545    0.897954628743    0.570793706849
    0.176936244309    0.101268129233    0.553202815488
    0.510269587577    0.101268129233    0.553202815488
    0.843602930844    0.101268129233    0.553202815488
    0.176936244309    0.434601472500    0.553202815488
    0.510269587577    0.434601472500    0.553202815488
    0.843602930844    0.434601472500    0.553202815488
    0.176936244309    0.767934815768    0.553202815488
    0.510269587577    0.767934815768    0.553202815488
    0.843602930844    0.767934815768    0.553202815488
    0.010269462595    0.101268011895    0.446802311632
    0.343602805862    0.101268011895    0.446802311632
    0.676936149130    0.101268011895    0.446802311632
    0.010269462595    0.434601355163    0.446802311632
    0.343602805862    0.434601355163    0.446802311632
    0.676936149130    0.434601355163    0.446802311632
    0.010269462595    0.767934698430    0.446802311632
    0.343602805862    0.767934698430    0.446802311632
    0.676936149130    0.767934698430    0.446802311632
    0.170232574160    0.263386969620    0.446131601968
    0.503565917428    0.263386969620    0.446131601968
    0.836899260695    0.263386969620    0.446131601968
    0.170232574160    0.596720312887    0.446131601968
    0.503565917428    0.596720312887    0.446131601968
    0.836899260695    0.596720312887    0.446131601968
    0.170232574160    0.930053656154    0.446131601968
    0.503565917428    0.930053656154    0.446131601968
    0.836899260695    0.930053656154    0.446131601968
    0.003565910113    0.263386952035    0.553873431168
    0.336899253381    0.263386952035    0.553873431168
    0.670232596648    0.263386952035    0.553873431168
    0.003565910113    0.596720295302    0.553873431168
    0.336899253381    0.596720295302    0.553873431168
    0.670232596648    0.596720295302    0.553873431168
    0.003565910113    0.930053638570    0.553873431168
    0.336899253381    0.930053638570    0.553873431168
    0.670232596648    0.930053638570    0.553873431168
