 vasp.5.4.4.18Apr17-6-g9f103f2a35 (build Jul 15 2017 10:54:59) complex          
  
 executed on             LinuxIFC date 2017.12.13  13:52:34
 running on   24 total cores
 distrk:  each k-point on   24 cores,    1 groups
 distr:  one band on NCORES_PER_BAND=   1 cores,   24 groups


--------------------------------------------------------------------------------------------------------


 INCAR:
 POTCAR:    PAW_PBE P 06Sep2000                   
 POTCAR:    PAW_PBE In 08Apr2002                  

 ----------------------------------------------------------------------------- 
|                                                                             |
|           W    W    AA    RRRRR   N    N  II  N    N   GGGG   !!!           |
|           W    W   A  A   R    R  NN   N  II  NN   N  G    G  !!!           |
|           W    W  A    A  R    R  N N  N  II  N N  N  G       !!!           |
|           W WW W  AAAAAA  RRRRR   N  N N  II  N  N N  G  GGG   !            |
|           WW  WW  A    A  R   R   N   NN  II  N   NN  G    G                |
|           W    W  A    A  R    R  N    N  II  N    N   GGGG   !!!           |
|                                                                             |
|      For optimal performance we recommend to set                            |
|        NCORE= 4 - approx SQRT( number of cores)                             |
|      NCORE specifies how many cores store one orbital (NPAR=cpu/NCORE).     |
|      This setting can  greatly improve the performance of VASP for DFT.     |
|      The default,   NCORE=1            might be grossly inefficient         |
|      on modern multi-core architectures or massively parallel machines.     |
|      Do your own testing !!!!                                               |
|      Unfortunately you need to use the default for GW and RPA calculations. |
|      (for HF NCORE is supported but not extensively tested yet)             |
|                                                                             |
 ----------------------------------------------------------------------------- 

 POTCAR:    PAW_PBE P 06Sep2000                   
   VRHFIN =P : s2p3                                                             
   LEXCH  = PE                                                                  
   EATOM  =   176.0430 eV,   12.9388 Ry                                         
                                                                                
   TITEL  = PAW_PBE P 06Sep2000                                                 
   LULTRA =        F    use ultrasoft PP ?                                      
   IUNSCR =        1    unscreen: 0-lin 1-nonlin 2-no                           
   RPACOR =    1.500    partial core radius                                     
   POMASS =   30.974; ZVAL   =    5.000    mass and valenz                      
   RCORE  =    1.900    outmost cutoff radius                                   
   RWIGS  =    2.330; RWIGS  =    1.233    wigner-seitz radius (au A)           
   ENMAX  =  255.040; ENMIN  =  191.280 eV                                      
   ICORE  =        2    local potential                                         
   LCOR   =        T    correct aug charges                                     
   LPAW   =        T    paw PP                                                  
   EAUG   =  342.924                                                            
   DEXC   =    0.000                                                            
   RMAX   =    1.935    core radius for proj-oper                               
   RAUG   =    1.300    factor for augmentation sphere                          
   RDEP   =    1.931    radius for radial grids                                 
   RDEPT  =    1.794    core radius for aug-charge                              
                                                                                
   Atomic configuration                                                         
    6 entries                                                                   
     n  l   j            E        occ.                                          
     1  0  0.50     -2084.0982   2.0000                                         
     2  0  0.50      -173.9859   2.0000                                         
     2  1  1.50      -124.4865   6.0000                                         
     3  0  0.50       -13.9692   2.0000                                         
     3  1  0.50        -5.5067   3.0000                                         
     3  2  1.50        -5.4423   0.0000                                         
   Description                                                                  
     l       E           TYP  RCUT    TYP  RCUT                                 
     0    -13.9691527     23  1.900                                             
     0    -11.7794650     23  1.900                                             
     1     -5.5066937     23  1.900                                             
     1     -0.2556953     23  1.900                                             
     2     -5.4423304     23  1.900                                             
  local pseudopotential read in
  partial core-charges read in
  partial kinetic energy density read in
  atomic valenz-charges read in
  non local Contribution for L=           0  read in
    real space projection operators read in
  non local Contribution for L=           0  read in
    real space projection operators read in
  non local Contribution for L=           1  read in
    real space projection operators read in
  non local Contribution for L=           1  read in
    real space projection operators read in
    PAW grid and wavefunctions read in
 
   number of l-projection  operators is LMAX  =           4
   number of lm-projection operators is LMMAX =           8
 
 POTCAR:    PAW_PBE In 08Apr2002                  
   VRHFIN =In: s2p1                                                             
   LEXCH  = PE                                                                  
   EATOM  =    53.7908 eV,    3.9535 Ry                                         
                                                                                
   TITEL  = PAW_PBE In 08Apr2002                                                
   LULTRA =        F    use ultrasoft PP ?                                      
   IUNSCR =        1    unscreen: 0-lin 1-nonlin 2-no                           
   RPACOR =    2.400    partial core radius                                     
   POMASS =  114.820; ZVAL   =    3.000    mass and valenz                      
   RCORE  =    3.100    outmost cutoff radius                                   
   RWIGS  =    3.170; RWIGS  =    1.677    wigner-seitz radius (au A)           
   ENMAX  =   95.934; ENMIN  =   71.951 eV                                      
   ICORE  =        3    local potential                                         
   LCOR   =        T    correct aug charges                                     
   LPAW   =        T    paw PP                                                  
   EAUG   =  237.125                                                            
   DEXC   =    0.000                                                            
   RMAX   =    3.168    core radius for proj-oper                               
   RAUG   =    1.300    factor for augmentation sphere                          
   RDEP   =    3.187    radius for radial grids                                 
   RDEPT  =    2.711    core radius for aug-charge                              
                                                                                
   Atomic configuration                                                         
   13 entries                                                                   
     n  l   j            E        occ.                                          
     1  0  0.50    -27747.9169   2.0000                                         
     2  0  0.50     -4154.4438   2.0000                                         
     2  1  1.50     -3728.4305   6.0000                                         
     3  0  0.50      -788.3680   2.0000                                         
     3  1  1.50      -648.9215   6.0000                                         
     3  2  2.50      -432.5893  10.0000                                         
     4  0  0.50      -119.6363   2.0000                                         
     4  1  1.50       -78.1086   6.0000                                         
     4  2  2.50       -18.6227  10.0000                                         
     5  0  0.50        -8.2107   2.0000                                         
     5  1  0.50        -2.5185   1.0000                                         
     5  2  2.50        -1.3606   0.0000                                         
     4  3  2.50        -2.7212   0.0000                                         
   Description                                                                  
     l       E           TYP  RCUT    TYP  RCUT                                 
     0     -8.2107306     23  3.100                                             
     0     -6.1485975     23  3.100                                             
     1     -2.5184867     23  3.100                                             
     1      3.2427302     23  3.100                                             
     2     -1.3605826     23  3.100                                             
     3     -1.3605826     23  3.100                                             
  local pseudopotential read in
  partial core-charges read in
  partial kinetic energy density read in
  atomic valenz-charges read in
  non local Contribution for L=           0  read in
    real space projection operators read in
  non local Contribution for L=           0  read in
    real space projection operators read in
  non local Contribution for L=           1  read in
    real space projection operators read in
  non local Contribution for L=           1  read in
    real space projection operators read in
  non local Contribution for L=           2  read in
    real space projection operators read in
    PAW grid and wavefunctions read in
 
   number of l-projection  operators is LMAX  =           5
   number of lm-projection operators is LMMAX =          13
 
  PAW_PBE P 06Sep2000                   :
 energy of atom  1       EATOM= -176.0430
 kinetic energy error for atom=    0.0013 (will be added to EATOM!!)
  PAW_PBE In 08Apr2002                  :
 energy of atom  2       EATOM=  -53.7908
 kinetic energy error for atom=    0.0000 (will be added to EATOM!!)
 
 
 POSCAR: deta\(2)                                
  positions in direct lattice
  velocities in cartesian coordinates
 exchange correlation table for  LEXCH =        8
   RHO(1)=    0.500       N(1)  =     2000
   RHO(2)=  100.500       N(2)  =     4000

 VTST: version 3.1, (03/28/14)

 CHAIN: initializing optimizer
 
 OPT: Using VASP Dynamics algorithm
 CHAIN: Read ICHAIN            0
 
 POSCAR: deta\(2)                                
  positions in direct lattice
  velocities in cartesian coordinates
 


--------------------------------------------------------------------------------------------------------


 ion  position               nearest neighbor table
   1  0.952  0.267  0.550-   5 2.23   6 2.24   8 2.68   8 2.96
   2  0.006  0.694  0.429-   6 2.22   7 2.67   8 2.70   7 2.76
   3  0.452  0.267  0.450-   6 2.23   5 2.24   7 2.68   7 2.96
   4  0.506  0.694  0.571-   5 2.22   8 2.67   7 2.70   8 2.76
   5  0.531  0.304  0.553-   4 2.22   1 2.23   3 2.24
   6  0.031  0.304  0.447-   2 2.22   3 2.23   1 2.24
   7  0.511  0.790  0.446-   2 2.67   3 2.68   4 2.70   2 2.76   3 2.96   8 3.50   8 3.50
   8  0.011  0.790  0.554-   4 2.67   1 2.68   2 2.70   4 2.76   1 2.96   7 3.50   7 3.50
 
  LATTYP: Found a simple monoclinic cell.
 ALAT       =     7.8611701269
 B/A-ratio  =     2.7042121051
 C/A-ratio  =     1.5470965569
 COS(beta)  =    -0.9508522463
  
  Lattice vectors:
  
 A1 = (  -5.3867898819,  -5.7254249216,   0.0000056431)
 A2 = (  -0.0000034176,   0.0000078726, -21.2582714172)
 A3 = (  10.6670609994,   5.8418996761,  -0.0000110160)


Analysis of symmetry for initial positions (statically):
=====================================================================
 Subroutine PRICEL returns:
 Original cell was already a primitive cell.
 

 Routine SETGRP: Setting up the symmetry group for a 
 simple monoclinic supercell.


 Subroutine GETGRP returns: Found  2 space group operations
 (whereof  1 operations were pure point group operations)
 out of a pool of  4 trial point group operations.


The static configuration has the point symmetry C_1 .
 The point group associated with its full space group is C_1h.


Analysis of symmetry for dynamics (positions and initial velocities):
=====================================================================
 Subroutine PRICEL returns:
 Original cell was already a primitive cell.
 

 Routine SETGRP: Setting up the symmetry group for a 
 simple monoclinic supercell.


 Subroutine GETGRP returns: Found  2 space group operations
 (whereof  1 operations were pure point group operations)
 out of a pool of  4 trial point group operations.


The dynamic configuration has the point symmetry C_1 .
 The point group associated with its full space group is C_1h.


 Subroutine INISYM returns: Found  2 space group operations
 (whereof  1 operations are pure point group operations),
 and found     1 'primitive' translations

 
 
 KPOINTS: Auto                                    

Automatic generation of k-mesh.
Space group operators:
 irot       det(A)        alpha          n_x          n_y          n_z        tau_x        tau_y        tau_z
    1     1.000000     0.000001     1.000000     0.000000     0.000000     0.000000     0.000000     0.000000
    2    -1.000000   179.999999    -0.000001    -0.000000    -1.000000     0.500000    -0.000000    -0.999995
 
 Subroutine IBZKPT returns following result:
 ===========================================
 
 Found    113 irreducible k-points:
 
 Following reciprocal coordinates:
            Coordinates               Weight
  0.000000  0.000000  0.000000      1.000000
  0.066667 -0.000000  0.000000      2.000000
  0.133333 -0.000000  0.000000      2.000000
  0.200000 -0.000000  0.000000      2.000000
  0.266667 -0.000000  0.000000      2.000000
  0.333333 -0.000000  0.000000      2.000000
  0.400000 -0.000000  0.000000      2.000000
  0.466667 -0.000000 -0.000000      2.000000
  0.000000  0.066667 -0.000000      2.000000
  0.066667  0.066667 -0.000000      2.000000
  0.133333  0.066667 -0.000000      2.000000
  0.200000  0.066667  0.000000      2.000000
  0.266667  0.066667 -0.000000      2.000000
  0.333333  0.066667  0.000000      2.000000
  0.400000  0.066667  0.000000      2.000000
  0.466667  0.066667  0.000000      2.000000
 -0.466667  0.066667  0.000000      2.000000
 -0.400000  0.066667  0.000000      2.000000
 -0.333333  0.066667 -0.000000      2.000000
 -0.266667  0.066667  0.000000      2.000000
 -0.200000  0.066667  0.000000      2.000000
 -0.133333  0.066667  0.000000      2.000000
 -0.066667  0.066667 -0.000000      2.000000
  0.000000  0.133333 -0.000000      2.000000
  0.066667  0.133333 -0.000000      2.000000
  0.133333  0.133333 -0.000000      2.000000
  0.200000  0.133333 -0.000000      2.000000
  0.266667  0.133333 -0.000000      2.000000
  0.333333  0.133333 -0.000000      2.000000
  0.400000  0.133333  0.000000      2.000000
  0.466667  0.133333  0.000000      2.000000
 -0.466667  0.133333  0.000000      2.000000
 -0.400000  0.133333  0.000000      2.000000
 -0.333333  0.133333  0.000000      2.000000
 -0.266667  0.133333 -0.000000      2.000000
 -0.200000  0.133333 -0.000000      2.000000
 -0.133333  0.133333  0.000000      2.000000
 -0.066667  0.133333 -0.000000      2.000000
  0.000000  0.200000  0.000000      2.000000
  0.066667  0.200000  0.000000      2.000000
  0.133333  0.200000  0.000000      2.000000
  0.200000  0.200000  0.000000      2.000000
  0.266667  0.200000  0.000000      2.000000
  0.333333  0.200000 -0.000000      2.000000
  0.400000  0.200000 -0.000000      2.000000
  0.466667  0.200000 -0.000000      2.000000
 -0.466667  0.200000 -0.000000      2.000000
 -0.400000  0.200000 -0.000000      2.000000
 -0.333333  0.200000 -0.000000      2.000000
 -0.266667  0.200000 -0.000000      2.000000
 -0.200000  0.200000 -0.000000      2.000000
 -0.133333  0.200000 -0.000000      2.000000
 -0.066667  0.200000 -0.000000      2.000000
  0.000000  0.266667 -0.000000      2.000000
  0.066667  0.266667 -0.000000      2.000000
  0.133333  0.266667 -0.000000      2.000000
  0.200000  0.266667 -0.000000      2.000000
  0.266667  0.266667 -0.000000      2.000000
  0.333333  0.266667 -0.000000      2.000000
  0.400000  0.266667 -0.000000      2.000000
  0.466667  0.266667 -0.000000      2.000000
 -0.466667  0.266667  0.000000      2.000000
 -0.400000  0.266667  0.000000      2.000000
 -0.333333  0.266667 -0.000000      2.000000
 -0.266667  0.266667 -0.000000      2.000000
 -0.200000  0.266667 -0.000000      2.000000
 -0.133333  0.266667 -0.000000      2.000000
 -0.066667  0.266667 -0.000000      2.000000
  0.000000  0.333333 -0.000000      2.000000
  0.066667  0.333333 -0.000000      2.000000
  0.133333  0.333333 -0.000000      2.000000
  0.200000  0.333333 -0.000000      2.000000
  0.266667  0.333333 -0.000000      2.000000
  0.333333  0.333333 -0.000000      2.000000
  0.400000  0.333333 -0.000000      2.000000
  0.466667  0.333333 -0.000000      2.000000
 -0.466667  0.333333 -0.000000      2.000000
 -0.400000  0.333333 -0.000000      2.000000
 -0.333333  0.333333  0.000000      2.000000
 -0.266667  0.333333  0.000000      2.000000
 -0.200000  0.333333  0.000000      2.000000
 -0.133333  0.333333  0.000000      2.000000
 -0.066667  0.333333  0.000000      2.000000
  0.000000  0.400000  0.000000      2.000000
  0.066667  0.400000 -0.000000      2.000000
  0.133333  0.400000  0.000000      2.000000
  0.200000  0.400000 -0.000000      2.000000
  0.266667  0.400000 -0.000000      2.000000
  0.333333  0.400000 -0.000000      2.000000
  0.400000  0.400000  0.000000      2.000000
  0.466667  0.400000 -0.000000      2.000000
 -0.466667  0.400000  0.000000      2.000000
 -0.400000  0.400000 -0.000000      2.000000
 -0.333333  0.400000  0.000000      2.000000
 -0.266667  0.400000 -0.000000      2.000000
 -0.200000  0.400000 -0.000000      2.000000
 -0.133333  0.400000 -0.000000      2.000000
 -0.066667  0.400000 -0.000000      2.000000
  0.000000  0.466667 -0.000000      2.000000
  0.066667  0.466667 -0.000000      2.000000
  0.133333  0.466667  0.000000      2.000000
  0.200000  0.466667  0.000000      2.000000
  0.266667  0.466667 -0.000000      2.000000
  0.333333  0.466667  0.000000      2.000000
  0.400000  0.466667 -0.000000      2.000000
  0.466667  0.466667  0.000000      2.000000
 -0.466667  0.466667  0.000000      2.000000
 -0.400000  0.466667  0.000000      2.000000
 -0.333333  0.466667 -0.000000      2.000000
 -0.266667  0.466667 -0.000000      2.000000
 -0.200000  0.466667 -0.000000      2.000000
 -0.133333  0.466667 -0.000000      2.000000
 -0.066667  0.466667 -0.000000      2.000000
 
 Following cartesian coordinates:
            Coordinates               Weight
  0.000000  0.000000  0.000000      1.000000
  0.012631 -0.000240 -0.000000      2.000000
  0.025262 -0.000480 -0.000000      2.000000
  0.037893 -0.000720 -0.000000      2.000000
  0.050524 -0.000959 -0.000000      2.000000
  0.063155 -0.001199 -0.000000      2.000000
  0.075785 -0.001439 -0.000000      2.000000
  0.088416 -0.001679 -0.000000      2.000000
 -0.000262  0.011891  0.000000      2.000000
  0.012369  0.011651  0.000000      2.000000
  0.025000  0.011411  0.000000      2.000000
  0.037630  0.011171 -0.000000      2.000000
  0.050261  0.010931 -0.000000      2.000000
  0.062892  0.010691 -0.000000      2.000000
  0.075523  0.010452 -0.000000      2.000000
  0.088154  0.010212 -0.000000      2.000000
 -0.088679  0.013570  0.000000      2.000000
 -0.076048  0.013330  0.000000      2.000000
 -0.063417  0.013090  0.000000      2.000000
 -0.050786  0.012850  0.000000      2.000000
 -0.038155  0.012610  0.000000      2.000000
 -0.025524  0.012370  0.000000      2.000000
 -0.012893  0.012131  0.000000      2.000000
 -0.000525  0.023781  0.000000      2.000000
  0.012106  0.023542  0.000000      2.000000
  0.024737  0.023302  0.000000      2.000000
  0.037368  0.023062  0.000000      2.000000
  0.049999  0.022822  0.000000      2.000000
  0.062630  0.022582 -0.000000      2.000000
  0.075261  0.022342 -0.000000      2.000000
  0.087892  0.022102 -0.000000      2.000000
 -0.088941  0.025461  0.000000      2.000000
 -0.076310  0.025221  0.000000      2.000000
 -0.063679  0.024981  0.000000      2.000000
 -0.051048  0.024741  0.000000      2.000000
 -0.038417  0.024501  0.000000      2.000000
 -0.025786  0.024261  0.000000      2.000000
 -0.013155  0.024021  0.000000      2.000000
 -0.000787  0.035672  0.000000      2.000000
  0.011844  0.035432  0.000000      2.000000
  0.024475  0.035192  0.000000      2.000000
  0.037106  0.034953  0.000000      2.000000
  0.049737  0.034713  0.000000      2.000000
  0.062368  0.034473  0.000000      2.000000
  0.074999  0.034233  0.000000      2.000000
  0.087629  0.033993 -0.000000      2.000000
 -0.089203  0.037351  0.000000      2.000000
 -0.076572  0.037111  0.000000      2.000000
 -0.063941  0.036872  0.000000      2.000000
 -0.051310  0.036632  0.000000      2.000000
 -0.038680  0.036392  0.000000      2.000000
 -0.026049  0.036152  0.000000      2.000000
 -0.013418  0.035912  0.000000      2.000000
 -0.001049  0.047563  0.000000      2.000000
  0.011582  0.047323  0.000000      2.000000
  0.024213  0.047083  0.000000      2.000000
  0.036844  0.046843  0.000000      2.000000
  0.049474  0.046603  0.000000      2.000000
  0.062105  0.046364  0.000000      2.000000
  0.074736  0.046124  0.000000      2.000000
  0.087367  0.045884  0.000000      2.000000
 -0.089466  0.049242  0.000000      2.000000
 -0.076835  0.049002  0.000000      2.000000
 -0.064204  0.048762  0.000000      2.000000
 -0.051573  0.048522  0.000000      2.000000
 -0.038942  0.048283  0.000000      2.000000
 -0.026311  0.048043  0.000000      2.000000
 -0.013680  0.047803  0.000000      2.000000
 -0.001311  0.059454  0.000000      2.000000
  0.011319  0.059214  0.000000      2.000000
  0.023950  0.058974  0.000000      2.000000
  0.036581  0.058734  0.000000      2.000000
  0.049212  0.058494  0.000000      2.000000
  0.061843  0.058254  0.000000      2.000000
  0.074474  0.058015  0.000000      2.000000
  0.087105  0.057775  0.000000      2.000000
 -0.089728  0.061133  0.000000      2.000000
 -0.077097  0.060893  0.000000      2.000000
 -0.064466  0.060653  0.000000      2.000000
 -0.051835  0.060413  0.000000      2.000000
 -0.039204  0.060173  0.000000      2.000000
 -0.026573  0.059933  0.000000      2.000000
 -0.013942  0.059694  0.000000      2.000000
 -0.001574  0.071344  0.000000      2.000000
  0.011057  0.071105  0.000000      2.000000
  0.023688  0.070865  0.000000      2.000000
  0.036319  0.070625  0.000000      2.000000
  0.048950  0.070385  0.000000      2.000000
  0.061581  0.070145  0.000000      2.000000
  0.074212  0.069905  0.000000      2.000000
  0.086843  0.069665  0.000000      2.000000
 -0.089990  0.073024  0.000000      2.000000
 -0.077359  0.072784  0.000000      2.000000
 -0.064728  0.072544  0.000000      2.000000
 -0.052097  0.072304  0.000000      2.000000
 -0.039466  0.072064  0.000000      2.000000
 -0.026836  0.071824  0.000000      2.000000
 -0.014205  0.071584  0.000000      2.000000
 -0.001836  0.083235  0.000000      2.000000
  0.010795  0.082995  0.000000      2.000000
  0.023426  0.082755  0.000000      2.000000
  0.036057  0.082516  0.000000      2.000000
  0.048688  0.082276  0.000000      2.000000
  0.061318  0.082036  0.000000      2.000000
  0.073949  0.081796  0.000000      2.000000
  0.086580  0.081556  0.000000      2.000000
 -0.090252  0.084914  0.000000      2.000000
 -0.077621  0.084674  0.000000      2.000000
 -0.064991  0.084435  0.000000      2.000000
 -0.052360  0.084195  0.000000      2.000000
 -0.039729  0.083955  0.000000      2.000000
 -0.027098  0.083715  0.000000      2.000000
 -0.014467  0.083475  0.000000      2.000000
 
 TETIRR: Found    672 inequivalent tetrahedra from     1350


--------------------------------------------------------------------------------------------------------




 Dimension of arrays:
   k-points           NKPTS =    113   k-points in BZ     NKDIM =    113   number of bands    NBANDS=     24
   number of dos      NEDOS =    800   number of ions     NIONS =      8
   non local maximal  LDIM  =      5   non local SUM 2l+1 LMDIM =     13
   total plane-waves  NPLWV = 115200
   max r-space proj   IRMAX =      1   max aug-charges    IRDMAX=  20847
   dimension x,y,z NGX =    30 NGY =   32 NGZ =  120
   dimension x,y,z NGXF=    60 NGYF=   64 NGZF=  240
   support grid    NGXF=    60 NGYF=   64 NGZF=  240
   ions per type =               6   2
   NGX,Y,Z   is equivalent  to a cutoff of   9.44,  9.48,  9.38 a.u.
   NGXF,Y,Z  is equivalent  to a cutoff of  18.89, 18.97, 18.77 a.u.

 SYSTEM =  AlN 0001 surface 2x2 Ga_T4              
 POSCAR =  deta\(2)                                

 Startparameter for this run:
   NWRITE =      2    write-flag & timer
   PREC   = normal    normal or accurate (medium, high low for compatibility)
   ISTART =      0    job   : 0-new  1-cont  2-samecut
   ICHARG =     11    charge: 1-file 2-atom 10-const
   ISPIN  =      1    spin polarized calculation?
   LNONCOLLINEAR =      F non collinear calculations
   LSORBIT =      F    spin-orbit coupling
   INIWAV =      1    electr: 0-lowe 1-rand  2-diag
   LASPH  =      F    aspherical Exc in radial PAW
   METAGGA=      F    non-selfconsistent MetaGGA calc.

 Electronic Relaxation 1
   ENCUT  =  500.0 eV  36.75 Ry    6.06 a.u.   9.63 10.23 38.76*2*pi/ulx,y,z
   ENINI  =  500.0     initial cutoff
   ENAUG  =  342.9 eV  augmentation charge cutoff
   NELM   =     60;   NELMIN=  2; NELMDL= -5     # of ELM steps 
   EDIFF  = 0.1E-04   stopping-criterion for ELM
   LREAL  =      F    real-space projection
   NLSPLINE    = F    spline interpolate recip. space projectors
   LCOMPAT=      F    compatible to vasp.4.4
   GGA_COMPAT  = T    GGA compatible to vasp.4.4-vasp.4.6
   LMAXPAW     = -100 max onsite density
   LMAXMIX     =    2 max onsite mixed and CHGCAR
   VOSKOWN=      0    Vosko Wilk Nusair interpolation
   ROPT   =    0.00000   0.00000
 Ionic relaxation
   EDIFFG = -.2E-01   stopping-criterion for IOM
   NSW    =      0    number of steps for IOM
   NBLOCK =      1;   KBLOCK =      1    inner block; outer block 
   IBRION =     -1    ionic relax: 0-MD 1-quasi-New 2-CG
   NFREE  =      0    steps in history (QN), initial steepest desc. (CG)
   ISIF   =      2    stress and relaxation
   IWAVPR =     10    prediction:  0-non 1-charg 2-wave 3-comb
   ISYM   =      2    0-nonsym 1-usesym 2-fastsym
   LCORR  =      T    Harris-Foulkes like correction to forces

   POTIM  = 0.5000    time-step for ionic-motion
   TEIN   =    0.0    initial temperature
   TEBEG  =    0.0;   TEEND  =   0.0 temperature during run
   SMASS  =  -3.00    Nose mass-parameter (am)
   estimated Nose-frequenzy (Omega)   =  0.10E-29 period in steps =****** mass=  -0.637E-27a.u.
   SCALEE = 1.0000    scale energy and forces
   NPACO  =    256;   APACO  = 16.0  distance and # of slots for P.C.
   PSTRESS=    0.0 pullay stress

  Mass of Ions in am
   POMASS =  30.97114.82
  Ionic Valenz
   ZVAL   =   5.00  3.00
  Atomic Wigner-Seitz radii
   RWIGS  =  -1.00 -1.00
  virtual crystal weights 
   VCA    =   1.00  1.00
   NELECT =      36.0000    total number of electrons
   NUPDOWN=      -1.0000    fix difference up-down

 DOS related values:
   EMIN   =  10.00;   EMAX   =-10.00  energy-range for DOS
   EFERMI =   0.00
   ISMEAR =    -5;   SIGMA  =   0.01  broadening in eV -4-tet -1-fermi 0-gaus

 Electronic relaxation 2 (details)
   IALGO  =     38    algorithm
   LDIAG  =      T    sub-space diagonalisation (order eigenvalues)
   LSUBROT=      F    optimize rotation matrix (better conditioning)
   TURBO    =      0    0=normal 1=particle mesh
   IRESTART =      0    0=no restart 2=restart with 2 vectors
   NREBOOT  =      0    no. of reboots
   NMIN     =      0    reboot dimension
   EREF     =   0.00    reference energy to select bands
   IMIX   =      4    mixing-type and parameters
     AMIX     =   0.40;   BMIX     =  1.00
     AMIX_MAG =   1.60;   BMIX_MAG =  1.00
     AMIN     =   0.10
     WC   =   100.;   INIMIX=   1;  MIXPRE=   1;  MAXMIX= -45

 Intra band minimization:
   WEIMIN = 0.0000     energy-eigenvalue tresh-hold
   EBREAK =  0.10E-06  absolut break condition
   DEPER  =   0.30     relativ break condition  

   TIME   =   0.40     timestep for ELM

  volume/ion in A,a.u.               =      78.67       530.87
  Fermi-wavevector in a.u.,A,eV,Ry     =   0.630785  1.192010  5.413611  0.397889
  Thomas-Fermi vector in A             =   1.693536
 
 Write flags
   LWAVE        =      F    write WAVECAR
   LDOWNSAMPLE  =      F    k-point downsampling of WAVECAR
   LCHARG       =      F    write CHGCAR
   LVTOT        =      F    write LOCPOT, total local potential
   LVHAR        =      F    write LOCPOT, Hartree potential only
   LELF         =      F    write electronic localiz. function (ELF)
   LORBIT       =     10    0 simple, 1 ext, 2 COOP (PROOUT), +10 PAW based schemes


 Dipole corrections
   LMONO  =      F    monopole corrections only (constant potential shift)
   LDIPOL =      F    correct potential (dipole corrections)
   IDIPOL =      0    1-x, 2-y, 3-z, 4-all directions 
   EPSILON=  1.0000000 bulk dielectric constant

 Exchange correlation treatment:
   GGA     =    PE    GGA type
   LEXCH   =     8    internal setting for exchange type
   VOSKOWN=      0    Vosko Wilk Nusair interpolation
   LHFCALC =     F    Hartree Fock is set to
   LHFONE  =     F    Hartree Fock one center treatment
   AEXX    =    0.0000 exact exchange contribution

 Linear response parameters
   LEPSILON=     F    determine dielectric tensor
   LRPA    =     F    only Hartree local field effects (RPA)
   LNABLA  =     F    use nabla operator in PAW spheres
   LVEL    =     F    velocity operator in full k-point grid
   LINTERFAST=   F  fast interpolation
   KINTER  =     0    interpolate to denser k-point grid
   CSHIFT  =0.1000    complex shift for real part using Kramers Kronig
   OMEGAMAX=  -1.0    maximum frequency
   DEG_THRESHOLD= 0.2000000E-02 threshold for treating states as degnerate
   RTIME   =   -0.100 relaxation time in fs
  (WPLASMAI=    0.000 imaginary part of plasma frequency in eV, 0.658/RTIME)
   DFIELD  = 0.0000000 0.0000000 0.0000000 field for delta impulse in time
 
 Orbital magnetization related:
   ORBITALMAG=     F  switch on orbital magnetization
   LCHIMAG   =     F  perturbation theory with respect to B field
   DQ        =  0.001000  dq finite difference perturbation B field
   LLRAUG    =     F  two centre corrections for induced B field



--------------------------------------------------------------------------------------------------------


 Static calculation
 charge density and potential remain constant during run
 non-spin polarized calculation
 Variant of blocked Davidson
 Davidson routine will perform the subspace rotation
 perform sub-space diagonalisation
    after iterative eigenvector-optimisation
 no mixing
 using additional bands            6
 reciprocal scheme for non local part
 use partial core corrections
 calculate Harris-corrections to forces 
   (improved forces if not selfconsistent)
 use gradient corrections 
 WARNING: stress and forces are not correct
  (second derivative of E(xc) not defined)
 use of overlap-Matrix (Vanderbilt PP)
 Fermi weights with tetrahedron method with Bloechl corrections


--------------------------------------------------------------------------------------------------------


  energy-cutoff  :      500.00
  volume of cell :      629.34
      direct lattice vectors                 reciprocal lattice vectors
     5.280271118  0.116474754 -0.000005373     0.189463583 -0.003598076 -0.000000032
     0.106518764  5.608950167 -0.000000270    -0.003934377  0.178361200  0.000000067
     0.000003418 -0.000007873 21.258271417     0.000000048  0.000000001  0.047040513

  length of vectors
     5.281555589  5.609961517 21.258271417     0.189497745  0.178404588  0.047040513


 
 k-points in units of 2pi/SCALE and weight: Auto                                    
   0.00000000  0.00000000  0.00000000       0.004
   0.01263091 -0.00023987 -0.00000000       0.009
   0.02526181 -0.00047974 -0.00000000       0.009
   0.03789272 -0.00071962 -0.00000001       0.009
   0.05052362 -0.00095949 -0.00000001       0.009
   0.06315453 -0.00119936 -0.00000001       0.009
   0.07578543 -0.00143923 -0.00000001       0.009
   0.08841634 -0.00167910 -0.00000001       0.009
  -0.00026229  0.01189075  0.00000000       0.009
   0.01236861  0.01165087  0.00000000       0.009
   0.02499952  0.01141100  0.00000000       0.009
   0.03763042  0.01117113 -0.00000000       0.009
   0.05026133  0.01093126 -0.00000000       0.009
   0.06289224  0.01069139 -0.00000001       0.009
   0.07552314  0.01045152 -0.00000001       0.009
   0.08815405  0.01021164 -0.00000001       0.009
  -0.08867863  0.01356985  0.00000002       0.009
  -0.07604772  0.01332998  0.00000002       0.009
  -0.06341682  0.01309011  0.00000002       0.009
  -0.05078591  0.01285023  0.00000001       0.009
  -0.03815501  0.01261036  0.00000001       0.009
  -0.02552410  0.01237049  0.00000001       0.009
  -0.01289320  0.01213062  0.00000001       0.009
  -0.00052458  0.02378149  0.00000001       0.009
   0.01210632  0.02354162  0.00000001       0.009
   0.02473723  0.02330175  0.00000000       0.009
   0.03736813  0.02306188  0.00000000       0.009
   0.04999904  0.02282201  0.00000000       0.009
   0.06262994  0.02258213 -0.00000000       0.009
   0.07526085  0.02234226 -0.00000000       0.009
   0.08789176  0.02210239 -0.00000001       0.009
  -0.08894092  0.02546060  0.00000002       0.009
  -0.07631002  0.02522072  0.00000002       0.009
  -0.06367911  0.02498085  0.00000002       0.009
  -0.05104821  0.02474098  0.00000002       0.009
  -0.03841730  0.02450111  0.00000002       0.009
  -0.02578639  0.02426124  0.00000001       0.009
  -0.01315549  0.02402137  0.00000001       0.009
  -0.00078688  0.03567224  0.00000001       0.009
   0.01184403  0.03543237  0.00000001       0.009
   0.02447494  0.03519250  0.00000001       0.009
   0.03710584  0.03495262  0.00000001       0.009
   0.04973675  0.03471275  0.00000000       0.009
   0.06236765  0.03447288  0.00000000       0.009
   0.07499856  0.03423301  0.00000000       0.009
   0.08762946  0.03399314 -0.00000000       0.009
  -0.08920321  0.03735134  0.00000003       0.009
  -0.07657231  0.03711147  0.00000003       0.009
  -0.06394140  0.03687160  0.00000002       0.009
  -0.05131050  0.03663173  0.00000002       0.009
  -0.03867959  0.03639186  0.00000002       0.009
  -0.02604869  0.03615198  0.00000002       0.009
  -0.01341778  0.03591211  0.00000002       0.009
  -0.00104917  0.04756299  0.00000002       0.009
   0.01158174  0.04732312  0.00000002       0.009
   0.02421264  0.04708324  0.00000001       0.009
   0.03684355  0.04684337  0.00000001       0.009
   0.04947445  0.04660350  0.00000001       0.009
   0.06210536  0.04636363  0.00000001       0.009
   0.07473627  0.04612376  0.00000001       0.009
   0.08736717  0.04588388  0.00000000       0.009
  -0.08946551  0.04924209  0.00000003       0.009
  -0.07683460  0.04900222  0.00000003       0.009
  -0.06420369  0.04876235  0.00000003       0.009
  -0.05157279  0.04852247  0.00000003       0.009
  -0.03894188  0.04828260  0.00000002       0.009
  -0.02631098  0.04804273  0.00000002       0.009
  -0.01368007  0.04780286  0.00000002       0.009
  -0.00131146  0.05945373  0.00000002       0.009
   0.01131945  0.05921386  0.00000002       0.009
   0.02395035  0.05897399  0.00000002       0.009
   0.03658126  0.05873412  0.00000002       0.009
   0.04921216  0.05849425  0.00000001       0.009
   0.06184307  0.05825437  0.00000001       0.009
   0.07447397  0.05801450  0.00000001       0.009
   0.08710488  0.05777463  0.00000001       0.009
  -0.08972780  0.06113284  0.00000004       0.009
  -0.07709689  0.06089296  0.00000003       0.009
  -0.06446599  0.06065309  0.00000003       0.009
  -0.05183508  0.06041322  0.00000003       0.009
  -0.03920418  0.06017335  0.00000003       0.009
  -0.02657327  0.05993348  0.00000003       0.009
  -0.01394236  0.05969361  0.00000002       0.009
  -0.00157375  0.07134448  0.00000003       0.009
   0.01105715  0.07110461  0.00000002       0.009
   0.02368806  0.07086474  0.00000002       0.009
   0.03631897  0.07062487  0.00000002       0.009
   0.04894987  0.07038499  0.00000002       0.009
   0.06158078  0.07014512  0.00000002       0.009
   0.07421168  0.06990525  0.00000001       0.009
   0.08684259  0.06966538  0.00000001       0.009
  -0.08999009  0.07302358  0.00000004       0.009
  -0.07735918  0.07278371  0.00000004       0.009
  -0.06472828  0.07254384  0.00000004       0.009
  -0.05209737  0.07230397  0.00000004       0.009
  -0.03946647  0.07206410  0.00000003       0.009
  -0.02683556  0.07182422  0.00000003       0.009
  -0.01420466  0.07158435  0.00000003       0.009
  -0.00183604  0.08323523  0.00000003       0.009
   0.01079486  0.08299536  0.00000003       0.009
   0.02342577  0.08275548  0.00000003       0.009
   0.03605667  0.08251561  0.00000002       0.009
   0.04868758  0.08227574  0.00000002       0.009
   0.06131849  0.08203587  0.00000002       0.009
   0.07394939  0.08179600  0.00000002       0.009
   0.08658030  0.08155612  0.00000002       0.009
  -0.09025238  0.08491433  0.00000005       0.009
  -0.07762148  0.08467446  0.00000004       0.009
  -0.06499057  0.08443459  0.00000004       0.009
  -0.05235966  0.08419471  0.00000004       0.009
  -0.03972876  0.08395484  0.00000004       0.009
  -0.02709785  0.08371497  0.00000004       0.009
  -0.01446695  0.08347510  0.00000003       0.009
 
 k-points in reciprocal lattice and weights: Auto                                    
   0.00000000  0.00000000  0.00000000       0.004
   0.06666667 -0.00000000  0.00000000       0.009
   0.13333333 -0.00000000  0.00000000       0.009
   0.20000000 -0.00000000  0.00000000       0.009
   0.26666667 -0.00000000  0.00000000       0.009
   0.33333333 -0.00000000  0.00000000       0.009
   0.40000000 -0.00000000  0.00000000       0.009
   0.46666667 -0.00000000 -0.00000000       0.009
   0.00000000  0.06666667 -0.00000000       0.009
   0.06666667  0.06666667 -0.00000000       0.009
   0.13333333  0.06666667 -0.00000000       0.009
   0.20000000  0.06666667  0.00000000       0.009
   0.26666667  0.06666667 -0.00000000       0.009
   0.33333333  0.06666667  0.00000000       0.009
   0.40000000  0.06666667  0.00000000       0.009
   0.46666667  0.06666667  0.00000000       0.009
  -0.46666667  0.06666667  0.00000000       0.009
  -0.40000000  0.06666667  0.00000000       0.009
  -0.33333333  0.06666667 -0.00000000       0.009
  -0.26666667  0.06666667  0.00000000       0.009
  -0.20000000  0.06666667  0.00000000       0.009
  -0.13333333  0.06666667  0.00000000       0.009
  -0.06666667  0.06666667 -0.00000000       0.009
   0.00000000  0.13333333 -0.00000000       0.009
   0.06666667  0.13333333 -0.00000000       0.009
   0.13333333  0.13333333 -0.00000000       0.009
   0.20000000  0.13333333 -0.00000000       0.009
   0.26666667  0.13333333 -0.00000000       0.009
   0.33333333  0.13333333 -0.00000000       0.009
   0.40000000  0.13333333  0.00000000       0.009
   0.46666667  0.13333333  0.00000000       0.009
  -0.46666667  0.13333333  0.00000000       0.009
  -0.40000000  0.13333333  0.00000000       0.009
  -0.33333333  0.13333333  0.00000000       0.009
  -0.26666667  0.13333333 -0.00000000       0.009
  -0.20000000  0.13333333 -0.00000000       0.009
  -0.13333333  0.13333333  0.00000000       0.009
  -0.06666667  0.13333333 -0.00000000       0.009
   0.00000000  0.20000000  0.00000000       0.009
   0.06666667  0.20000000  0.00000000       0.009
   0.13333333  0.20000000  0.00000000       0.009
   0.20000000  0.20000000  0.00000000       0.009
   0.26666667  0.20000000  0.00000000       0.009
   0.33333333  0.20000000 -0.00000000       0.009
   0.40000000  0.20000000 -0.00000000       0.009
   0.46666667  0.20000000 -0.00000000       0.009
  -0.46666667  0.20000000 -0.00000000       0.009
  -0.40000000  0.20000000 -0.00000000       0.009
  -0.33333333  0.20000000 -0.00000000       0.009
  -0.26666667  0.20000000 -0.00000000       0.009
  -0.20000000  0.20000000 -0.00000000       0.009
  -0.13333333  0.20000000 -0.00000000       0.009
  -0.06666667  0.20000000 -0.00000000       0.009
   0.00000000  0.26666667 -0.00000000       0.009
   0.06666667  0.26666667 -0.00000000       0.009
   0.13333333  0.26666667 -0.00000000       0.009
   0.20000000  0.26666667 -0.00000000       0.009
   0.26666667  0.26666667 -0.00000000       0.009
   0.33333333  0.26666667 -0.00000000       0.009
   0.40000000  0.26666667 -0.00000000       0.009
   0.46666667  0.26666667 -0.00000000       0.009
  -0.46666667  0.26666667  0.00000000       0.009
  -0.40000000  0.26666667  0.00000000       0.009
  -0.33333333  0.26666667 -0.00000000       0.009
  -0.26666667  0.26666667 -0.00000000       0.009
  -0.20000000  0.26666667 -0.00000000       0.009
  -0.13333333  0.26666667 -0.00000000       0.009
  -0.06666667  0.26666667 -0.00000000       0.009
   0.00000000  0.33333333 -0.00000000       0.009
   0.06666667  0.33333333 -0.00000000       0.009
   0.13333333  0.33333333 -0.00000000       0.009
   0.20000000  0.33333333 -0.00000000       0.009
   0.26666667  0.33333333 -0.00000000       0.009
   0.33333333  0.33333333 -0.00000000       0.009
   0.40000000  0.33333333 -0.00000000       0.009
   0.46666667  0.33333333 -0.00000000       0.009
  -0.46666667  0.33333333 -0.00000000       0.009
  -0.40000000  0.33333333 -0.00000000       0.009
  -0.33333333  0.33333333  0.00000000       0.009
  -0.26666667  0.33333333  0.00000000       0.009
  -0.20000000  0.33333333  0.00000000       0.009
  -0.13333333  0.33333333  0.00000000       0.009
  -0.06666667  0.33333333  0.00000000       0.009
   0.00000000  0.40000000  0.00000000       0.009
   0.06666667  0.40000000 -0.00000000       0.009
   0.13333333  0.40000000  0.00000000       0.009
   0.20000000  0.40000000 -0.00000000       0.009
   0.26666667  0.40000000 -0.00000000       0.009
   0.33333333  0.40000000 -0.00000000       0.009
   0.40000000  0.40000000  0.00000000       0.009
   0.46666667  0.40000000 -0.00000000       0.009
  -0.46666667  0.40000000  0.00000000       0.009
  -0.40000000  0.40000000 -0.00000000       0.009
  -0.33333333  0.40000000  0.00000000       0.009
  -0.26666667  0.40000000 -0.00000000       0.009
  -0.20000000  0.40000000 -0.00000000       0.009
  -0.13333333  0.40000000 -0.00000000       0.009
  -0.06666667  0.40000000 -0.00000000       0.009
   0.00000000  0.46666667 -0.00000000       0.009
   0.06666667  0.46666667 -0.00000000       0.009
   0.13333333  0.46666667  0.00000000       0.009
   0.20000000  0.46666667  0.00000000       0.009
   0.26666667  0.46666667 -0.00000000       0.009
   0.33333333  0.46666667  0.00000000       0.009
   0.40000000  0.46666667 -0.00000000       0.009
   0.46666667  0.46666667  0.00000000       0.009
  -0.46666667  0.46666667  0.00000000       0.009
  -0.40000000  0.46666667  0.00000000       0.009
  -0.33333333  0.46666667 -0.00000000       0.009
  -0.26666667  0.46666667 -0.00000000       0.009
  -0.20000000  0.46666667 -0.00000000       0.009
  -0.13333333  0.46666667 -0.00000000       0.009
  -0.06666667  0.46666667 -0.00000000       0.009
 
 position of ions in fractional coordinates (direct lattice) 
   0.95246889  0.26699094  0.54975461
   0.00602509  0.69386384  0.42921129
   0.45246862  0.26699112  0.45025026
   0.50602483  0.69386383  0.57079371
   0.53080873  0.30380439  0.55320282
   0.03080839  0.30380404  0.44680231
   0.51069772  0.79016091  0.44613160
   0.01069773  0.79016086  0.55387343
 
 position of ions in cartesian coordinates  (Angst):
   5.05773542  1.60847315 11.68682753
   0.10572511  3.89254609  9.12428978
   2.41759807  1.55023749  9.57153980
   2.74585977  3.95078225 12.13408464
   2.83517678  1.76584513 11.76013267
   0.19503900  1.70760658  9.49824456
   2.78079092  4.49145304  9.48398372
   0.14065577  4.43321452 11.77439146
 


--------------------------------------------------------------------------------------------------------


 k-point  1 :   0.0000 0.0000 0.0000  plane waves:   16001
 k-point  2 :   0.0667-0.0000 0.0000  plane waves:   16009
 k-point  3 :   0.1333-0.0000 0.0000  plane waves:   16015
 k-point  4 :   0.2000-0.0000 0.0000  plane waves:   15971
 k-point  5 :   0.2667-0.0000 0.0000  plane waves:   15982
 k-point  6 :   0.3333-0.0000 0.0000  plane waves:   15951
 k-point  7 :   0.4000-0.0000 0.0000  plane waves:   15967
 k-point  8 :   0.4667-0.0000-0.0000  plane waves:   15981
 k-point  9 :   0.0000 0.0667-0.0000  plane waves:   16000
 k-point 10 :   0.0667 0.0667-0.0000  plane waves:   16002
 k-point 11 :   0.1333 0.0667-0.0000  plane waves:   15999
 k-point 12 :   0.2000 0.0667 0.0000  plane waves:   15974
 k-point 13 :   0.2667 0.0667-0.0000  plane waves:   15951
 k-point 14 :   0.3333 0.0667 0.0000  plane waves:   15939
 k-point 15 :   0.4000 0.0667 0.0000  plane waves:   15951
 k-point 16 :   0.4667 0.0667 0.0000  plane waves:   15975
 k-point 17 :  -0.4667 0.0667 0.0000  plane waves:   15975
 k-point 18 :  -0.4000 0.0667 0.0000  plane waves:   15981
 k-point 19 :  -0.3333 0.0667-0.0000  plane waves:   15973
 k-point 20 :  -0.2667 0.0667 0.0000  plane waves:   15980
 k-point 21 :  -0.2000 0.0667 0.0000  plane waves:   15959
 k-point 22 :  -0.1333 0.0667 0.0000  plane waves:   15970
 k-point 23 :  -0.0667 0.0667-0.0000  plane waves:   15968
 k-point 24 :   0.0000 0.1333-0.0000  plane waves:   15988
 k-point 25 :   0.0667 0.1333-0.0000  plane waves:   15995
 k-point 26 :   0.1333 0.1333-0.0000  plane waves:   15986
 k-point 27 :   0.2000 0.1333-0.0000  plane waves:   15999
 k-point 28 :   0.2667 0.1333-0.0000  plane waves:   15983
 k-point 29 :   0.3333 0.1333-0.0000  plane waves:   15955
 k-point 30 :   0.4000 0.1333 0.0000  plane waves:   15963
 k-point 31 :   0.4667 0.1333 0.0000  plane waves:   15974
 k-point 32 :  -0.4667 0.1333 0.0000  plane waves:   15951
 k-point 33 :  -0.4000 0.1333 0.0000  plane waves:   15972
 k-point 34 :  -0.3333 0.1333 0.0000  plane waves:   15981
 k-point 35 :  -0.2667 0.1333-0.0000  plane waves:   15960
 k-point 36 :  -0.2000 0.1333-0.0000  plane waves:   15979
 k-point 37 :  -0.1333 0.1333 0.0000  plane waves:   15952
 k-point 38 :  -0.0667 0.1333-0.0000  plane waves:   15976
 k-point 39 :   0.0000 0.2000 0.0000  plane waves:   16003
 k-point 40 :   0.0667 0.2000 0.0000  plane waves:   15983
 k-point 41 :   0.1333 0.2000 0.0000  plane waves:   15980
 k-point 42 :   0.2000 0.2000 0.0000  plane waves:   15976
 k-point 43 :   0.2667 0.2000 0.0000  plane waves:   15989
 k-point 44 :   0.3333 0.2000-0.0000  plane waves:   15955
 k-point 45 :   0.4000 0.2000-0.0000  plane waves:   15923
 k-point 46 :   0.4667 0.2000-0.0000  plane waves:   15946
 k-point 47 :  -0.4667 0.2000-0.0000  plane waves:   15942
 k-point 48 :  -0.4000 0.2000-0.0000  plane waves:   15962
 k-point 49 :  -0.3333 0.2000-0.0000  plane waves:   15979
 k-point 50 :  -0.2667 0.2000-0.0000  plane waves:   15958
 k-point 51 :  -0.2000 0.2000-0.0000  plane waves:   15982
 k-point 52 :  -0.1333 0.2000-0.0000  plane waves:   15976
 k-point 53 :  -0.0667 0.2000-0.0000  plane waves:   15977
 k-point 54 :   0.0000 0.2667-0.0000  plane waves:   15995
 k-point 55 :   0.0667 0.2667-0.0000  plane waves:   16001
 k-point 56 :   0.1333 0.2667-0.0000  plane waves:   15993
 k-point 57 :   0.2000 0.2667-0.0000  plane waves:   15970
 k-point 58 :   0.2667 0.2667-0.0000  plane waves:   15987
 k-point 59 :   0.3333 0.2667-0.0000  plane waves:   15971
 k-point 60 :   0.4000 0.2667-0.0000  plane waves:   15936
 k-point 61 :   0.4667 0.2667-0.0000  plane waves:   15942
 k-point 62 :  -0.4667 0.2667 0.0000  plane waves:   15964
 k-point 63 :  -0.4000 0.2667 0.0000  plane waves:   15949
 k-point 64 :  -0.3333 0.2667-0.0000  plane waves:   15988
 k-point 65 :  -0.2667 0.2667-0.0000  plane waves:   16005
 k-point 66 :  -0.2000 0.2667-0.0000  plane waves:   15994
 k-point 67 :  -0.1333 0.2667-0.0000  plane waves:   15993
 k-point 68 :  -0.0667 0.2667-0.0000  plane waves:   15989
 k-point 69 :   0.0000 0.3333-0.0000  plane waves:   15996
 k-point 70 :   0.0667 0.3333-0.0000  plane waves:   15980
 k-point 71 :   0.1333 0.3333-0.0000  plane waves:   15993
 k-point 72 :   0.2000 0.3333-0.0000  plane waves:   15968
 k-point 73 :   0.2667 0.3333-0.0000  plane waves:   15974
 k-point 74 :   0.3333 0.3333-0.0000  plane waves:   15945
 k-point 75 :   0.4000 0.3333-0.0000  plane waves:   15955
 k-point 76 :   0.4667 0.3333-0.0000  plane waves:   15970
 k-point 77 :  -0.4667 0.3333-0.0000  plane waves:   15980
 k-point 78 :  -0.4000 0.3333-0.0000  plane waves:   15982
 k-point 79 :  -0.3333 0.3333 0.0000  plane waves:   15994
 k-point 80 :  -0.2667 0.3333 0.0000  plane waves:   16002
 k-point 81 :  -0.2000 0.3333 0.0000  plane waves:   16002
 k-point 82 :  -0.1333 0.3333 0.0000  plane waves:   15997
 k-point 83 :  -0.0667 0.3333 0.0000  plane waves:   15998
 k-point 84 :   0.0000 0.4000 0.0000  plane waves:   16005
 k-point 85 :   0.0667 0.4000-0.0000  plane waves:   15985
 k-point 86 :   0.1333 0.4000 0.0000  plane waves:   15974
 k-point 87 :   0.2000 0.4000-0.0000  plane waves:   15962
 k-point 88 :   0.2667 0.4000-0.0000  plane waves:   15955
 k-point 89 :   0.3333 0.4000-0.0000  plane waves:   15965
 k-point 90 :   0.4000 0.4000 0.0000  plane waves:   15956
 k-point 91 :   0.4667 0.4000-0.0000  plane waves:   15968
 k-point 92 :  -0.4667 0.4000 0.0000  plane waves:   15970
 k-point 93 :  -0.4000 0.4000-0.0000  plane waves:   15978
 k-point 94 :  -0.3333 0.4000 0.0000  plane waves:   16000
 k-point 95 :  -0.2667 0.4000-0.0000  plane waves:   15999
 k-point 96 :  -0.2000 0.4000-0.0000  plane waves:   16008
 k-point 97 :  -0.1333 0.4000-0.0000  plane waves:   15991
 k-point 98 :  -0.0667 0.4000-0.0000  plane waves:   15994
 k-point 99 :   0.0000 0.4667-0.0000  plane waves:   15990
 k-point ** :   0.0667 0.4667-0.0000  plane waves:   15979
 k-point ** :   0.1333 0.4667 0.0000  plane waves:   15990
 k-point ** :   0.2000 0.4667 0.0000  plane waves:   15981
 k-point ** :   0.2667 0.4667-0.0000  plane waves:   15999
 k-point ** :   0.3333 0.4667 0.0000  plane waves:   15981
 k-point ** :   0.4000 0.4667-0.0000  plane waves:   15979
 k-point ** :   0.4667 0.4667 0.0000  plane waves:   15984
 k-point ** :  -0.4667 0.4667 0.0000  plane waves:   15985
 k-point ** :  -0.4000 0.4667 0.0000  plane waves:   15973
 k-point ** :  -0.3333 0.4667-0.0000  plane waves:   15978
 k-point ** :  -0.2667 0.4667-0.0000  plane waves:   15979
 k-point ** :  -0.2000 0.4667-0.0000  plane waves:   16009
 k-point ** :  -0.1333 0.4667-0.0000  plane waves:   15988
 k-point ** :  -0.0667 0.4667-0.0000  plane waves:   15989

 maximum and minimum number of plane-waves per node :     16015    15923

 maximum number of plane-waves:     16015
 maximum index in each direction: 
   IXMAX=   10   IYMAX=   10   IZMAX=   38
   IXMIN=  -10   IYMIN=  -10   IZMIN=  -38


 serial   3D FFT for wavefunctions
 parallel 3D FFT for charge:
    minimum data exchange during FFTs selected (reduces bandwidth)


 total amount of memory used by VASP MPI-rank0   447287. kBytes
=======================================================================

   base      :      30000. kBytes
   nonl-proj :     378868. kBytes
   fftplans  :       1977. kBytes
   grid      :       7219. kBytes
   one-center:         64. kBytes
   wavefun   :      29159. kBytes
 
     INWAV:  cpu time    0.0000: real time    0.0000
 initial charge density was supplied:
 number of electron      36.0000011 magnetization 
 keeping initial charge density in first step


--------------------------------------------------------------------------------------------------------


 Maximum index for augmentation-charges         1280 (set IRDMAX)


--------------------------------------------------------------------------------------------------------


 First call to EWALD:  gamma=   0.207
 Maximum number of real-space cells 4x 4x 1
 Maximum number of reciprocal cells 2x 2x 6

    FEWALD:  cpu time    0.0010: real time    0.0015


--------------------------------------- Iteration      1(   1)  ---------------------------------------


    POTLOK:  cpu time    0.0290: real time    0.0311
    SETDIJ:  cpu time    0.0040: real time    0.0032
     EDDAV:  cpu time    4.8173: real time    4.8290
 BZINTS: Fermi energy:  6.333646; 36.000000 electrons
         Band energy: -24.404206;  BLOECHL correction: -0.059801
       DOS:  cpu time    0.0290: real time    0.0297
    --------------------------------------------
      LOOP:  cpu time    4.8793: real time    4.8929

 eigenvalue-minimisations  :  5424
 total energy-change (2. order) : 0.2042893E+03  (-0.1109017E+04)
 number of electron      36.0000011 magnetization 
 augmentation part       36.0000011 magnetization 

 Free energy of the ion-electron system (eV)
  ---------------------------------------------------
  alpha Z        PSCENC =         6.76191189
  Ewald energy   TEWEN  =      3230.15913431
  -Hartree energ DENC   =     -4248.84589410
  -exchange      EXHF   =         0.00000000
  -V(xc)+E(xc)   XCENC  =       -89.82681168
  PAW double counting   =      3347.21375644    -3180.60058913
  entropy T*S    EENTRO =         0.00000000
  eigenvalues    EBANDS =       -24.40420647
  atomic energy  EATOM  =      1163.83202030
  Solvation  Ediel_sol  =         0.00000000
  ---------------------------------------------------
  free energy    TOTEN  =       204.28932157 eV

  energy without entropy =      204.28932157  energy(sigma->0) =      204.28932157


--------------------------------------------------------------------------------------------------------




--------------------------------------- Iteration      1(   2)  ---------------------------------------


     EDDAV:  cpu time    7.3449: real time    7.3607
 BZINTS: Fermi energy: -0.833004; 36.000000 electrons
         Band energy:-248.000408;  BLOECHL correction: -0.038308
       DOS:  cpu time    0.0260: real time    0.0263
    --------------------------------------------
      LOOP:  cpu time    7.3709: real time    7.3870

 eigenvalue-minimisations  :  9096
 total energy-change (2. order) :-0.2235962E+03  (-0.2231819E+03)
 number of electron      36.0000011 magnetization 
 augmentation part       36.0000011 magnetization 

 Free energy of the ion-electron system (eV)
  ---------------------------------------------------
  alpha Z        PSCENC =         6.76191189
  Ewald energy   TEWEN  =      3230.15913431
  -Hartree energ DENC   =     -4248.84589410
  -exchange      EXHF   =         0.00000000
  -V(xc)+E(xc)   XCENC  =       -89.82681168
  PAW double counting   =      3347.21375644    -3180.60058913
  entropy T*S    EENTRO =         0.00000000
  eigenvalues    EBANDS =      -248.00040836
  atomic energy  EATOM  =      1163.83202030
  Solvation  Ediel_sol  =         0.00000000
  ---------------------------------------------------
  free energy    TOTEN  =       -19.30688033 eV

  energy without entropy =      -19.30688033  energy(sigma->0) =      -19.30688033


--------------------------------------------------------------------------------------------------------




--------------------------------------- Iteration      1(   3)  ---------------------------------------


     EDDAV:  cpu time    6.6260: real time    6.6386
 BZINTS: Fermi energy: -1.913574; 36.000000 electrons
         Band energy:-265.275520;  BLOECHL correction:  0.000000
       DOS:  cpu time    0.0050: real time    0.0064
    --------------------------------------------
      LOOP:  cpu time    6.6310: real time    6.6450

 eigenvalue-minimisations  :  8016
 total energy-change (2. order) :-0.1727511E+02  (-0.1722012E+02)
 number of electron      36.0000011 magnetization 
 augmentation part       36.0000011 magnetization 

 Free energy of the ion-electron system (eV)
  ---------------------------------------------------
  alpha Z        PSCENC =         6.76191189
  Ewald energy   TEWEN  =      3230.15913431
  -Hartree energ DENC   =     -4248.84589410
  -exchange      EXHF   =         0.00000000
  -V(xc)+E(xc)   XCENC  =       -89.82681168
  PAW double counting   =      3347.21375644    -3180.60058913
  entropy T*S    EENTRO =         0.00000000
  eigenvalues    EBANDS =      -265.27551979
  atomic energy  EATOM  =      1163.83202030
  Solvation  Ediel_sol  =         0.00000000
  ---------------------------------------------------
  free energy    TOTEN  =       -36.58199175 eV

  energy without entropy =      -36.58199175  energy(sigma->0) =      -36.58199175


--------------------------------------------------------------------------------------------------------




--------------------------------------- Iteration      1(   4)  ---------------------------------------


     EDDAV:  cpu time    8.2597: real time    8.2773
 BZINTS: Fermi energy: -1.950898; 36.000000 electrons
         Band energy:-265.524422;  BLOECHL correction:  0.000000
       DOS:  cpu time    0.0070: real time    0.0061
    --------------------------------------------
      LOOP:  cpu time    8.2667: real time    8.2834

 eigenvalue-minimisations  : 10296
 total energy-change (2. order) :-0.2489026E+00  (-0.2489026E+00)
 number of electron      36.0000011 magnetization 
 augmentation part       36.0000011 magnetization 

 Free energy of the ion-electron system (eV)
  ---------------------------------------------------
  alpha Z        PSCENC =         6.76191189
  Ewald energy   TEWEN  =      3230.15913431
  -Hartree energ DENC   =     -4248.84589410
  -exchange      EXHF   =         0.00000000
  -V(xc)+E(xc)   XCENC  =       -89.82681168
  PAW double counting   =      3347.21375644    -3180.60058913
  entropy T*S    EENTRO =         0.00000000
  eigenvalues    EBANDS =      -265.52442244
  atomic energy  EATOM  =      1163.83202030
  Solvation  Ediel_sol  =         0.00000000
  ---------------------------------------------------
  free energy    TOTEN  =       -36.83089440 eV

  energy without entropy =      -36.83089440  energy(sigma->0) =      -36.83089440


--------------------------------------------------------------------------------------------------------




--------------------------------------- Iteration      1(   5)  ---------------------------------------


     EDDAV:  cpu time    7.2259: real time    7.2394
 BZINTS: Fermi energy: -1.954394; 36.000000 electrons
         Band energy:-265.524911;  BLOECHL correction:  0.000000
       DOS:  cpu time    0.0060: real time    0.0063
    --------------------------------------------
      LOOP:  cpu time    7.2319: real time    7.2457

 eigenvalue-minimisations  :  8904
 total energy-change (2. order) :-0.4884860E-03  (-0.4884860E-03)
 number of electron      36.0000011 magnetization 
 augmentation part       36.0000011 magnetization 

 Free energy of the ion-electron system (eV)
  ---------------------------------------------------
  alpha Z        PSCENC =         6.76191189
  Ewald energy   TEWEN  =      3230.15913431
  -Hartree energ DENC   =     -4248.84589410
  -exchange      EXHF   =         0.00000000
  -V(xc)+E(xc)   XCENC  =       -89.82681168
  PAW double counting   =      3347.21375644    -3180.60058913
  entropy T*S    EENTRO =         0.00000000
  eigenvalues    EBANDS =      -265.52491092
  atomic energy  EATOM  =      1163.83202030
  Solvation  Ediel_sol  =         0.00000000
  ---------------------------------------------------
  free energy    TOTEN  =       -36.83138288 eV

  energy without entropy =      -36.83138288  energy(sigma->0) =      -36.83138288


--------------------------------------------------------------------------------------------------------




--------------------------------------- Iteration      1(   6)  ---------------------------------------


     EDDAV:  cpu time    8.1928: real time    8.2056
 BZINTS: Fermi energy: -1.951650; 36.000000 electrons
         Band energy:-265.524917;  BLOECHL correction:  0.000000
       DOS:  cpu time    0.0060: real time    0.0062
    --------------------------------------------
      LOOP:  cpu time    8.1988: real time    8.2119

 eigenvalue-minimisations  : 10200
 total energy-change (2. order) :-0.6097323E-05  (-0.6097321E-05)
 number of electron      36.0000011 magnetization 
 augmentation part       36.0000011 magnetization 

 Free energy of the ion-electron system (eV)
  ---------------------------------------------------
  alpha Z        PSCENC =         6.76191189
  Ewald energy   TEWEN  =      3230.15913431
  -Hartree energ DENC   =     -4248.84589410
  -exchange      EXHF   =         0.00000000
  -V(xc)+E(xc)   XCENC  =       -89.82681168
  PAW double counting   =      3347.21375644    -3180.60058913
  entropy T*S    EENTRO =         0.00000000
  eigenvalues    EBANDS =      -265.52491702
  atomic energy  EATOM  =      1163.83202030
  Solvation  Ediel_sol  =         0.00000000
  ---------------------------------------------------
  free energy    TOTEN  =       -36.83138898 eV

  energy without entropy =      -36.83138898  energy(sigma->0) =      -36.83138898


--------------------------------------------------------------------------------------------------------




 average (electrostatic) potential at core
  the test charge radii are     0.9587  1.4837
  (the norm of the test charge is              1.0000)
       1 -90.6881       2 -90.2558       3 -90.6881       4 -90.2558       5 -90.8244
       6 -90.8244       7 -44.5028       8 -44.5027
 
 
 
 E-fermi :  -1.9517     XC(G=0):  -3.1443     alpha+bet : -2.9700


 k-point     1 :       0.0000    0.0000    0.0000
  band No.  band energies     occupation 
      1     -16.0132      2.00000
      2     -13.8005      2.00000
      3     -12.1584      2.00000
      4     -12.0674      2.00000
      5     -10.2129      2.00000
      6      -9.2198      2.00000
      7      -7.5728      2.00000
      8      -7.1816      2.00000
      9      -6.8102      2.00000
     10      -6.1593      2.00000
     11      -5.4480      2.00000
     12      -4.9015      2.00000
     13      -4.4438      2.00000
     14      -4.3761      2.00000
     15      -4.3497      2.00000
     16      -3.3499      2.00000
     17      -3.1889      2.00000
     18      -2.9145      2.00000
     19      -1.8203      0.00000
     20      -1.5176      0.00000
     21       0.0042      0.00000
     22       0.6426      0.00000
     23       1.0985      0.00000
     24       1.6887      0.00000

 k-point     2 :       0.0667   -0.0000    0.0000
  band No.  band energies     occupation 
      1     -15.9946      2.00000
      2     -13.8213      2.00000
      3     -12.1930      2.00000
      4     -12.0625      2.00000
      5     -10.1842      2.00000
      6      -9.2580      2.00000
      7      -7.5177      2.00000
      8      -7.2643      2.00000
      9      -6.7183      2.00000
     10      -6.1691      2.00000
     11      -5.3616      2.00000
     12      -5.1429      2.00000
     13      -4.5195      2.00000
     14      -4.4620      2.00000
     15      -4.0184      2.00000
     16      -3.3726      2.00000
     17      -3.2927      2.00000
     18      -2.8457      2.00000
     19      -1.6764      0.00000
     20      -1.5106      0.00000
     21       0.0159      0.00000
     22       0.7228      0.00000
     23       1.0837      0.00000
     24       1.7250      0.00000

 k-point     3 :       0.1333   -0.0000    0.0000
  band No.  band energies     occupation 
      1     -15.9388      2.00000
      2     -13.8886      2.00000
      3     -12.2714      2.00000
      4     -12.0495      2.00000
      5     -10.1181      2.00000
      6      -9.3676      2.00000
      7      -7.3743      2.00000
      8      -7.3652      2.00000
      9      -6.5662      2.00000
     10      -6.2021      2.00000
     11      -5.4515      2.00000
     12      -5.1691      2.00000
     13      -4.6453      2.00000
     14      -4.6396      2.00000
     15      -3.6958      2.00000
     16      -3.4091      2.00000
     17      -3.2671      2.00000
     18      -2.8178      2.00000
     19      -1.4802      0.00000
     20      -1.2893      0.00000
     21       0.0381      0.00000
     22       0.9515      0.00000
     23       1.0428      0.00000
     24       1.8315      0.00000

 k-point     4 :       0.2000   -0.0000    0.0000
  band No.  band energies     occupation 
      1     -15.8466      2.00000
      2     -14.0117      2.00000
      3     -12.3429      2.00000
      4     -12.0335      2.00000
      5     -10.0528      2.00000
      6      -9.5288      2.00000
      7      -7.4182      2.00000
      8      -7.1635      2.00000
      9      -6.4203      2.00000
     10      -6.2445      2.00000
     11      -5.6498      2.00000
     12      -5.2208      2.00000
     13      -4.7861      2.00000
     14      -4.5626      2.00000
     15      -3.7694      2.00000
     16      -3.4994      2.00000
     17      -2.8197      2.00000
     18      -2.8148      2.00000
     19      -1.3817      0.00000
     20      -0.7885      0.00000
     21       0.0563      0.00000
     22       0.9590      0.00000
     23       1.2875      0.00000
     24       1.4747      0.00000

 k-point     5 :       0.2667   -0.0000    0.0000
  band No.  band energies     occupation 
      1     -15.7192      2.00000
      2     -14.1918      2.00000
      3     -12.3707      2.00000
      4     -12.0230      2.00000
      5     -10.0148      2.00000
      6      -9.7079      2.00000
      7      -7.3845      2.00000
      8      -7.0054      2.00000
      9      -6.2866      2.00000
     10      -6.2509      2.00000
     11      -5.7142      2.00000
     12      -5.5055      2.00000
     13      -4.9202      2.00000
     14      -4.2617      2.00000
     15      -3.8992      2.00000
     16      -3.5842      2.00000
     17      -2.7655      2.00000
     18      -2.4595      2.00000
     19      -1.1037      0.00000
     20      -0.3720      0.00000
     21       0.0820      0.00000
     22       0.7687      0.00000
     23       1.1235      0.00000
     24       1.6233      0.00000

 k-point     6 :       0.3333   -0.0000    0.0000
  band No.  band energies     occupation 
      1     -15.5582      2.00000
      2     -14.4153      2.00000
      3     -12.3472      2.00000
      4     -12.0290      2.00000
      5     -10.0104      2.00000
      6      -9.8681      2.00000
      7      -7.2851      2.00000
      8      -6.9315      2.00000
      9      -6.3027      2.00000
     10      -6.2114      2.00000
     11      -5.7336      2.00000
     12      -5.5698      2.00000
     13      -5.0377      2.00000
     14      -4.1669      2.00000
     15      -3.9487      2.00000
     16      -3.5232      2.00000
     17      -2.6609      2.00000
     18      -2.3557      2.00000
     19      -0.6067      0.00000
     20      -0.3796      0.00000
     21       0.1506      0.00000
     22       0.7202      0.00000
     23       1.1082      0.00000
     24       1.6146      0.00000

 k-point     7 :       0.4000   -0.0000    0.0000
  band No.  band energies     occupation 
      1     -15.3666      2.00000
      2     -14.6611      2.00000
      3     -12.2845      2.00000
      4     -12.0613      2.00000
      5     -10.0286      2.00000
      6      -9.9820      2.00000
      7      -7.1369      2.00000
      8      -6.8757      2.00000
      9      -6.4547      2.00000
     10      -6.3189      2.00000
     11      -5.7277      2.00000
     12      -5.3033      2.00000
     13      -5.1360      2.00000
     14      -4.3391      2.00000
     15      -3.8390      2.00000
     16      -3.3399      2.00000
     17      -2.6168      2.00000
     18      -2.4169      2.00000
     19      -0.5038      0.00000
     20      -0.1246      0.00000
     21       0.3034      0.00000
     22       0.6135      0.00000
     23       1.2235      0.00000
     24       1.4241      0.00000

 k-point     8 :       0.4667   -0.0000   -0.0000
  band No.  band energies     occupation 
      1     -15.1485      2.00000
      2     -14.9102      2.00000
      3     -12.2024      2.00000
      4     -12.1221      2.00000
      5     -10.0471      2.00000
      6     -10.0389      2.00000
      7      -6.9628      2.00000
      8      -6.8395      2.00000
      9      -6.5849      2.00000
     10      -6.5022      2.00000
     11      -5.5727      2.00000
     12      -5.3893      2.00000
     13      -4.8956      2.00000
     14      -4.5991      2.00000
     15      -3.5790      2.00000
     16      -3.3295      2.00000
     17      -2.6347      2.00000
     18      -2.5423      2.00000
     19      -0.3201      0.00000
     20       0.0003      0.00000
     21       0.3247      0.00000
     22       0.4427      0.00000
     23       1.2838      0.00000
     24       1.5685      0.00000

 k-point     9 :       0.0000    0.0667   -0.0000
  band No.  band energies     occupation 
      1     -16.0058      2.00000
      2     -13.7938      2.00000
      3     -12.1578      2.00000
      4     -12.1128      2.00000
      5     -10.2368      2.00000
      6      -9.1750      2.00000
      7      -7.5835      2.00000
      8      -7.1778      2.00000
      9      -6.7776      2.00000
     10      -6.1154      2.00000
     11      -5.4321      2.00000
     12      -5.0522      2.00000
     13      -4.6243      2.00000
     14      -4.4418      2.00000
     15      -3.9924      2.00000
     16      -3.3335      2.00000
     17      -3.2473      2.00000
     18      -2.8862      2.00000
     19      -1.7582      0.00000
     20      -1.5082      0.00000
     21      -0.0099      0.00000
     22       0.7032      0.00000
     23       1.1437      0.00000
     24       1.6985      0.00000

 k-point    10 :       0.0667    0.0667   -0.0000
  band No.  band energies     occupation 
      1     -15.9882      2.00000
      2     -13.8158      2.00000
      3     -12.1833      2.00000
      4     -12.0971      2.00000
      5     -10.2253      2.00000
      6      -9.2379      2.00000
      7      -7.5245      2.00000
      8      -7.2858      2.00000
      9      -6.6242      2.00000
     10      -6.1658      2.00000
     11      -5.4008      2.00000
     12      -5.2516      2.00000
     13      -4.5088      2.00000
     14      -4.3732      2.00000
     15      -3.9518      2.00000
     16      -3.3739      2.00000
     17      -3.2339      2.00000
     18      -2.8959      2.00000
     19      -1.6143      0.00000
     20      -1.5041      0.00000
     21      -0.0044      0.00000
     22       0.7587      0.00000
     23       1.1201      0.00000
     24       1.7098      0.00000

 k-point    11 :       0.1333    0.0667   -0.0000
  band No.  band energies     occupation 
      1     -15.9335      2.00000
      2     -13.8834      2.00000
      3     -12.2574      2.00000
      4     -12.0722      2.00000
      5     -10.1702      2.00000
      6      -9.3731      2.00000
      7      -7.3880      2.00000
      8      -7.3810      2.00000
      9      -6.4597      2.00000
     10      -6.2353      2.00000
     11      -5.4692      2.00000
     12      -5.2685      2.00000
     13      -4.6420      2.00000
     14      -4.4520      2.00000
     15      -3.6399      2.00000
     16      -3.3225      2.00000
     17      -3.3188      2.00000
     18      -2.8487      2.00000
     19      -1.4852      0.00000
     20      -1.2505      0.00000
     21       0.0198      0.00000
     22       0.9594      0.00000
     23       1.0676      0.00000
     24       1.7949      0.00000

 k-point    12 :       0.2000    0.0667    0.0000
  band No.  band energies     occupation 
      1     -15.8424      2.00000
      2     -14.0054      2.00000
      3     -12.3313      2.00000
      4     -12.0435      2.00000
      5     -10.1060      2.00000
      6      -9.5559      2.00000
      7      -7.4281      2.00000
      8      -7.2210      2.00000
      9      -6.3240      2.00000
     10      -6.2673      2.00000
     11      -5.5904      2.00000
     12      -5.3101      2.00000
     13      -4.6425      2.00000
     14      -4.5496      2.00000
     15      -3.7140      2.00000
     16      -3.3989      2.00000
     17      -2.8530      2.00000
     18      -2.8337      2.00000
     19      -1.4078      0.00000
     20      -0.7561      0.00000
     21       0.0485      0.00000
     22       0.9713      0.00000
     23       1.2623      0.00000
     24       1.4206      0.00000

 k-point    13 :       0.2667    0.0667   -0.0000
  band No.  band energies     occupation 
      1     -15.7160      2.00000
      2     -14.1833      2.00000
      3     -12.3667      2.00000
      4     -12.0203      2.00000
      5     -10.0609      2.00000
      6      -9.7506      2.00000
      7      -7.4013      2.00000
      8      -7.1274      2.00000
      9      -6.2194      2.00000
     10      -6.2169      2.00000
     11      -5.5906      2.00000
     12      -5.5239      2.00000
     13      -4.8444      2.00000
     14      -4.2648      2.00000
     15      -3.8441      2.00000
     16      -3.5017      2.00000
     17      -2.7627      2.00000
     18      -2.4782      2.00000
     19      -1.1496      0.00000
     20      -0.3131      0.00000
     21       0.0882      0.00000
     22       0.7383      0.00000
     23       1.0596      0.00000
     24       1.5569      0.00000

 k-point    14 :       0.3333    0.0667    0.0000
  band No.  band energies     occupation 
      1     -15.5561      2.00000
      2     -14.4047      2.00000
      3     -12.3538      2.00000
      4     -12.0149      2.00000
      5     -10.0441      2.00000
      6      -9.9207      2.00000
      7      -7.3206      2.00000
      8      -7.0833      2.00000
      9      -6.2260      2.00000
     10      -6.2013      2.00000
     11      -5.6570      2.00000
     12      -5.3942      2.00000
     13      -5.0272      2.00000
     14      -4.1468      2.00000
     15      -3.9079      2.00000
     16      -3.4999      2.00000
     17      -2.6366      2.00000
     18      -2.3745      2.00000
     19      -0.6512      0.00000
     20      -0.3159      0.00000
     21       0.1719      0.00000
     22       0.7137      0.00000
     23       1.0143      0.00000
     24       1.5230      0.00000

 k-point    15 :       0.4000    0.0667    0.0000
  band No.  band energies     occupation 
      1     -15.3654      2.00000
      2     -14.6491      2.00000
      3     -12.3037      2.00000
      4     -12.0393      2.00000
      5     -10.0469      2.00000
      6     -10.0387      2.00000
      7      -7.2056      2.00000
      8      -7.0169      2.00000
      9      -6.3611      2.00000
     10      -6.3141      2.00000
     11      -5.5957      2.00000
     12      -5.2606      2.00000
     13      -4.9993      2.00000
     14      -4.3309      2.00000
     15      -3.8351      2.00000
     16      -3.3372      2.00000
     17      -2.5755      2.00000
     18      -2.4441      2.00000
     19      -0.4636      0.00000
     20      -0.1485      0.00000
     21       0.3423      0.00000
     22       0.6166      0.00000
     23       1.1440      0.00000
     24       1.3485      0.00000

 k-point    16 :       0.4667    0.0667    0.0000
  band No.  band energies     occupation 
      1     -15.1481      2.00000
      2     -14.8975      2.00000
      3     -12.2356      2.00000
      4     -12.0971      2.00000
      5     -10.0938      2.00000
      6     -10.0479      2.00000
      7      -7.0871      2.00000
      8      -6.9064      2.00000
      9      -6.5399      2.00000
     10      -6.4320      2.00000
     11      -5.4419      2.00000
     12      -5.4280      2.00000
     13      -4.6745      2.00000
     14      -4.6394      2.00000
     15      -3.6040      2.00000
     16      -3.2887      2.00000
     17      -2.6104      2.00000
     18      -2.5786      2.00000
     19      -0.2945      0.00000
     20      -0.0053      0.00000
     21       0.3590      0.00000
     22       0.4435      0.00000
     23       1.2267      0.00000
     24       1.5287      0.00000

 k-point    17 :      -0.4667    0.0667    0.0000
  band No.  band energies     occupation 
      1     -15.1357      2.00000
      2     -14.9103      2.00000
      3     -12.1792      2.00000
      4     -12.1694      2.00000
      5     -10.0954      2.00000
      6     -10.0211      2.00000
      7      -7.0098      2.00000
      8      -6.8718      2.00000
      9      -6.5922      2.00000
     10      -6.4487      2.00000
     11      -5.6405      2.00000
     12      -5.2297      2.00000
     13      -4.9988      2.00000
     14      -4.3998      2.00000
     15      -3.4968      2.00000
     16      -3.3461      2.00000
     17      -2.6857      2.00000
     18      -2.5438      2.00000
     19      -0.3270      0.00000
     20       0.0208      0.00000
     21       0.3088      0.00000
     22       0.4745      0.00000
     23       1.2755      0.00000
     24       1.5514      0.00000

 k-point    18 :      -0.4000    0.0667    0.0000
  band No.  band energies     occupation 
      1     -15.3541      2.00000
      2     -14.6611      2.00000
      3     -12.2664      2.00000
      4     -12.1207      2.00000
      5     -10.0674      2.00000
      6      -9.9461      2.00000
      7      -7.0236      2.00000
      8      -6.9805      2.00000
      9      -6.4022      2.00000
     10      -6.3533      2.00000
     11      -5.8172      2.00000
     12      -5.4164      2.00000
     13      -5.0038      2.00000
     14      -4.1781      2.00000
     15      -3.7612      2.00000
     16      -3.3383      2.00000
     17      -2.6701      2.00000
     18      -2.4260      2.00000
     19      -0.5222      0.00000
     20      -0.1064      0.00000
     21       0.2462      0.00000
     22       0.6489      0.00000
     23       1.2794      0.00000
     24       1.4420      0.00000

 k-point    19 :      -0.3333    0.0667   -0.0000
  band No.  band energies     occupation 
      1     -15.5463      2.00000
      2     -14.4143      2.00000
      3     -12.3363      2.00000
      4     -12.0963      2.00000
      5     -10.0382      2.00000
      6      -9.8169      2.00000
      7      -7.1783      2.00000
      8      -6.9582      2.00000
      9      -6.2491      2.00000
     10      -6.2339      2.00000
     11      -5.8586      2.00000
     12      -5.7822      2.00000
     13      -4.8314      2.00000
     14      -4.0476      2.00000
     15      -3.9128      2.00000
     16      -3.5202      2.00000
     17      -2.6904      2.00000
     18      -2.3668      2.00000
     19      -0.5996      0.00000
     20      -0.4229      0.00000
     21       0.1157      0.00000
     22       0.7501      0.00000
     23       1.1702      0.00000
     24       1.7224      0.00000

 k-point    20 :      -0.2667    0.0667    0.0000
  band No.  band energies     occupation 
      1     -15.7080      2.00000
      2     -14.1890      2.00000
      3     -12.3680      2.00000
      4     -12.0929      2.00000
      5     -10.0317      2.00000
      6      -9.6452      2.00000
      7      -7.2892      2.00000
      8      -6.9775      2.00000
      9      -6.3291      2.00000
     10      -6.2423      2.00000
     11      -5.9100      2.00000
     12      -5.6107      2.00000
     13      -4.7164      2.00000
     14      -4.1904      2.00000
     15      -3.9017      2.00000
     16      -3.5918      2.00000
     17      -2.7564      2.00000
     18      -2.4641      2.00000
     19      -1.0885      0.00000
     20      -0.4349      0.00000
     21       0.0589      0.00000
     22       0.8150      0.00000
     23       1.2057      0.00000
     24       1.8022      0.00000

 k-point    21 :      -0.2000    0.0667    0.0000
  band No.  band energies     occupation 
      1     -15.8363      2.00000
      2     -14.0064      2.00000
      3     -12.3477      2.00000
      4     -12.1014      2.00000
      5     -10.0605      2.00000
      6      -9.4590      2.00000
      7      -7.3356      2.00000
      8      -7.1428      2.00000
      9      -6.4766      2.00000
     10      -6.2328      2.00000
     11      -5.8143      2.00000
     12      -5.2758      2.00000
     13      -4.6385      2.00000
     14      -4.5371      2.00000
     15      -3.7851      2.00000
     16      -3.5490      2.00000
     17      -2.7845      2.00000
     18      -2.7647      2.00000
     19      -1.3650      0.00000
     20      -0.8321      0.00000
     21       0.0391      0.00000
     22       1.0166      0.00000
     23       1.4361      0.00000
     24       1.5655      0.00000

 k-point    22 :      -0.1333    0.0667    0.0000
  band No.  band energies     occupation 
      1     -15.9294      2.00000
      2     -13.8814      2.00000
      3     -12.2805      2.00000
      4     -12.1120      2.00000
      5     -10.1220      2.00000
      6      -9.2969      2.00000
      7      -7.3692      2.00000
      8      -7.3029      2.00000
      9      -6.6293      2.00000
     10      -6.1387      2.00000
     11      -5.6164      2.00000
     12      -5.1036      2.00000
     13      -4.7299      2.00000
     14      -4.5858      2.00000
     15      -3.6929      2.00000
     16      -3.4988      2.00000
     17      -3.1804      2.00000
     18      -2.7331      2.00000
     19      -1.4684      0.00000
     20      -1.3059      0.00000
     21       0.0258      0.00000
     22       1.0706      0.00000
     23       1.1007      0.00000
     24       1.8714      0.00000

 k-point    23 :      -0.0667    0.0667   -0.0000
  band No.  band energies     occupation 
      1     -15.9862      2.00000
      2     -13.8137      2.00000
      3     -12.2003      2.00000
      4     -12.1173      2.00000
      5     -10.1934      2.00000
      6      -9.1954      2.00000
      7      -7.5309      2.00000
      8      -7.2073      2.00000
      9      -6.7654      2.00000
     10      -6.0995      2.00000
     11      -5.3020      2.00000
     12      -5.2884      2.00000
     13      -4.6143      2.00000
     14      -4.5429      2.00000
     15      -3.8228      2.00000
     16      -3.4010      2.00000
     17      -3.3305      2.00000
     18      -2.7617      2.00000
     19      -1.6538      0.00000
     20      -1.5012      0.00000
     21       0.0060      0.00000
     22       0.8111      0.00000
     23       1.1355      0.00000
     24       1.7547      0.00000

 k-point    24 :       0.0000    0.1333   -0.0000
  band No.  band energies     occupation 
      1     -15.9845      2.00000
      2     -13.7745      2.00000
      3     -12.2347      2.00000
      4     -12.1563      2.00000
      5     -10.3034      2.00000
      6      -9.0556      2.00000
      7      -7.6038      2.00000
      8      -7.1671      2.00000
      9      -6.6862      2.00000
     10      -6.0427      2.00000
     11      -5.3867      2.00000
     12      -5.2763      2.00000
     13      -4.7517      2.00000
     14      -4.5943      2.00000
     15      -3.5357      2.00000
     16      -3.3667      2.00000
     17      -3.2715      2.00000
     18      -2.8951      2.00000
     19      -1.5618      0.00000
     20      -1.4756      0.00000
     21      -0.0465      0.00000
     22       0.8706      0.00000
     23       1.2481      0.00000
     24       1.7252      0.00000

 k-point    25 :       0.0667    0.1333   -0.0000
  band No.  band energies     occupation 
      1     -15.9678      2.00000
      2     -13.7978      2.00000
      3     -12.2107      2.00000
      4     -12.1725      2.00000
      5     -10.3080      2.00000
      6      -9.1424      2.00000
      7      -7.5455      2.00000
      8      -7.2786      2.00000
      9      -6.4913      2.00000
     10      -6.1621      2.00000
     11      -5.4183      2.00000
     12      -5.3559      2.00000
     13      -4.6295      2.00000
     14      -4.4519      2.00000
     15      -3.5458      2.00000
     16      -3.3397      2.00000
     17      -3.2811      2.00000
     18      -2.9185      2.00000
     19      -1.4769      0.00000
     20      -1.4443      0.00000
     21      -0.0427      0.00000
     22       0.9007      0.00000
     23       1.2167      0.00000
     24       1.7105      0.00000

 k-point    26 :       0.1333    0.1333   -0.0000
  band No.  band energies     occupation 
      1     -15.9142      2.00000
      2     -13.8665      2.00000
      3     -12.2403      2.00000
      4     -12.1741      2.00000
      5     -10.2664      2.00000
      6      -9.3120      2.00000
      7      -7.4178      2.00000
      8      -7.3617      2.00000
      9      -6.3121      2.00000
     10      -6.2957      2.00000
     11      -5.4751      2.00000
     12      -5.3780      2.00000
     13      -4.6886      2.00000
     14      -4.2392      2.00000
     15      -3.4832      2.00000
     16      -3.3261      2.00000
     17      -3.3078      2.00000
     18      -2.8171      2.00000
     19      -1.4776      0.00000
     20      -1.1614      0.00000
     21      -0.0142      0.00000
     22       1.0750      0.00000
     23       1.1499      0.00000
     24       1.7595      0.00000

 k-point    27 :       0.2000    0.1333   -0.0000
  band No.  band energies     occupation 
      1     -15.8241      2.00000
      2     -13.9882      2.00000
      3     -12.3143      2.00000
      4     -12.1301      2.00000
      5     -10.2072      2.00000
      6      -9.5301      2.00000
      7      -7.3911      2.00000
      8      -7.3189      2.00000
      9      -6.3035      2.00000
     10      -6.1891      2.00000
     11      -5.5506      2.00000
     12      -5.4538      2.00000
     13      -4.5420      2.00000
     14      -4.3306      2.00000
     15      -3.5995      2.00000
     16      -3.3196      2.00000
     17      -2.8974      2.00000
     18      -2.7835      2.00000
     19      -1.4361      0.00000
     20      -0.7237      0.00000
     21       0.0285      0.00000
     22       1.0320      0.00000
     23       1.3382      0.00000
     24       1.3610      0.00000

 k-point    28 :       0.2667    0.1333   -0.0000
  band No.  band energies     occupation 
      1     -15.6989      2.00000
      2     -14.1647      2.00000
      3     -12.3566      2.00000
      4     -12.0878      2.00000
      5     -10.1573      2.00000
      6      -9.7567      2.00000
      7      -7.3728      2.00000
      8      -7.3108      2.00000
      9      -6.1416      2.00000
     10      -6.1364      2.00000
     11      -5.5897      2.00000
     12      -5.5700      2.00000
     13      -4.5273      2.00000
     14      -4.2478      2.00000
     15      -3.7159      2.00000
     16      -3.3678      2.00000
     17      -2.7348      2.00000
     18      -2.5232      2.00000
     19      -1.2228      0.00000
     20      -0.2665      0.00000
     21       0.0865      0.00000
     22       0.6945      0.00000
     23       1.0641      0.00000
     24       1.5603      0.00000

 k-point    29 :       0.3333    0.1333   -0.0000
  band No.  band energies     occupation 
      1     -15.5402      2.00000
      2     -14.3840      2.00000
      3     -12.3560      2.00000
      4     -12.0601      2.00000
      5     -10.1279      2.00000
      6      -9.9550      2.00000
      7      -7.3255      2.00000
      8      -7.3206      2.00000
      9      -6.1977      2.00000
     10      -6.0502      2.00000
     11      -5.5954      2.00000
     12      -5.4259      2.00000
     13      -4.7085      2.00000
     14      -4.0553      2.00000
     15      -3.7749      2.00000
     16      -3.4231      2.00000
     17      -2.6111      2.00000
     18      -2.4200      2.00000
     19      -0.7394      0.00000
     20      -0.2320      0.00000
     21       0.1838      0.00000
     22       0.6785      0.00000
     23       0.9463      0.00000
     24       1.4742      0.00000

 k-point    30 :       0.4000    0.1333    0.0000
  band No.  band energies     occupation 
      1     -15.3507      2.00000
      2     -14.6266      2.00000
      3     -12.3227      2.00000
      4     -12.0616      2.00000
      5     -10.1125      2.00000
      6     -10.0971      2.00000
      7      -7.2788      2.00000
      8      -7.2751      2.00000
      9      -6.3019      2.00000
     10      -6.1476      2.00000
     11      -5.4687      2.00000
     12      -5.2819      2.00000
     13      -4.6850      2.00000
     14      -4.1821      2.00000
     15      -3.7324      2.00000
     16      -3.3218      2.00000
     17      -2.5383      2.00000
     18      -2.4991      2.00000
     19      -0.4023      0.00000
     20      -0.1939      0.00000
     21       0.3581      0.00000
     22       0.6600      0.00000
     23       1.0726      0.00000
     24       1.2144      0.00000

 k-point    31 :       0.4667    0.1333    0.0000
  band No.  band energies     occupation 
      1     -15.1346      2.00000
      2     -14.8738      2.00000
      3     -12.2754      2.00000
      4     -12.1001      2.00000
      5     -10.1698      2.00000
      6     -10.0906      2.00000
      7      -7.2466      2.00000
      8      -7.1698      2.00000
      9      -6.3413      2.00000
     10      -6.3153      2.00000
     11      -5.4076      2.00000
     12      -5.2800      2.00000
     13      -4.5107      2.00000
     14      -4.3857      2.00000
     15      -3.5599      2.00000
     16      -3.2294      2.00000
     17      -2.6407      2.00000
     18      -2.5978      2.00000
     19      -0.2512      0.00000
     20       0.0004      0.00000
     21       0.4063      0.00000
     22       0.4818      0.00000
     23       1.1095      0.00000
     24       1.4401      0.00000

 k-point    32 :      -0.4667    0.1333    0.0000
  band No.  band energies     occupation 
      1     -15.1113      2.00000
      2     -14.8977      2.00000
      3     -12.2325      2.00000
      4     -12.1700      2.00000
      5     -10.1804      2.00000
      6     -10.0373      2.00000
      7      -7.2373      2.00000
      8      -7.0190      2.00000
      9      -6.4749      2.00000
     10      -6.2898      2.00000
     11      -5.6065      2.00000
     12      -5.0833      2.00000
     13      -4.9031      2.00000
     14      -4.1092      2.00000
     15      -3.3614      2.00000
     16      -3.3400      2.00000
     17      -2.7458      2.00000
     18      -2.5763      2.00000
     19      -0.3144      0.00000
     20       0.0524      0.00000
     21       0.3231      0.00000
     22       0.5318      0.00000
     23       1.2209      0.00000
     24       1.4754      0.00000

 k-point    33 :      -0.4000    0.1333    0.0000
  band No.  band energies     occupation 
      1     -15.3295      2.00000
      2     -14.6490      2.00000
      3     -12.2521      2.00000
      4     -12.2068      2.00000
      5     -10.1540      2.00000
      6      -9.9343      2.00000
      7      -7.2117      2.00000
      8      -6.9386      2.00000
      9      -6.5059      2.00000
     10      -6.1846      2.00000
     11      -5.7978      2.00000
     12      -5.4072      2.00000
     13      -4.8005      2.00000
     14      -3.9162      2.00000
     15      -3.6068      2.00000
     16      -3.3476      2.00000
     17      -2.7064      2.00000
     18      -2.4665      2.00000
     19      -0.5175      0.00000
     20      -0.0959      0.00000
     21       0.2039      0.00000
     22       0.7120      0.00000
     23       1.3030      0.00000
     24       1.4092      0.00000

 k-point    34 :      -0.3333    0.1333    0.0000
  band No.  band energies     occupation 
      1     -15.5217      2.00000
      2     -14.4020      2.00000
      3     -12.3226      2.00000
      4     -12.2016      2.00000
      5     -10.1211      2.00000
      6      -9.7777      2.00000
      7      -7.1403      2.00000
      8      -7.0156      2.00000
      9      -6.3687      2.00000
     10      -6.1374      2.00000
     11      -5.9114      2.00000
     12      -5.7887      2.00000
     13      -4.5782      2.00000
     14      -3.8459      2.00000
     15      -3.7978      2.00000
     16      -3.5240      2.00000
     17      -2.6865      2.00000
     18      -2.3999      2.00000
     19      -0.6163      0.00000
     20      -0.4418      0.00000
     21       0.0907      0.00000
     22       0.7899      0.00000
     23       1.2078      0.00000
     24       1.7861      0.00000

 k-point    35 :      -0.2667    0.1333   -0.0000
  band No.  band energies     occupation 
      1     -15.6838      2.00000
      2     -14.1752      2.00000
      3     -12.3588      2.00000
      4     -12.2115      2.00000
      5     -10.1073      2.00000
      6      -9.5800      2.00000
      7      -7.1171      2.00000
      8      -7.0508      2.00000
      9      -6.3763      2.00000
     10      -6.3706      2.00000
     11      -5.8160      2.00000
     12      -5.7671      2.00000
     13      -4.4228      2.00000
     14      -4.0750      2.00000
     15      -3.8550      2.00000
     16      -3.5878      2.00000
     17      -2.6936      2.00000
     18      -2.4738      2.00000
     19      -1.0898      0.00000
     20      -0.4832      0.00000
     21       0.0333      0.00000
     22       0.8708      0.00000
     23       1.2831      0.00000
     24       2.0346      0.00000

 k-point    36 :      -0.2000    0.1333   -0.0000
  band No.  band energies     occupation 
      1     -15.8127      2.00000
      2     -13.9901      2.00000
      3     -12.3452      2.00000
      4     -12.2275      2.00000
      5     -10.1269      2.00000
      6      -9.3691      2.00000
      7      -7.1765      2.00000
      8      -7.1343      2.00000
      9      -6.5050      2.00000
     10      -6.4343      2.00000
     11      -5.7430      2.00000
     12      -5.4456      2.00000
     13      -4.4554      2.00000
     14      -4.3935      2.00000
     15      -3.7606      2.00000
     16      -3.5995      2.00000
     17      -2.7304      2.00000
     18      -2.6547      2.00000
     19      -1.3505      0.00000
     20      -0.8621      0.00000
     21       0.0076      0.00000
     22       1.1214      0.00000
     23       1.6179      0.00000
     24       1.6717      0.00000

 k-point    37 :      -0.1333    0.1333    0.0000
  band No.  band energies     occupation 
      1     -15.9064      2.00000
      2     -13.8627      2.00000
      3     -12.2838      2.00000
      4     -12.2407      2.00000
      5     -10.1805      2.00000
      6      -9.1848      2.00000
      7      -7.3715      2.00000
      8      -7.1705      2.00000
      9      -6.6546      2.00000
     10      -6.2148      2.00000
     11      -5.6687      2.00000
     12      -5.1529      2.00000
     13      -4.7738      2.00000
     14      -4.4781      2.00000
     15      -3.6203      2.00000
     16      -3.5957      2.00000
     17      -3.0302      2.00000
     18      -2.6308      2.00000
     19      -1.4457      0.00000
     20      -1.2742      0.00000
     21      -0.0098      0.00000
     22       1.2126      0.00000
     23       1.2906      0.00000
     24       1.9026      0.00000

 k-point    38 :      -0.0667    0.1333   -0.0000
  band No.  band energies     occupation 
      1     -15.9640      2.00000
      2     -13.7939      2.00000
      3     -12.2444      2.00000
      4     -12.2046      2.00000
      5     -10.2508      2.00000
      6      -9.0707      2.00000
      7      -7.5471      2.00000
      8      -7.1239      2.00000
      9      -6.7581      2.00000
     10      -6.0340      2.00000
     11      -5.4951      2.00000
     12      -5.2314      2.00000
     13      -4.7066      2.00000
     14      -4.6616      2.00000
     15      -3.5377      2.00000
     16      -3.5250      2.00000
     17      -3.2051      2.00000
     18      -2.7216      2.00000
     19      -1.5222      0.00000
     20      -1.4721      0.00000
     21      -0.0303      0.00000
     22       1.0072      0.00000
     23       1.2437      0.00000
     24       1.7941      0.00000

 k-point    39 :       0.0000    0.2000    0.0000
  band No.  band energies     occupation 
      1     -15.9519      2.00000
      2     -13.7451      2.00000
      3     -12.4008      2.00000
      4     -12.1547      2.00000
      5     -10.3995      2.00000
      6      -8.8946      2.00000
      7      -7.6139      2.00000
      8      -7.1518      2.00000
      9      -6.5571      2.00000
     10      -6.0943      2.00000
     11      -5.3240      2.00000
     12      -5.3219      2.00000
     13      -4.8574      2.00000
     14      -4.7434      2.00000
     15      -3.5091      2.00000
     16      -3.2816      2.00000
     17      -2.9921      2.00000
     18      -2.9760      2.00000
     19      -1.4032      0.00000
     20      -1.2703      0.00000
     21      -0.0886      0.00000
     22       1.0896      0.00000
     23       1.2455      0.00000
     24       1.7641      0.00000

 k-point    40 :       0.0667    0.2000    0.0000
  band No.  band energies     occupation 
      1     -15.9360      2.00000
      2     -13.7698      2.00000
      3     -12.3726      2.00000
      4     -12.1626      2.00000
      5     -10.4158      2.00000
      6      -8.9997      2.00000
      7      -7.5622      2.00000
      8      -7.2540      2.00000
      9      -6.3461      2.00000
     10      -6.2690      2.00000
     11      -5.4071      2.00000
     12      -5.2793      2.00000
     13      -4.7392      2.00000
     14      -4.5958      2.00000
     15      -3.3909      2.00000
     16      -3.2971      2.00000
     17      -3.0495      2.00000
     18      -3.0047      2.00000
     19      -1.4112      0.00000
     20      -1.1703      0.00000
     21      -0.0796      0.00000
     22       1.0873      0.00000
     23       1.2031      0.00000
     24       1.7261      0.00000

 k-point    41 :       0.1333    0.2000    0.0000
  band No.  band energies     occupation 
      1     -15.8832      2.00000
      2     -13.8401      2.00000
      3     -12.3278      2.00000
      4     -12.2226      2.00000
      5     -10.3872      2.00000
      6      -9.2038      2.00000
      7      -7.4604      2.00000
      8      -7.3162      2.00000
      9      -6.4381      2.00000
     10      -6.1595      2.00000
     11      -5.4517      2.00000
     12      -5.3248      2.00000
     13      -4.7233      2.00000
     14      -4.2101      2.00000
     15      -3.3898      2.00000
     16      -3.3655      2.00000
     17      -3.0697      2.00000
     18      -2.8061      2.00000
     19      -1.4375      0.00000
     20      -0.9753      0.00000
     21      -0.0402      0.00000
     22       1.1349      0.00000
     23       1.2196      0.00000
     24       1.6927      0.00000

 k-point    42 :       0.2000    0.2000    0.0000
  band No.  band energies     occupation 
      1     -15.7941      2.00000
      2     -13.9627      2.00000
      3     -12.2946      2.00000
      4     -12.2709      2.00000
      5     -10.3345      2.00000
      6      -9.4596      2.00000
      7      -7.4386      2.00000
      8      -7.3402      2.00000
      9      -6.3923      2.00000
     10      -6.0694      2.00000
     11      -5.5245      2.00000
     12      -5.3819      2.00000
     13      -4.5383      2.00000
     14      -4.0882      2.00000
     15      -3.4195      2.00000
     16      -3.3502      2.00000
     17      -2.8848      2.00000
     18      -2.6769      2.00000
     19      -1.4418      0.00000
     20      -0.6437      0.00000
     21       0.0218      0.00000
     22       1.0365      0.00000
     23       1.3928      0.00000
     24       1.4792      0.00000

 k-point    43 :       0.2667    0.2000    0.0000
  band No.  band energies     occupation 
      1     -15.6699      2.00000
      2     -14.1384      2.00000
      3     -12.3423      2.00000
      4     -12.2099      2.00000
      5     -10.2815      2.00000
      6      -9.7224      2.00000
      7      -7.5121      2.00000
      8      -7.3453      2.00000
      9      -6.1216      2.00000
     10      -6.0997      2.00000
     11      -5.5442      2.00000
     12      -5.4389      2.00000
     13      -4.2418      2.00000
     14      -4.2210      2.00000
     15      -3.4825      2.00000
     16      -3.3025      2.00000
     17      -2.6248      2.00000
     18      -2.5782      2.00000
     19      -1.2952      0.00000
     20      -0.2228      0.00000
     21       0.1019      0.00000
     22       0.6385      0.00000
     23       1.1182      0.00000
     24       1.5283      0.00000

 k-point    44 :       0.3333    0.2000   -0.0000
  band No.  band energies     occupation 
      1     -15.5125      2.00000
      2     -14.3560      2.00000
      3     -12.3544      2.00000
      4     -12.1569      2.00000
      5     -10.2397      2.00000
      6      -9.9566      2.00000
      7      -7.5706      2.00000
      8      -7.3567      2.00000
      9      -6.1876      2.00000
     10      -5.8701      2.00000
     11      -5.4584      2.00000
     12      -5.4129      2.00000
     13      -4.3883      2.00000
     14      -3.9964      2.00000
     15      -3.5242      2.00000
     16      -3.3207      2.00000
     17      -2.5361      2.00000
     18      -2.4766      2.00000
     19      -0.8580      0.00000
     20      -0.1283      0.00000
     21       0.2130      0.00000
     22       0.5319      0.00000
     23       0.9879      0.00000
     24       1.4152      0.00000

 k-point    45 :       0.4000    0.2000   -0.0000
  band No.  band energies     occupation 
      1     -15.3244      2.00000
      2     -14.5967      2.00000
      3     -12.3405      2.00000
      4     -12.1276      2.00000
      5     -10.2040      2.00000
      6     -10.1346      2.00000
      7      -7.5557      2.00000
      8      -7.3935      2.00000
      9      -6.2309      2.00000
     10      -5.8998      2.00000
     11      -5.3080      2.00000
     12      -5.2596      2.00000
     13      -4.3954      2.00000
     14      -4.0071      2.00000
     15      -3.5098      2.00000
     16      -3.2937      2.00000
     17      -2.5578      2.00000
     18      -2.4665      2.00000
     19      -0.3211      0.00000
     20      -0.2824      0.00000
     21       0.3784      0.00000
     22       0.7189      0.00000
     23       1.0215      0.00000
     24       1.0354      0.00000

 k-point    46 :       0.4667    0.2000   -0.0000
  band No.  band energies     occupation 
      1     -15.1096      2.00000
      2     -14.8422      2.00000
      3     -12.3182      2.00000
      4     -12.1348      2.00000
      5     -10.2403      2.00000
      6     -10.1558      2.00000
      7      -7.4580      2.00000
      8      -7.4485      2.00000
      9      -6.1959      2.00000
     10      -6.0533      2.00000
     11      -5.3115      2.00000
     12      -5.1250      2.00000
     13      -4.3011      2.00000
     14      -4.1178      2.00000
     15      -3.4258      2.00000
     16      -3.1769      2.00000
     17      -2.6911      2.00000
     18      -2.5474      2.00000
     19      -0.1896      0.00000
     20       0.0032      0.00000
     21       0.4599      0.00000
     22       0.5550      0.00000
     23       0.9750      0.00000
     24       1.3142      0.00000

 k-point    47 :      -0.4667    0.2000   -0.0000
  band No.  band energies     occupation 
      1     -15.0785      2.00000
      2     -14.8741      2.00000
      3     -12.3040      2.00000
      4     -12.1791      2.00000
      5     -10.2762      2.00000
      6     -10.0721      2.00000
      7      -7.4888      2.00000
      8      -7.2919      2.00000
      9      -6.2278      2.00000
     10      -6.1024      2.00000
     11      -5.4899      2.00000
     12      -4.9992      2.00000
     13      -4.6459      2.00000
     14      -3.8157      2.00000
     15      -3.3245      2.00000
     16      -3.1912      2.00000
     17      -2.7551      2.00000
     18      -2.6068      2.00000
     19      -0.2857      0.00000
     20       0.0920      0.00000
     21       0.3795      0.00000
     22       0.6052      0.00000
     23       1.1409      0.00000
     24       1.3562      0.00000

 k-point    48 :      -0.4000    0.2000   -0.0000
  band No.  band energies     occupation 
      1     -15.2959      2.00000
      2     -14.6265      2.00000
      3     -12.3068      2.00000
      4     -12.2452      2.00000
      5     -10.2647      2.00000
      6      -9.9371      2.00000
      7      -7.4783      2.00000
      8      -7.0928      2.00000
      9      -6.3780      2.00000
     10      -6.0018      2.00000
     11      -5.6817      2.00000
     12      -5.3140      2.00000
     13      -4.5670      2.00000
     14      -3.6541      2.00000
     15      -3.3874      2.00000
     16      -3.3826      2.00000
     17      -2.6655      2.00000
     18      -2.5206      2.00000
     19      -0.4888      0.00000
     20      -0.1012      0.00000
     21       0.2186      0.00000
     22       0.7857      0.00000
     23       1.2941      0.00000
     24       1.3363      0.00000

 k-point    49 :      -0.3333    0.2000   -0.0000
  band No.  band energies     occupation 
      1     -15.4878      2.00000
      2     -14.3799      2.00000
      3     -12.3260      2.00000
      4     -12.3085      2.00000
      5     -10.2377      2.00000
      6      -9.7493      2.00000
      7      -7.3926      2.00000
      8      -6.9442      2.00000
      9      -6.4453      2.00000
     10      -6.0827      2.00000
     11      -5.8291      2.00000
     12      -5.6000      2.00000
     13      -4.3375      2.00000
     14      -3.6747      2.00000
     15      -3.6045      2.00000
     16      -3.5430      2.00000
     17      -2.5959      2.00000
     18      -2.4376      2.00000
     19      -0.6325      0.00000
     20      -0.4288      0.00000
     21       0.1016      0.00000
     22       0.8091      0.00000
     23       1.2333      0.00000
     24       1.7449      0.00000

 k-point    50 :      -0.2667    0.2000   -0.0000
  band No.  band energies     occupation 
      1     -15.6497      2.00000
      2     -14.1523      2.00000
      3     -12.3546      2.00000
      4     -12.3448      2.00000
      5     -10.2228      2.00000
      6      -9.5211      2.00000
      7      -7.2325      2.00000
      8      -6.9325      2.00000
      9      -6.4657      2.00000
     10      -6.4415      2.00000
     11      -5.8270      2.00000
     12      -5.5699      2.00000
     13      -4.1552      2.00000
     14      -3.9698      2.00000
     15      -3.7488      2.00000
     16      -3.6240      2.00000
     17      -2.5545      2.00000
     18      -2.4614      2.00000
     19      -1.0788      0.00000
     20      -0.4912      0.00000
     21       0.0281      0.00000
     22       0.9067      0.00000
     23       1.3044      0.00000
     24       1.8741      0.00000

 k-point    51 :      -0.2000    0.2000   -0.0000
  band No.  band energies     occupation 
      1     -15.7787      2.00000
      2     -13.9651      2.00000
      3     -12.3833      2.00000
      4     -12.3362      2.00000
      5     -10.2359      2.00000
      6      -9.2784      2.00000
      7      -7.1365      2.00000
      8      -6.9768      2.00000
      9      -6.7096      2.00000
     10      -6.5219      2.00000
     11      -5.6062      2.00000
     12      -5.5011      2.00000
     13      -4.3507      2.00000
     14      -4.2161      2.00000
     15      -3.6918      2.00000
     16      -3.6750      2.00000
     17      -2.6129      2.00000
     18      -2.5217      2.00000
     19      -1.3155      0.00000
     20      -0.8375      0.00000
     21      -0.0162      0.00000
     22       1.1959      0.00000
     23       1.5302      0.00000
     24       1.9024      0.00000

 k-point    52 :      -0.1333    0.2000   -0.0000
  band No.  band energies     occupation 
      1     -15.8728      2.00000
      2     -13.8349      2.00000
      3     -12.4040      2.00000
      4     -12.2814      2.00000
      5     -10.2802      2.00000
      6      -9.0604      2.00000
      7      -7.3539      2.00000
      8      -7.0060      2.00000
      9      -6.6421      2.00000
     10      -6.4869      2.00000
     11      -5.4664      2.00000
     12      -5.3120      2.00000
     13      -4.6969      2.00000
     14      -4.4605      2.00000
     15      -3.7210      2.00000
     16      -3.4965      2.00000
     17      -2.7833      2.00000
     18      -2.5770      2.00000
     19      -1.3942      0.00000
     20      -1.1532      0.00000
     21      -0.0477      0.00000
     22       1.2505      0.00000
     23       1.5503      0.00000
     24       1.8757      0.00000

 k-point    53 :      -0.0667    0.2000   -0.0000
  band No.  band energies     occupation 
      1     -15.9308      2.00000
      2     -13.7645      2.00000
      3     -12.4110      2.00000
      4     -12.2058      2.00000
      5     -10.3442      2.00000
      6      -8.9180      2.00000
      7      -7.5469      2.00000
      8      -7.0484      2.00000
      9      -6.6821      2.00000
     10      -6.1776      2.00000
     11      -5.4436      2.00000
     12      -5.1954      2.00000
     13      -4.8264      2.00000
     14      -4.7335      2.00000
     15      -3.6683      2.00000
     16      -3.3524      2.00000
     17      -2.8953      2.00000
     18      -2.7703      2.00000
     19      -1.4069      0.00000
     20      -1.2859      0.00000
     21      -0.0739      0.00000
     22       1.2502      0.00000
     23       1.2585      0.00000
     24       1.8298      0.00000

 k-point    54 :       0.0000    0.2667   -0.0000
  band No.  band energies     occupation 
      1     -15.9126      2.00000
      2     -13.7097      2.00000
      3     -12.5769      2.00000
      4     -12.1540      2.00000
      5     -10.5066      2.00000
      6      -8.7249      2.00000
      7      -7.6043      2.00000
      8      -7.1368      2.00000
      9      -6.4288      2.00000
     10      -6.2679      2.00000
     11      -5.3065      2.00000
     12      -5.2635      2.00000
     13      -4.8360      2.00000
     14      -4.7963      2.00000
     15      -3.6583      2.00000
     16      -3.1930      2.00000
     17      -3.1385      2.00000
     18      -2.5579      2.00000
     19      -1.2537      0.00000
     20      -1.0137      0.00000
     21      -0.1133      0.00000
     22       0.9888      0.00000
     23       1.2020      0.00000
     24       1.8163      0.00000

 k-point    55 :       0.0667    0.2667   -0.0000
  band No.  band energies     occupation 
      1     -15.8971      2.00000
      2     -13.7357      2.00000
      3     -12.5482      2.00000
      4     -12.1561      2.00000
      5     -10.5287      2.00000
      6      -8.8409      2.00000
      7      -7.5626      2.00000
      8      -7.2229      2.00000
      9      -6.4441      2.00000
     10      -6.2432      2.00000
     11      -5.3447      2.00000
     12      -5.1170      2.00000
     13      -4.7769      2.00000
     14      -4.7063      2.00000
     15      -3.5117      2.00000
     16      -3.2236      2.00000
     17      -3.1629      2.00000
     18      -2.6116      2.00000
     19      -1.2682      0.00000
     20      -0.9027      0.00000
     21      -0.0939      0.00000
     22       0.9251      0.00000
     23       1.1547      0.00000
     24       1.7682      0.00000

 k-point    56 :       0.1333    0.2667   -0.0000
  band No.  band energies     occupation 
      1     -15.8448      2.00000
      2     -13.8083      2.00000
      3     -12.4995      2.00000
      4     -12.2079      2.00000
      5     -10.5104      2.00000
      6      -9.0741      2.00000
      7      -7.4956      2.00000
      8      -7.2686      2.00000
      9      -6.6054      2.00000
     10      -6.0964      2.00000
     11      -5.3899      2.00000
     12      -5.0882      2.00000
     13      -4.7200      2.00000
     14      -4.2975      2.00000
     15      -3.5044      2.00000
     16      -3.3000      2.00000
     17      -2.8884      2.00000
     18      -2.6763      2.00000
     19      -1.3216      0.00000
     20      -0.7312      0.00000
     21      -0.0380      0.00000
     22       0.8434      0.00000
     23       1.2110      0.00000
     24       1.7526      0.00000

 k-point    57 :       0.2000    0.2667   -0.0000
  band No.  band energies     occupation 
      1     -15.7564      2.00000
      2     -13.9326      2.00000
      3     -12.4343      2.00000
      4     -12.2755      2.00000
      5     -10.4643      2.00000
      6      -9.3623      2.00000
      7      -7.5583      2.00000
      8      -7.3011      2.00000
      9      -6.4907      2.00000
     10      -6.0722      2.00000
     11      -5.3874      2.00000
     12      -5.1357      2.00000
     13      -4.5280      2.00000
     14      -3.9921      2.00000
     15      -3.4423      2.00000
     16      -3.2931      2.00000
     17      -2.7030      2.00000
     18      -2.6331      2.00000
     19      -1.3745      0.00000
     20      -0.4778      0.00000
     21       0.0473      0.00000
     22       0.7801      0.00000
     23       1.2819      0.00000
     24       1.4478      0.00000

 k-point    58 :       0.2667    0.2667   -0.0000
  band No.  band energies     occupation 
      1     -15.6331      2.00000
      2     -14.1086      2.00000
      3     -12.3593      2.00000
      4     -12.3262      2.00000
      5     -10.4095      2.00000
      6      -9.6570      2.00000
      7      -7.6994      2.00000
      8      -7.3508      2.00000
      9      -6.1499      2.00000
     10      -6.1244      2.00000
     11      -5.3306      2.00000
     12      -5.2114      2.00000
     13      -4.2446      2.00000
     14      -4.0173      2.00000
     15      -3.3340      2.00000
     16      -3.1935      2.00000
     17      -2.6003      2.00000
     18      -2.4856      2.00000
     19      -1.3094      0.00000
     20      -0.1448      0.00000
     21       0.1522      0.00000
     22       0.5773      0.00000
     23       0.9932      0.00000
     24       1.3054      0.00000

 k-point    59 :       0.3333    0.2667   -0.0000
  band No.  band energies     occupation 
      1     -15.4767      2.00000
      2     -14.3252      2.00000
      3     -12.3497      2.00000
      4     -12.2851      2.00000
      5     -10.3562      2.00000
      6      -9.9243      2.00000
      7      -7.7971      2.00000
      8      -7.4365      2.00000
      9      -6.1552      2.00000
     10      -5.7826      2.00000
     11      -5.2705      2.00000
     12      -5.2261      2.00000
     13      -4.1471      2.00000
     14      -3.9855      2.00000
     15      -3.2692      2.00000
     16      -3.1896      2.00000
     17      -2.5145      2.00000
     18      -2.3909      2.00000
     19      -0.9629      0.00000
     20      -0.0223      0.00000
     21       0.2792      0.00000
     22       0.3636      0.00000
     23       1.0078      0.00000
     24       1.2130      0.00000

 k-point    60 :       0.4000    0.2667   -0.0000
  band No.  band energies     occupation 
      1     -15.2899      2.00000
      2     -14.5641      2.00000
      3     -12.3552      2.00000
      4     -12.2264      2.00000
      5     -10.3002      2.00000
      6     -10.1392      2.00000
      7      -7.8071      2.00000
      8      -7.5502      2.00000
      9      -6.1217      2.00000
     10      -5.6866      2.00000
     11      -5.1764      2.00000
     12      -5.0857      2.00000
     13      -4.1721      2.00000
     14      -3.8938      2.00000
     15      -3.2633      2.00000
     16      -3.2149      2.00000
     17      -2.5679      2.00000
     18      -2.3301      2.00000
     19      -0.4061      0.00000
     20      -0.2317      0.00000
     21       0.4339      0.00000
     22       0.6311      0.00000
     23       0.9399      0.00000
     24       0.9635      0.00000

 k-point    61 :       0.4667    0.2667   -0.0000
  band No.  band energies     occupation 
      1     -15.0767      2.00000
      2     -14.8077      2.00000
      3     -12.3589      2.00000
      4     -12.1986      2.00000
      5     -10.2843      2.00000
      6     -10.2248      2.00000
      7      -7.7245      2.00000
      8      -7.6603      2.00000
      9      -6.0309      2.00000
     10      -5.8186      2.00000
     11      -5.1519      2.00000
     12      -4.9307      2.00000
     13      -4.1040      2.00000
     14      -3.9361      2.00000
     15      -3.2503      2.00000
     16      -3.1638      2.00000
     17      -2.6445      2.00000
     18      -2.4105      2.00000
     19      -0.1138      0.00000
     20      -0.0188      0.00000
     21       0.4949      0.00000
     22       0.6390      0.00000
     23       0.8786      0.00000
     24       1.0620      0.00000

 k-point    62 :      -0.4667    0.2667    0.0000
  band No.  band energies     occupation 
      1     -15.0425      2.00000
      2     -14.8428      2.00000
      3     -12.3742      2.00000
      4     -12.2091      2.00000
      5     -10.3564      2.00000
      6     -10.1103      2.00000
      7      -7.7315      2.00000
      8      -7.5624      2.00000
      9      -5.9953      2.00000
     10      -5.9119      2.00000
     11      -5.2867      2.00000
     12      -4.8759      2.00000
     13      -4.3895      2.00000
     14      -3.6190      2.00000
     15      -3.3175      2.00000
     16      -3.0596      2.00000
     17      -2.6298      2.00000
     18      -2.5559      2.00000
     19      -0.2479      0.00000
     20       0.1433      0.00000
     21       0.4748      0.00000
     22       0.6720      0.00000
     23       1.0212      0.00000
     24       1.2500      0.00000

 k-point    63 :      -0.4000    0.2667    0.0000
  band No.  band energies     occupation 
      1     -15.2586      2.00000
      2     -14.5968      2.00000
      3     -12.4058      2.00000
      4     -12.2495      2.00000
      5     -10.3722      2.00000
      6      -9.9442      2.00000
      7      -7.7342      2.00000
      8      -7.3442      2.00000
      9      -6.1705      2.00000
     10      -5.8312      2.00000
     11      -5.4644      2.00000
     12      -5.1730      2.00000
     13      -4.3308      2.00000
     14      -3.5570      2.00000
     15      -3.3535      2.00000
     16      -3.1465      2.00000
     17      -2.5517      2.00000
     18      -2.5174      2.00000
     19      -0.4382      0.00000
     20      -0.1029      0.00000
     21       0.2958      0.00000
     22       0.8336      0.00000
     23       1.1657      0.00000
     24       1.2224      0.00000

 k-point    64 :      -0.3333    0.2667   -0.0000
  band No.  band energies     occupation 
      1     -15.4495      2.00000
      2     -14.3513      2.00000
      3     -12.4499      2.00000
      4     -12.2977      2.00000
      5     -10.3617      2.00000
      6      -9.7268      2.00000
      7      -7.6476      2.00000
      8      -7.1062      2.00000
      9      -6.3225      2.00000
     10      -6.0211      2.00000
     11      -5.6243      2.00000
     12      -5.3543      2.00000
     13      -4.1311      2.00000
     14      -3.7072      2.00000
     15      -3.4488      2.00000
     16      -3.3704      2.00000
     17      -2.4571      2.00000
     18      -2.4329      2.00000
     19      -0.6121      0.00000
     20      -0.3759      0.00000
     21       0.1578      0.00000
     22       0.7837      0.00000
     23       1.0691      0.00000
     24       1.5133      0.00000

 k-point    65 :      -0.2667    0.2667   -0.0000
  band No.  band energies     occupation 
      1     -15.6108      2.00000
      2     -14.1237      2.00000
      3     -12.4979      2.00000
      4     -12.3284      2.00000
      5     -10.3533      2.00000
      6      -9.4701      2.00000
      7      -7.4647      2.00000
      8      -6.9149      2.00000
      9      -6.4614      2.00000
     10      -6.4347      2.00000
     11      -5.7073      2.00000
     12      -5.2936      2.00000
     13      -3.9828      2.00000
     14      -3.9356      2.00000
     15      -3.6472      2.00000
     16      -3.5816      2.00000
     17      -2.4114      2.00000
     18      -2.4042      2.00000
     19      -1.0117      0.00000
     20      -0.4386      0.00000
     21       0.0578      0.00000
     22       0.8553      0.00000
     23       1.0757      0.00000
     24       1.6249      0.00000

 k-point    66 :      -0.2000    0.2667   -0.0000
  band No.  band energies     occupation 
      1     -15.7394      2.00000
      2     -13.9351      2.00000
      3     -12.5409      2.00000
      4     -12.3218      2.00000
      5     -10.3645      2.00000
      6      -9.1970      2.00000
      7      -7.2202      2.00000
      8      -6.8636      2.00000
      9      -6.8479      2.00000
     10      -6.5132      2.00000
     11      -5.6352      2.00000
     12      -5.2185      2.00000
     13      -4.2560      2.00000
     14      -4.1578      2.00000
     15      -3.7949      2.00000
     16      -3.5339      2.00000
     17      -2.4430      2.00000
     18      -2.4397      2.00000
     19      -1.2154      0.00000
     20      -0.7464      0.00000
     21      -0.0141      0.00000
     22       0.9685      0.00000
     23       1.4675      0.00000
     24       1.6470      0.00000

 k-point    67 :      -0.1333    0.2667   -0.0000
  band No.  band energies     occupation 
      1     -15.8333      2.00000
      2     -13.8023      2.00000
      3     -12.5713      2.00000
      4     -12.2734      2.00000
      5     -10.4005      2.00000
      6      -8.9443      2.00000
      7      -7.3147      2.00000
      8      -6.8942      2.00000
      9      -6.7668      2.00000
     10      -6.5722      2.00000
     11      -5.4251      2.00000
     12      -5.2038      2.00000
     13      -4.5774      2.00000
     14      -4.4997      2.00000
     15      -3.8572      2.00000
     16      -3.3702      2.00000
     17      -2.6065      2.00000
     18      -2.4884      2.00000
     19      -1.2726      0.00000
     20      -0.9841      0.00000
     21      -0.0667      0.00000
     22       0.9954      0.00000
     23       1.5921      0.00000
     24       1.8288      0.00000

 k-point    68 :      -0.0667    0.2667   -0.0000
  band No.  band energies     occupation 
      1     -15.8913      2.00000
      2     -13.7296      2.00000
      3     -12.5843      2.00000
      4     -12.2041      2.00000
      5     -10.4549      2.00000
      6      -8.7667      2.00000
      7      -7.5249      2.00000
      8      -7.0106      2.00000
      9      -6.5529      2.00000
     10      -6.4196      2.00000
     11      -5.2930      2.00000
     12      -5.2447      2.00000
     13      -4.7826      2.00000
     14      -4.7556      2.00000
     15      -3.8197      2.00000
     16      -3.2442      2.00000
     17      -2.8793      2.00000
     18      -2.5228      2.00000
     19      -1.2670      0.00000
     20      -1.0569      0.00000
     21      -0.1017      0.00000
     22       1.0089      0.00000
     23       1.3637      0.00000
     24       1.8290      0.00000

 k-point    69 :       0.0000    0.3333   -0.0000
  band No.  band energies     occupation 
      1     -15.8729      2.00000
      2     -13.6741      2.00000
      3     -12.7348      2.00000
      4     -12.1547      2.00000
      5     -10.6060      2.00000
      6      -8.5714      2.00000
      7      -7.5784      2.00000
      8      -7.1277      2.00000
      9      -6.4446      2.00000
     10      -6.3452      2.00000
     11      -5.3940      2.00000
     12      -5.2216      2.00000
     13      -4.7146      2.00000
     14      -4.6467      2.00000
     15      -3.7923      2.00000
     16      -3.2872      2.00000
     17      -3.1184      2.00000
     18      -2.2478      2.00000
     19      -0.9982      0.00000
     20      -0.9827      0.00000
     21      -0.0951      0.00000
     22       0.8942      0.00000
     23       0.9988      0.00000
     24       1.8458      0.00000

 k-point    70 :       0.0667    0.3333   -0.0000
  band No.  band energies     occupation 
      1     -15.8572      2.00000
      2     -13.7009      2.00000
      3     -12.7085      2.00000
      4     -12.1551      2.00000
      5     -10.6273      2.00000
      6      -8.6916      2.00000
      7      -7.5446      2.00000
      8      -7.1920      2.00000
      9      -6.6126      2.00000
     10      -6.2218      2.00000
     11      -5.2305      2.00000
     12      -5.1069      2.00000
     13      -4.7234      2.00000
     14      -4.6265      2.00000
     15      -3.6004      2.00000
     16      -3.3561      2.00000
     17      -3.1514      2.00000
     18      -2.2897      2.00000
     19      -1.0146      0.00000
     20      -0.8529      0.00000
     21      -0.0633      0.00000
     22       0.8199      0.00000
     23       0.9359      0.00000
     24       1.7772      0.00000

 k-point    71 :       0.1333    0.3333   -0.0000
  band No.  band energies     occupation 
      1     -15.8050      2.00000
      2     -13.7759      2.00000
      3     -12.6594      2.00000
      4     -12.1999      2.00000
      5     -10.6150      2.00000
      6      -8.9459      2.00000
      7      -7.5153      2.00000
      8      -7.2266      2.00000
      9      -6.7525      2.00000
     10      -6.1424      2.00000
     11      -5.1970      2.00000
     12      -4.8683      2.00000
     13      -4.6767      2.00000
     14      -4.3939      2.00000
     15      -3.5965      2.00000
     16      -3.2260      2.00000
     17      -3.0440      2.00000
     18      -2.3631      2.00000
     19      -1.0830      0.00000
     20      -0.6365      0.00000
     21       0.0059      0.00000
     22       0.6779      0.00000
     23       0.9296      0.00000
     24       1.6865      0.00000

 k-point    72 :       0.2000    0.3333   -0.0000
  band No.  band energies     occupation 
      1     -15.7169      2.00000
      2     -13.9029      2.00000
      3     -12.5906      2.00000
      4     -12.2611      2.00000
      5     -10.5751      2.00000
      6      -9.2578      2.00000
      7      -7.6578      2.00000
      8      -7.2818      2.00000
      9      -6.5714      2.00000
     10      -6.1398      2.00000
     11      -5.1247      2.00000
     12      -4.8884      2.00000
     13      -4.5080      2.00000
     14      -4.0008      2.00000
     15      -3.5261      2.00000
     16      -3.2338      2.00000
     17      -2.7065      2.00000
     18      -2.4545      2.00000
     19      -1.1736      0.00000
     20      -0.3361      0.00000
     21       0.1111      0.00000
     22       0.5139      0.00000
     23       0.9423      0.00000
     24       1.4553      0.00000

 k-point    73 :       0.2667    0.3333   -0.0000
  band No.  band energies     occupation 
      1     -15.5941      2.00000
      2     -14.0804      2.00000
      3     -12.5075      2.00000
      4     -12.3112      2.00000
      5     -10.5207      2.00000
      6      -9.5759      2.00000
      7      -7.8499      2.00000
      8      -7.3875      2.00000
      9      -6.1865      2.00000
     10      -6.1468      2.00000
     11      -5.0438      2.00000
     12      -4.9761      2.00000
     13      -4.2489      2.00000
     14      -3.8946      2.00000
     15      -3.3845      2.00000
     16      -3.0163      2.00000
     17      -2.5273      2.00000
     18      -2.4469      2.00000
     19      -1.1916      0.00000
     20      -0.0047      0.00000
     21       0.2398      0.00000
     22       0.3815      0.00000
     23       0.8412      0.00000
     24       0.9269      0.00000

 k-point    74 :       0.3333    0.3333   -0.0000
  band No.  band energies     occupation 
      1     -15.4384      2.00000
      2     -14.2968      2.00000
      3     -12.4192      2.00000
      4     -12.3424      2.00000
      5     -10.4590      2.00000
      6      -9.8684      2.00000
      7      -7.9783      2.00000
      8      -7.5390      2.00000
      9      -6.1072      2.00000
     10      -5.7685      2.00000
     11      -5.0690      2.00000
     12      -4.9453      2.00000
     13      -3.9974      2.00000
     14      -3.9696      2.00000
     15      -3.2561      2.00000
     16      -2.8977      2.00000
     17      -2.4969      2.00000
     18      -2.2747      2.00000
     19      -0.9830      0.00000
     20      -0.0103      0.00000
     21       0.3571      0.00000
     22       0.3833      0.00000
     23       0.7503      0.00000
     24       0.8523      0.00000

 k-point    75 :       0.4000    0.3333   -0.0000
  band No.  band energies     occupation 
      1     -15.2527      2.00000
      2     -14.5345      2.00000
      3     -12.3639      2.00000
      4     -12.3384      2.00000
      5     -10.3858      2.00000
      6     -10.1134      2.00000
      7      -8.0102      2.00000
      8      -7.7048      2.00000
      9      -6.0144      2.00000
     10      -5.5629      2.00000
     11      -5.0326      2.00000
     12      -4.8271      2.00000
     13      -4.0003      2.00000
     14      -3.8497      2.00000
     15      -3.2247      2.00000
     16      -2.9876      2.00000
     17      -2.4552      2.00000
     18      -2.1842      2.00000
     19      -0.5140      0.00000
     20      -0.1808      0.00000
     21       0.4224      0.00000
     22       0.5100      0.00000
     23       0.7448      0.00000
     24       0.9927      0.00000

 k-point    76 :       0.4667    0.3333   -0.0000
  band No.  band energies     occupation 
      1     -15.0407      2.00000
      2     -14.7764      2.00000
      3     -12.3904      2.00000
      4     -12.2804      2.00000
      5     -10.2945      2.00000
      6     -10.2865      2.00000
      7      -7.9438      2.00000
      8      -7.8482      2.00000
      9      -5.8855      2.00000
     10      -5.6585      2.00000
     11      -4.9419      2.00000
     12      -4.7132      2.00000
     13      -3.9541      2.00000
     14      -3.8315      2.00000
     15      -3.1633      2.00000
     16      -3.1356      2.00000
     17      -2.4486      2.00000
     18      -2.2304      2.00000
     19      -0.0668      0.00000
     20      -0.0545      0.00000
     21       0.4372      0.00000
     22       0.5444      0.00000
     23       0.8653      0.00000
     24       0.8901      0.00000

 k-point    77 :      -0.4667    0.3333   -0.0000
  band No.  band energies     occupation 
      1     -15.0093      2.00000
      2     -14.8085      2.00000
      3     -12.4316      2.00000
      4     -12.2569      2.00000
      5     -10.4053      2.00000
      6     -10.1448      2.00000
      7      -7.9387      2.00000
      8      -7.7922      2.00000
      9      -5.8335      2.00000
     10      -5.7502      2.00000
     11      -5.0124      2.00000
     12      -4.7346      2.00000
     13      -4.1592      2.00000
     14      -3.5896      2.00000
     15      -3.2473      2.00000
     16      -3.0181      2.00000
     17      -2.4161      2.00000
     18      -2.3867      2.00000
     19      -0.2032      0.00000
     20       0.1746      0.00000
     21       0.5751      0.00000
     22       0.6271      0.00000
     23       0.7716      0.00000
     24       0.9630      0.00000

 k-point    78 :      -0.4000    0.3333   -0.0000
  band No.  band energies     occupation 
      1     -15.2238      2.00000
      2     -14.5643      2.00000
      3     -12.4885      2.00000
      4     -12.2667      2.00000
      5     -10.4555      2.00000
      6      -9.9518      2.00000
      7      -7.9512      2.00000
      8      -7.5761      2.00000
      9      -6.0161      2.00000
     10      -5.6953      2.00000
     11      -5.1590      2.00000
     12      -5.0168      2.00000
     13      -4.1107      2.00000
     14      -3.6426      2.00000
     15      -3.2155      2.00000
     16      -2.9608      2.00000
     17      -2.5045      2.00000
     18      -2.3429      2.00000
     19      -0.3679      0.00000
     20      -0.0950      0.00000
     21       0.4102      0.00000
     22       0.6639      0.00000
     23       0.9280      0.00000
     24       0.9755      0.00000

 k-point    79 :      -0.3333    0.3333    0.0000
  band No.  band energies     occupation 
      1     -15.4133      2.00000
      2     -14.3206      2.00000
      3     -12.5544      2.00000
      4     -12.2933      2.00000
      5     -10.4699      2.00000
      6      -9.7094      2.00000
      7      -7.8674      2.00000
      8      -7.3228      2.00000
      9      -6.1855      2.00000
     10      -5.9535      2.00000
     11      -5.3151      2.00000
     12      -5.1210      2.00000
     13      -3.9596      2.00000
     14      -3.8181      2.00000
     15      -3.3239      2.00000
     16      -3.1512      2.00000
     17      -2.4444      2.00000
     18      -2.3021      2.00000
     19      -0.5351      0.00000
     20      -0.2851      0.00000
     21       0.2510      0.00000
     22       0.5669      0.00000
     23       0.8807      0.00000
     24       1.1206      0.00000

 k-point    80 :      -0.2667    0.3333    0.0000
  band No.  band energies     occupation 
      1     -15.5735      2.00000
      2     -14.0941      2.00000
      3     -12.6200      2.00000
      4     -12.3126      2.00000
      5     -10.4754      2.00000
      6      -9.4290      2.00000
      7      -7.6798      2.00000
      8      -7.0742      2.00000
      9      -6.4158      2.00000
     10      -6.3302      2.00000
     11      -5.4384      2.00000
     12      -5.0355      2.00000
     13      -4.0105      2.00000
     14      -3.8915      2.00000
     15      -3.5790      2.00000
     16      -3.3980      2.00000
     17      -2.3456      2.00000
     18      -2.3402      2.00000
     19      -0.8548      0.00000
     20      -0.3576      0.00000
     21       0.1225      0.00000
     22       0.5813      0.00000
     23       1.0110      0.00000
     24       1.2044      0.00000

 k-point    81 :      -0.2000    0.3333    0.0000
  band No.  band energies     occupation 
      1     -15.7012      2.00000
      2     -13.9050      2.00000
      3     -12.6765      2.00000
      4     -12.3040      2.00000
      5     -10.4898      2.00000
      6      -9.1306      2.00000
      7      -7.3995      2.00000
      8      -6.9039      2.00000
      9      -6.8609      2.00000
     10      -6.4341      2.00000
     11      -5.4777      2.00000
     12      -4.9500      2.00000
     13      -4.2309      2.00000
     14      -4.1615      2.00000
     15      -3.8248      2.00000
     16      -3.3858      2.00000
     17      -2.4664      2.00000
     18      -2.2835      2.00000
     19      -1.0063      0.00000
     20      -0.6827      0.00000
     21       0.0213      0.00000
     22       0.7179      0.00000
     23       1.2191      0.00000
     24       1.5076      0.00000

 k-point    82 :      -0.1333    0.3333    0.0000
  band No.  band energies     occupation 
      1     -15.7944      2.00000
      2     -13.7703      2.00000
      3     -12.7171      2.00000
      4     -12.2608      2.00000
      5     -10.5199      2.00000
      6      -8.8478      2.00000
      7      -7.2711      2.00000
      8      -6.9916      2.00000
      9      -6.8952      2.00000
     10      -6.4686      2.00000
     11      -5.3967      2.00000
     12      -4.9826      2.00000
     13      -4.5180      2.00000
     14      -4.4712      2.00000
     15      -3.9544      2.00000
     16      -3.2578      2.00000
     17      -2.7012      2.00000
     18      -2.2521      2.00000
     19      -1.0371      0.00000
     20      -0.9271      0.00000
     21      -0.0523      0.00000
     22       0.8198      0.00000
     23       1.1871      0.00000
     24       1.7995      0.00000

 k-point    83 :      -0.0667    0.3333    0.0000
  band No.  band energies     occupation 
      1     -15.8519      2.00000
      2     -13.6952      2.00000
      3     -12.7374      2.00000
      4     -12.1995      2.00000
      5     -10.5632      2.00000
      6      -8.6362      2.00000
      7      -7.4895      2.00000
      8      -7.0087      2.00000
      9      -6.6323      2.00000
     10      -6.4358      2.00000
     11      -5.2673      2.00000
     12      -5.2581      2.00000
     13      -4.6492      2.00000
     14      -4.6356      2.00000
     15      -3.9495      2.00000
     16      -3.1561      2.00000
     17      -3.0077      2.00000
     18      -2.2385      2.00000
     19      -1.0173      0.00000
     20      -1.0172      0.00000
     21      -0.0923      0.00000
     22       0.8876      0.00000
     23       1.1017      0.00000
     24       1.8475      0.00000

 k-point    84 :       0.0000    0.4000    0.0000
  band No.  band energies     occupation 
      1     -15.8403      2.00000
      2     -13.6449      2.00000
      3     -12.8529      2.00000
      4     -12.1563      2.00000
      5     -10.6817      2.00000
      6      -8.4535      2.00000
      7      -7.5478      2.00000
      8      -7.1268      2.00000
      9      -6.5755      2.00000
     10      -6.3171      2.00000
     11      -5.4971      2.00000
     12      -5.1696      2.00000
     13      -4.5790      2.00000
     14      -4.4446      2.00000
     15      -3.8796      2.00000
     16      -3.4023      2.00000
     17      -3.0633      2.00000
     18      -2.0581      2.00000
     19      -1.1907      0.00000
     20      -0.7187      0.00000
     21      -0.0006      0.00000
     22       0.6512      0.00000
     23       1.0907      0.00000
     24       1.8644      0.00000

 k-point    85 :       0.0667    0.4000   -0.0000
  band No.  band energies     occupation 
      1     -15.8239      2.00000
      2     -13.6718      2.00000
      3     -12.8310      2.00000
      4     -12.1602      2.00000
      5     -10.6957      2.00000
      6      -8.5728      2.00000
      7      -7.5126      2.00000
      8      -7.1616      2.00000
      9      -6.7442      2.00000
     10      -6.2542      2.00000
     11      -5.2066      2.00000
     12      -5.1245      2.00000
     13      -4.6191      2.00000
     14      -4.4489      2.00000
     15      -3.6049      2.00000
     16      -3.5498      2.00000
     17      -3.0946      2.00000
     18      -2.0922      2.00000
     19      -1.0664      0.00000
     20      -0.7269      0.00000
     21       0.0408      0.00000
     22       0.5957      0.00000
     23       1.0271      0.00000
     24       1.7877      0.00000

 k-point    86 :       0.1333    0.4000    0.0000
  band No.  band energies     occupation 
      1     -15.7712      2.00000
      2     -13.7489      2.00000
      3     -12.7845      2.00000
      4     -12.2009      2.00000
      5     -10.6847      2.00000
      6      -8.8390      2.00000
      7      -7.5115      2.00000
      8      -7.1863      2.00000
      9      -6.8694      2.00000
     10      -6.2161      2.00000
     11      -5.0197      2.00000
     12      -4.7756      2.00000
     13      -4.6126      2.00000
     14      -4.4044      2.00000
     15      -3.6146      2.00000
     16      -3.2148      2.00000
     17      -3.1624      2.00000
     18      -2.1675      2.00000
     19      -0.8262      0.00000
     20      -0.7774      0.00000
     21       0.1010      0.00000
     22       0.5889      0.00000
     23       0.8654      0.00000
     24       1.6693      0.00000

 k-point    87 :       0.2000    0.4000   -0.0000
  band No.  band energies     occupation 
      1     -15.6827      2.00000
      2     -13.8791      2.00000
      3     -12.7160      2.00000
      4     -12.2545      2.00000
      5     -10.6504      2.00000
      6      -9.1646      2.00000
      7      -7.7189      2.00000
      8      -7.2689      2.00000
      9      -6.6354      2.00000
     10      -6.1984      2.00000
     11      -4.8939      2.00000
     12      -4.6980      2.00000
     13      -4.4856      2.00000
     14      -4.0576      2.00000
     15      -3.5424      2.00000
     16      -3.1861      2.00000
     17      -2.8511      2.00000
     18      -2.2764      2.00000
     19      -0.8697      0.00000
     20      -0.4760      0.00000
     21       0.2010      0.00000
     22       0.6092      0.00000
     23       0.6254      0.00000
     24       1.5468      0.00000

 k-point    88 :       0.2667    0.4000   -0.0000
  band No.  band energies     occupation 
      1     -15.5598      2.00000
      2     -14.0591      2.00000
      3     -12.6304      2.00000
      4     -12.2997      2.00000
      5     -10.5997      2.00000
      6      -9.4964      2.00000
      7      -7.9478      2.00000
      8      -7.4249      2.00000
      9      -6.2222      2.00000
     10      -6.1537      2.00000
     11      -4.7990      2.00000
     12      -4.7942      2.00000
     13      -4.2495      2.00000
     14      -3.8329      2.00000
     15      -3.3853      2.00000
     16      -2.9797      2.00000
     17      -2.5360      2.00000
     18      -2.4047      2.00000
     19      -0.9390      0.00000
     20      -0.0532      0.00000
     21       0.3285      0.00000
     22       0.3384      0.00000
     23       0.6093      0.00000
     24       0.9104      0.00000

 k-point    89 :       0.3333    0.4000   -0.0000
  band No.  band energies     occupation 
      1     -15.4043      2.00000
      2     -14.2765      2.00000
      3     -12.5351      2.00000
      4     -12.3323      2.00000
      5     -10.5358      2.00000
      6      -9.8046      2.00000
      7      -8.0994      2.00000
      8      -7.6235      2.00000
      9      -6.0622      2.00000
     10      -5.7789      2.00000
     11      -4.9049      2.00000
     12      -4.7076      2.00000
     13      -4.0080      2.00000
     14      -3.8492      2.00000
     15      -3.2163      2.00000
     16      -2.7343      2.00000
     17      -2.4458      2.00000
     18      -2.2942      2.00000
     19      -0.8660      0.00000
     20      -0.0639      0.00000
     21       0.4219      0.00000
     22       0.4857      0.00000
     23       0.5691      0.00000
     24       0.6089      0.00000

 k-point    90 :       0.4000    0.4000    0.0000
  band No.  band energies     occupation 
      1     -15.2191      2.00000
      2     -14.5138      2.00000
      3     -12.4414      2.00000
      4     -12.3629      2.00000
      5     -10.4529      2.00000
      6     -10.0695      2.00000
      7      -8.1495      2.00000
      8      -7.8224      2.00000
      9      -5.9315      2.00000
     10      -5.5137      2.00000
     11      -4.8903      2.00000
     12      -4.6104      2.00000
     13      -3.8838      2.00000
     14      -3.8388      2.00000
     15      -3.1420      2.00000
     16      -2.8466      2.00000
     17      -2.3000      2.00000
     18      -2.1493      2.00000
     19      -0.5454      0.00000
     20      -0.2116      0.00000
     21       0.3734      0.00000
     22       0.4251      0.00000
     23       0.7002      0.00000
     24       0.8481      0.00000

 k-point    91 :       0.4667    0.4000   -0.0000
  band No.  band energies     occupation 
      1     -15.0081      2.00000
      2     -14.7545      2.00000
      3     -12.4047      2.00000
      4     -12.3631      2.00000
      5     -10.3376      2.00000
      6     -10.2771      2.00000
      7      -8.0985      2.00000
      8      -7.9872      2.00000
      9      -5.7783      2.00000
     10      -5.5716      2.00000
     11      -4.7428      2.00000
     12      -4.5383      2.00000
     13      -3.8537      2.00000
     14      -3.7956      2.00000
     15      -3.1069      2.00000
     16      -3.0172      2.00000
     17      -2.2575      2.00000
     18      -2.1271      2.00000
     19      -0.1014      0.00000
     20      -0.0852      0.00000
     21       0.2703      0.00000
     22       0.3837      0.00000
     23       0.8783      0.00000
     24       0.9051      0.00000

 k-point    92 :      -0.4667    0.4000    0.0000
  band No.  band energies     occupation 
      1     -14.9858      2.00000
      2     -14.7772      2.00000
      3     -12.4646      2.00000
      4     -12.3127      2.00000
      5     -10.4202      2.00000
      6     -10.1765      2.00000
      7      -8.0908      2.00000
      8      -7.9596      2.00000
      9      -5.7400      2.00000
     10      -5.6329      2.00000
     11      -4.7398      2.00000
     12      -4.6216      2.00000
     13      -3.9760      2.00000
     14      -3.6581      2.00000
     15      -3.0968      2.00000
     16      -2.9747      2.00000
     17      -2.2690      2.00000
     18      -2.2250      2.00000
     19      -0.1319      0.00000
     20       0.0291      0.00000
     21       0.3722      0.00000
     22       0.5593      0.00000
     23       0.7280      0.00000
     24       0.8235      0.00000

 k-point    93 :      -0.4000    0.4000   -0.0000
  band No.  band energies     occupation 
      1     -15.1986      2.00000
      2     -14.5348      2.00000
      3     -12.5404      2.00000
      4     -12.2941      2.00000
      5     -10.5038      2.00000
      6      -9.9636      2.00000
      7      -8.1110      2.00000
      8      -7.7530      2.00000
      9      -5.9227      2.00000
     10      -5.5986      2.00000
     11      -4.8846      2.00000
     12      -4.8436      2.00000
     13      -3.9389      2.00000
     14      -3.7356      2.00000
     15      -3.0743      2.00000
     16      -2.8420      2.00000
     17      -2.3918      2.00000
     18      -2.2713      2.00000
     19      -0.2813      0.00000
     20      -0.1710      0.00000
     21       0.3964      0.00000
     22       0.5112      0.00000
     23       0.7090      0.00000
     24       0.9427      0.00000

 k-point    94 :      -0.3333    0.4000    0.0000
  band No.  band energies     occupation 
      1     -15.3865      2.00000
      2     -14.2932      2.00000
      3     -12.6233      2.00000
      4     -12.2968      2.00000
      5     -10.5464      2.00000
      6      -9.7024      2.00000
      7      -8.0313      2.00000
      8      -7.5034      2.00000
      9      -6.0944      2.00000
     10      -5.8907      2.00000
     11      -4.9793      2.00000
     12      -4.9395      2.00000
     13      -3.9190      2.00000
     14      -3.8382      2.00000
     15      -3.2028      2.00000
     16      -2.9589      2.00000
     17      -2.4149      2.00000
     18      -2.3024      2.00000
     19      -0.4644      0.00000
     20      -0.1882      0.00000
     21       0.3119      0.00000
     22       0.3501      0.00000
     23       0.8055      0.00000
     24       0.9090      0.00000

 k-point    95 :      -0.2667    0.4000   -0.0000
  band No.  band energies     occupation 
      1     -15.5452      2.00000
      2     -14.0687      2.00000
      3     -12.7032      2.00000
      4     -12.3003      2.00000
      5     -10.5706      2.00000
      6      -9.4038      2.00000
      7      -7.8458      2.00000
      8      -7.2455      2.00000
      9      -6.3594      2.00000
     10      -6.2430      2.00000
     11      -5.1114      2.00000
     12      -4.8336      2.00000
     13      -4.1166      2.00000
     14      -3.8456      2.00000
     15      -3.4628      2.00000
     16      -3.2293      2.00000
     17      -2.4148      2.00000
     18      -2.2962      2.00000
     19      -0.6611      0.00000
     20      -0.3543      0.00000
     21       0.2040      0.00000
     22       0.4813      0.00000
     23       0.8467      0.00000
     24       1.2682      0.00000

 k-point    96 :      -0.2000    0.4000   -0.0000
  band No.  band energies     occupation 
      1     -15.6715      2.00000
      2     -13.8805      2.00000
      3     -12.7715      2.00000
      4     -12.2852      2.00000
      5     -10.5928      2.00000
      6      -9.0861      2.00000
      7      -7.5650      2.00000
      8      -7.0382      2.00000
      9      -6.8090      2.00000
     10      -6.3523      2.00000
     11      -5.2086      2.00000
     12      -4.7387      2.00000
     13      -4.3022      2.00000
     14      -4.1706      2.00000
     15      -3.7331      2.00000
     16      -3.2628      2.00000
     17      -2.5978      2.00000
     18      -2.1872      2.00000
     19      -0.7458      0.00000
     20      -0.7395      0.00000
     21       0.0847      0.00000
     22       0.7582      0.00000
     23       0.8327      0.00000
     24       1.5851      0.00000

 k-point    97 :      -0.1333    0.4000   -0.0000
  band No.  band energies     occupation 
      1     -15.7636      2.00000
      2     -13.7449      2.00000
      3     -12.8217      2.00000
      4     -12.2445      2.00000
      5     -10.6200      2.00000
      6      -8.7799      2.00000
      7      -7.2965      2.00000
      8      -7.0836      2.00000
      9      -6.9668      2.00000
     10      -6.3931      2.00000
     11      -5.2366      2.00000
     12      -4.8754      2.00000
     13      -4.4550      2.00000
     14      -4.4507      2.00000
     15      -3.9300      2.00000
     16      -3.1718      2.00000
     17      -2.8492      2.00000
     18      -2.1109      2.00000
     19      -1.0457      0.00000
     20      -0.7446      0.00000
     21       0.0052      0.00000
     22       0.7920      0.00000
     23       0.9363      0.00000
     24       1.7239      0.00000

 k-point    98 :      -0.0667    0.4000   -0.0000
  band No.  band energies     occupation 
      1     -15.8201      2.00000
      2     -13.6677      2.00000
      3     -12.8496      2.00000
      4     -12.1920      2.00000
      5     -10.6521      2.00000
      6      -8.5403      2.00000
      7      -7.4589      2.00000
      8      -7.0361      2.00000
      9      -6.7794      2.00000
     10      -6.3699      2.00000
     11      -5.2955      2.00000
     12      -5.2040      2.00000
     13      -4.5347      2.00000
     14      -4.4583      2.00000
     15      -3.9989      2.00000
     16      -3.1406      2.00000
     17      -3.0917      2.00000
     18      -2.0665      2.00000
     19      -1.1906      0.00000
     20      -0.7287      0.00000
     21      -0.0211      0.00000
     22       0.7283      0.00000
     23       1.0533      0.00000
     24       1.8439      0.00000

 k-point    99 :       0.0000    0.4667   -0.0000
  band No.  band energies     occupation 
      1     -15.8218      2.00000
      2     -13.6284      2.00000
      3     -12.9161      2.00000
      4     -12.1578      2.00000
      5     -10.7224      2.00000
      6      -8.3884      2.00000
      7      -7.5271      2.00000
      8      -7.1299      2.00000
      9      -6.6442      2.00000
     10      -6.3160      2.00000
     11      -5.5589      2.00000
     12      -5.1246      2.00000
     13      -4.4971      2.00000
     14      -4.3229      2.00000
     15      -3.9020      2.00000
     16      -3.4615      2.00000
     17      -3.0361      2.00000
     18      -1.9591      2.00000
     19      -1.3908      0.00000
     20      -0.5657      0.00000
     21       0.1678      0.00000
     22       0.3759      0.00000
     23       1.3322      0.00000
     24       1.9153      0.00000

 k-point   100 :       0.0667    0.4667   -0.0000
  band No.  band energies     occupation 
      1     -15.8042      2.00000
      2     -13.6545      2.00000
      3     -12.8998      2.00000
      4     -12.1701      2.00000
      5     -10.7238      2.00000
      6      -8.5026      2.00000
      7      -7.4766      2.00000
      8      -7.1259      2.00000
      9      -6.8262      2.00000
     10      -6.2975      2.00000
     11      -5.2866      2.00000
     12      -5.0779      2.00000
     13      -4.5454      2.00000
     14      -4.3371      2.00000
     15      -3.7473      2.00000
     16      -3.4727      2.00000
     17      -3.0635      2.00000
     18      -1.9873      2.00000
     19      -1.2934      0.00000
     20      -0.5608      0.00000
     21       0.1985      0.00000
     22       0.3449      0.00000
     23       1.2784      0.00000
     24       1.8531      0.00000

 k-point   101 :       0.1333    0.4667    0.0000
  band No.  band energies     occupation 
      1     -15.7504      2.00000
      2     -13.7329      2.00000
      3     -12.8581      2.00000
      4     -12.2108      2.00000
      5     -10.7094      2.00000
      6      -8.7706      2.00000
      7      -7.4746      2.00000
      8      -7.1337      2.00000
      9      -6.9624      2.00000
     10      -6.2813      2.00000
     11      -4.9599      2.00000
     12      -4.8014      2.00000
     13      -4.5649      2.00000
     14      -4.3580      2.00000
     15      -3.6339      2.00000
     16      -3.2468      2.00000
     17      -3.1263      2.00000
     18      -2.0610      2.00000
     19      -1.0569      0.00000
     20      -0.5715      0.00000
     21       0.1847      0.00000
     22       0.4057      0.00000
     23       1.1221      0.00000
     24       1.7387      0.00000

 k-point   102 :       0.2000    0.4667    0.0000
  band No.  band energies     occupation 
      1     -15.6611      2.00000
      2     -13.8659      2.00000
      3     -12.7934      2.00000
      4     -12.2574      2.00000
      5     -10.6796      2.00000
      6      -9.0994      2.00000
      7      -7.7280      2.00000
      8      -7.2353      2.00000
      9      -6.6921      2.00000
     10      -6.2441      2.00000
     11      -4.8181      2.00000
     12      -4.6030      2.00000
     13      -4.4626      2.00000
     14      -4.1172      2.00000
     15      -3.5097      2.00000
     16      -3.1640      2.00000
     17      -2.9352      2.00000
     18      -2.1723      2.00000
     19      -0.6963      0.00000
     20      -0.6266      0.00000
     21       0.2206      0.00000
     22       0.4966      0.00000
     23       0.8610      0.00000
     24       1.5684      0.00000

 k-point   103 :       0.2667    0.4667   -0.0000
  band No.  band energies     occupation 
      1     -15.5374      2.00000
      2     -14.0490      2.00000
      3     -12.7098      2.00000
      4     -12.2935      2.00000
      5     -10.6365      2.00000
      6      -9.4352      2.00000
      7      -7.9824      2.00000
      8      -7.4269      2.00000
      9      -6.2604      2.00000
     10      -6.1618      2.00000
     11      -4.7121      2.00000
     12      -4.7027      2.00000
     13      -4.2414      2.00000
     14      -3.8165      2.00000
     15      -3.3276      2.00000
     16      -3.0110      2.00000
     17      -2.6398      2.00000
     18      -2.3120      2.00000
     19      -0.6911      0.00000
     20      -0.2658      0.00000
     21       0.3121      0.00000
     22       0.4670      0.00000
     23       0.5788      0.00000
     24       1.0629      0.00000

 k-point   104 :       0.3333    0.4667    0.0000
  band No.  band energies     occupation 
      1     -15.3814      2.00000
      2     -14.2685      2.00000
      3     -12.6143      2.00000
      4     -12.3198      2.00000
      5     -10.5787      2.00000
      6      -9.7490      2.00000
      7      -8.1507      2.00000
      8      -7.6567      2.00000
      9      -6.0377      2.00000
     10      -5.8026      2.00000
     11      -4.8222      2.00000
     12      -4.6173      2.00000
     13      -4.0052      2.00000
     14      -3.7886      2.00000
     15      -3.1281      2.00000
     16      -2.6920      2.00000
     17      -2.4209      2.00000
     18      -2.3995      2.00000
     19      -0.6782      0.00000
     20      -0.0882      0.00000
     21       0.2714      0.00000
     22       0.3975      0.00000
     23       0.6394      0.00000
     24       0.8325      0.00000

 k-point   105 :       0.4000    0.4667   -0.0000
  band No.  band energies     occupation 
      1     -15.1959      2.00000
      2     -14.5064      2.00000
      3     -12.5165      2.00000
      4     -12.3494      2.00000
      5     -10.4976      2.00000
      6     -10.0230      2.00000
      7      -8.2147      2.00000
      8      -7.8781      2.00000
      9      -5.8841      2.00000
     10      -5.5087      2.00000
     11      -4.8090      2.00000
     12      -4.5264      2.00000
     13      -3.8342      2.00000
     14      -3.8276      2.00000
     15      -3.0130      2.00000
     16      -2.7423      2.00000
     17      -2.2600      2.00000
     18      -2.2466      2.00000
     19      -0.4888      0.00000
     20      -0.2207      0.00000
     21       0.3572      0.00000
     22       0.3790      0.00000
     23       0.7558      0.00000
     24       0.8077      0.00000

 k-point   106 :       0.4667    0.4667    0.0000
  band No.  band energies     occupation 
      1     -14.9851      2.00000
      2     -14.7467      2.00000
      3     -12.4288      2.00000
      4     -12.3958      2.00000
      5     -10.3786      2.00000
      6     -10.2448      2.00000
      7      -8.1767      2.00000
      8      -8.0586      2.00000
      9      -5.7159      2.00000
     10      -5.5422      2.00000
     11      -4.6127      2.00000
     12      -4.4745      2.00000
     13      -3.8138      2.00000
     14      -3.7912      2.00000
     15      -2.9913      2.00000
     16      -2.8976      2.00000
     17      -2.1837      2.00000
     18      -2.1668      2.00000
     19      -0.1428      0.00000
     20      -0.1099      0.00000
     21       0.2618      0.00000
     22       0.3247      0.00000
     23       0.7646      0.00000
     24       0.8798      0.00000

 k-point   107 :      -0.4667    0.4667    0.0000
  band No.  band energies     occupation 
      1     -14.9770      2.00000
      2     -14.7549      2.00000
      3     -12.4645      2.00000
      4     -12.3630      2.00000
      5     -10.4081      2.00000
      6     -10.2094      2.00000
      7      -8.1732      2.00000
      8      -8.0505      2.00000
      9      -5.7022      2.00000
     10      -5.5633      2.00000
     11      -4.5739      2.00000
     12      -4.5461      2.00000
     13      -3.8668      2.00000
     14      -3.7324      2.00000
     15      -2.9654      2.00000
     16      -2.8962      2.00000
     17      -2.2302      2.00000
     18      -2.1689      2.00000
     19      -0.1375      0.00000
     20      -0.0671      0.00000
     21       0.2373      0.00000
     22       0.4468      0.00000
     23       0.7633      0.00000
     24       0.7955      0.00000

 k-point   108 :      -0.4000    0.4667    0.0000
  band No.  band energies     occupation 
      1     -15.1885      2.00000
      2     -14.5140      2.00000
      3     -12.5510      2.00000
      4     -12.3245      2.00000
      5     -10.5163      2.00000
      6      -9.9862      2.00000
      7      -8.2013      2.00000
      8      -7.8563      2.00000
      9      -5.8798      2.00000
     10      -5.5373      2.00000
     11      -4.8088      2.00000
     12      -4.6112      2.00000
     13      -3.8485      2.00000
     14      -3.7979      2.00000
     15      -2.9681      2.00000
     16      -2.7457      2.00000
     17      -2.3043      2.00000
     18      -2.3009      2.00000
     19      -0.3543      0.00000
     20      -0.2180      0.00000
     21       0.3051      0.00000
     22       0.4864      0.00000
     23       0.7201      0.00000
     24       0.8962      0.00000

 k-point   109 :      -0.3333    0.4667   -0.0000
  band No.  band energies     occupation 
      1     -15.3749      2.00000
      2     -14.2745      2.00000
      3     -12.6448      2.00000
      4     -12.3068      2.00000
      5     -10.5831      2.00000
      6      -9.7139      2.00000
      7      -8.1278      2.00000
      8      -7.6183      2.00000
      9      -6.0463      2.00000
     10      -5.8396      2.00000
     11      -4.8350      2.00000
     12      -4.7184      2.00000
     13      -3.9821      2.00000
     14      -3.7833      2.00000
     15      -3.1074      2.00000
     16      -2.7888      2.00000
     17      -2.4033      2.00000
     18      -2.3999      2.00000
     19      -0.5216      0.00000
     20      -0.1238      0.00000
     21       0.2251      0.00000
     22       0.3929      0.00000
     23       0.7081      0.00000
     24       0.9483      0.00000

 k-point   110 :      -0.2667    0.4667   -0.0000
  band No.  band energies     occupation 
      1     -15.5321      2.00000
      2     -14.0525      2.00000
      3     -12.7350      2.00000
      4     -12.2937      2.00000
      5     -10.6265      2.00000
      6      -9.4036      2.00000
      7      -7.9485      2.00000
      8      -7.3688      2.00000
      9      -6.3059      2.00000
     10      -6.1882      2.00000
     11      -4.8347      2.00000
     12      -4.7169      2.00000
     13      -4.2006      2.00000
     14      -3.8237      2.00000
     15      -3.3484      2.00000
     16      -3.0951      2.00000
     17      -2.5772      2.00000
     18      -2.2776      2.00000
     19      -0.5835      0.00000
     20      -0.3670      0.00000
     21       0.2610      0.00000
     22       0.5128      0.00000
     23       0.6798      0.00000
     24       1.1377      0.00000

 k-point   111 :      -0.2000    0.4667   -0.0000
  band No.  band energies     occupation 
      1     -15.6570      2.00000
      2     -13.8664      2.00000
      3     -12.8125      2.00000
      4     -12.2685      2.00000
      5     -10.6592      2.00000
      6      -9.0731      2.00000
      7      -7.6772      2.00000
      8      -7.1589      2.00000
      9      -6.7494      2.00000
     10      -6.2913      2.00000
     11      -4.9501      2.00000
     12      -4.6175      2.00000
     13      -4.3972      2.00000
     14      -4.1575      2.00000
     15      -3.5907      2.00000
     16      -3.1865      2.00000
     17      -2.8037      2.00000
     18      -2.1453      2.00000
     19      -0.7940      0.00000
     20      -0.5775      0.00000
     21       0.1543      0.00000
     22       0.6033      0.00000
     23       0.9021      0.00000
     24       1.5774      0.00000

 k-point   112 :      -0.1333    0.4667   -0.0000
  band No.  band energies     occupation 
      1     -15.7477      2.00000
      2     -13.7314      2.00000
      3     -12.8710      2.00000
      4     -12.2267      2.00000
      5     -10.6864      2.00000
      6      -8.7512      2.00000
      7      -7.3979      2.00000
      8      -7.0577      2.00000
      9      -7.0392      2.00000
     10      -6.3369      2.00000
     11      -5.0520      2.00000
     12      -4.8387      2.00000
     13      -4.5087      2.00000
     14      -4.3725      2.00000
     15      -3.7866      2.00000
     16      -3.1272      2.00000
     17      -3.0542      2.00000
     18      -2.0441      2.00000
     19      -1.1397      0.00000
     20      -0.5592      0.00000
     21       0.1017      0.00000
     22       0.5242      0.00000
     23       1.1380      0.00000
     24       1.7450      0.00000

 k-point   113 :      -0.0667    0.4667   -0.0000
  band No.  band energies     occupation 
      1     -15.8029      2.00000
      2     -13.6530      2.00000
      3     -12.9062      2.00000
      4     -12.1817      2.00000
      5     -10.7083      2.00000
      6      -8.4922      2.00000
      7      -7.4533      2.00000
      8      -7.0810      2.00000
      9      -6.8437      2.00000
     10      -6.3337      2.00000
     11      -5.3157      2.00000
     12      -5.1138      2.00000
     13      -4.5124      2.00000
     14      -4.3415      2.00000
     15      -3.9127      2.00000
     16      -3.2945      2.00000
     17      -3.0612      2.00000
     18      -1.9798      2.00000
     19      -1.3419      0.00000
     20      -0.5601      0.00000
     21       0.1151      0.00000
     22       0.4492      0.00000
     23       1.2810      0.00000
     24       1.8671      0.00000


--------------------------------------------------------------------------------------------------------


 soft charge-density along one line, spin component           1
         0         1         2         3         4         5         6         7         8         9
 total charge-density along one line
 
 pseudopotential strength for first ion, spin component:           1
 30.137  37.595  -0.008  -0.016  -0.013  -0.012  -0.025  -0.021
 37.595  46.904  -0.010  -0.020  -0.016  -0.015  -0.031  -0.026
 -0.008  -0.010   6.637  -0.001  -0.001  10.264  -0.001  -0.001
 -0.016  -0.020  -0.001   6.641  -0.002  -0.001  10.270  -0.003
 -0.013  -0.016  -0.001  -0.002   6.642  -0.001  -0.003  10.272
 -0.012  -0.015  10.264  -0.001  -0.001  15.891  -0.002  -0.001
 -0.025  -0.031  -0.001  10.270  -0.003  -0.002  15.900  -0.005
 -0.021  -0.026  -0.001  -0.003  10.272  -0.001  -0.005  15.903
 total augmentation occupancy for first ion, spin component:           1
  2.000   0.000   0.000   0.000   0.000   0.000   0.000   0.000
  0.000   0.000   0.000   0.000   0.000   0.000   0.000   0.000
  0.000   0.000   1.000   0.000   0.000   0.000   0.000   0.000
  0.000   0.000   0.000   1.000   0.000   0.000   0.000   0.000
  0.000   0.000   0.000   0.000   1.000   0.000   0.000   0.000
  0.000   0.000   0.000   0.000   0.000   0.000   0.000   0.000
  0.000   0.000   0.000   0.000   0.000   0.000   0.000   0.000
  0.000   0.000   0.000   0.000   0.000   0.000   0.000   0.000


------------------------ aborting loop because EDIFF is reached ----------------------------------------


 


 total charge     
 
# of ion       s       p       d       tot
------------------------------------------
    1        1.079   1.384   0.000   2.463
    2        1.073   1.396   0.000   2.470
    3        1.079   1.384   0.000   2.463
    4        1.073   1.396   0.000   2.470
    5        1.073   1.378   0.000   2.451
    6        1.073   1.378   0.000   2.451
    7        1.210   1.137   0.199   2.545
    8        1.210   1.137   0.199   2.545
--------------------------------------------------
tot          8.870  10.589   0.397  19.857
 
    CHARGE:  cpu time    0.2300: real time    0.2294
    FORLOC:  cpu time    0.0030: real time    0.0030
    FORNL :  cpu time    1.5628: real time    1.5653
    STRESS:  cpu time   15.0427: real time   15.0617
    FORCOR:  cpu time    0.0280: real time    0.0278
    FORHAR:  cpu time    0.0070: real time    0.0077
    OFIELD:  cpu time    0.0000: real time    0.0001

  FORCE on cell =-STRESS in cart. coord.  units (eV):
  Direction    XX          YY          ZZ          XY          YZ          ZX
  --------------------------------------------------------------------------------------
  Alpha Z     6.76191     6.76191     6.76191
  Ewald    4064.88557  3974.49444 -4809.22177   -23.36968    -0.00031    -0.00935
  Hartree  4177.74092  4125.96396 -4054.86113    -6.11634    -0.00025    -0.00837
  E(xc)    -124.64025  -124.62091  -125.06163     0.08274     0.00000     0.00000
  Local   -8764.35773 -8627.34591  8332.84237    26.61383     0.00060     0.01775
  n-local   398.07147   397.54996   393.54123    -1.23720     0.00002     0.00004
  augment   -78.02972   -78.35608   -78.18461    -0.11406     0.00001     0.00002
  Kinetic   319.66536   325.50983   334.03459     4.12286     0.00005     0.00011
  Fock        0.00000     0.00000     0.00000     0.00000     0.00000     0.00000
  -------------------------------------------------------------------------------------
  Total       0.09753    -0.04280    -0.14904    -0.01785     0.00000    -0.00000
  in kB       0.24829    -0.10895    -0.37944    -0.04544     0.00000    -0.00000
  external pressure =       -0.08 kB  Pullay stress =        0.00 kB


 VOLUME and BASIS-vectors are now :
 -----------------------------------------------------------------------------
  energy-cutoff  :      500.00
  volume of cell :      629.34
      direct lattice vectors                 reciprocal lattice vectors
     5.280271118  0.116474754 -0.000005373     0.189463583 -0.003598076 -0.000000032
     0.106518764  5.608950167 -0.000000270    -0.003934377  0.178361200  0.000000067
     0.000003418 -0.000007873 21.258271417     0.000000048  0.000000001  0.047040513

  length of vectors
     5.281555589  5.609961517 21.258271417     0.189497745  0.178404588  0.047040513


 FORCES acting on ions
    electron-ion (+dipol)            ewald-force                    non-local-force                 convergence-correction
 -----------------------------------------------------------------------------------------------
   -.250E+02 0.204E+02 -.208E+03   0.275E+02 -.185E+02 0.211E+03   -.253E+01 -.194E+01 -.306E+01   0.246E-03 0.136E-02 -.255E-02
   0.577E+01 -.477E+02 0.241E+03   -.506E+01 0.490E+02 -.243E+03   -.708E+00 -.132E+01 0.156E+01   0.351E-03 -.873E-03 0.120E-02
   -.250E+02 0.204E+02 0.208E+03   0.275E+02 -.185E+02 -.211E+03   -.253E+01 -.194E+01 0.306E+01   -.137E-03 0.140E-02 0.242E-02
   0.577E+01 -.477E+02 -.241E+03   -.506E+01 0.490E+02 0.243E+03   -.708E+00 -.132E+01 -.156E+01   0.137E-03 -.944E-03 -.117E-02
   0.208E+02 0.331E+02 -.209E+03   -.237E+02 -.377E+02 0.214E+03   0.291E+01 0.462E+01 -.513E+01   -.366E-03 0.740E-03 -.239E-02
   0.208E+02 0.331E+02 0.209E+03   -.237E+02 -.377E+02 -.214E+03   0.291E+01 0.462E+01 0.513E+01   0.614E-05 0.618E-03 0.256E-02
   -.786E+00 -.652E+01 0.118E+03   0.119E+01 0.716E+01 -.116E+03   -.399E+00 -.644E+00 -.179E+01   -.864E-04 -.382E-03 0.561E-03
   -.786E+00 -.652E+01 -.118E+03   0.119E+01 0.716E+01 0.116E+03   -.399E+00 -.644E+00 0.179E+01   0.881E-06 -.381E-03 -.567E-03
 -----------------------------------------------------------------------------------------------
   0.144E+01 -.143E+01 0.919E-03   0.777E-14 0.133E-13 -.142E-13   -.144E+01 0.143E+01 0.142E-05   0.152E-03 0.154E-02 0.682E-04
 
 
 POSITION                                       TOTAL-FORCE (eV/Angst)
 -----------------------------------------------------------------------------------
      5.05774      1.60847     11.68683        -0.010966     -0.005439     -0.015586
      0.10573      3.89255      9.12429        -0.001388      0.003260      0.018156
      2.41760      1.55024      9.57154        -0.010966     -0.005439      0.015586
      2.74586      3.95078     12.13408        -0.001388      0.003260     -0.018156
      2.83518      1.76585     11.76013         0.010854      0.001625     -0.006001
      0.19504      1.70761      9.49824         0.010854      0.001625      0.006001
      2.78079      4.49145      9.48398         0.001500      0.000554      0.011576
      0.14066      4.43321     11.77439         0.001500      0.000554     -0.011576
 -----------------------------------------------------------------------------------
    total drift:                                0.000208      0.000123      0.000988


--------------------------------------------------------------------------------------------------------



  FREE ENERGIE OF THE ION-ELECTRON SYSTEM (eV)
  ---------------------------------------------------
  free  energy   TOTEN  =       -36.83138898 eV

  energy  without entropy=      -36.83138898  energy(sigma->0) =      -36.83138898
 


--------------------------------------------------------------------------------------------------------


    POTLOK:  cpu time    0.0300: real time    0.0296


--------------------------------------------------------------------------------------------------------


 stress matrix after NEB project (eV)
      0.09753     -0.01785     -0.00000
     -0.01785     -0.04280      0.00000
     -0.00000      0.00000     -0.14904
  FORCES: max atom, RMS     0.019819    0.016031
  FORCE total and by dimension    0.045342    0.018156
  Stress total and by dimension    0.184917    0.149044
     LOOP+:  cpu time   59.4980: real time   59.6141
    4ORBIT:  cpu time    0.0000: real time    0.0000
 


 total charge     
 
# of ion       s       p       d       tot
------------------------------------------
    1        1.079   1.384   0.000   2.463
    2        1.073   1.396   0.000   2.470
    3        1.079   1.384   0.000   2.463
    4        1.073   1.396   0.000   2.470
    5        1.073   1.378   0.000   2.451
    6        1.073   1.378   0.000   2.451
    7        1.210   1.137   0.199   2.545
    8        1.210   1.137   0.199   2.545
--------------------------------------------------
tot          8.870  10.589   0.397  19.857
 
 BZINTS: Fermi energy: -1.951650; 36.000000 electrons
         Band energy:-265.524917;  BLOECHL correction:  0.000000

 total amount of memory used by VASP MPI-rank0   447287. kBytes
=======================================================================

   base      :      30000. kBytes
   nonl-proj :     378868. kBytes
   fftplans  :       1977. kBytes
   grid      :       7219. kBytes
   one-center:         64. kBytes
   wavefun   :      29159. kBytes
 
  
  
 General timing and accounting informations for this job:
 ========================================================
  
                  Total CPU time used (sec):       64.794
                            User time (sec):       64.439
                          System time (sec):        0.355
                         Elapsed time (sec):       64.944
  
                   Maximum memory used (kb):      527384.
                   Average memory used (kb):           0.
  
                          Minor page faults:        13017
                          Major page faults:            0
                 Voluntary context switches:          334
