3:Pnmb(53)                              
   1.00000000000000     
     6.6620543929959739    0.0000000000000000    0.0000000000000000
     0.0000000000000000    6.6650191123237370    0.0000000000000000
     0.0000000000000000    0.0000000000000000   11.9404463351786525
   Mg   N 
     4    40
Direct
  0.2495480362724507  0.0000000000000000  0.3749424038508593
  0.7504519637275493  0.5000000000000000  0.8749424038508593
  0.7504519637275493  0.0000000000000000  0.6250575961491407
  0.2495480362724507  0.5000000000000000  0.1250575961491407
  0.0904359253227440  0.0000000000000000  0.6264711068139803
  0.1524903691824164  0.0000000000000000  0.7322558777586394
  0.3490025204180398  0.0000000000000000  0.7321024032854453
  0.4105613411592941  0.0000000000000000  0.6262317686131382
  0.2503302430582792  0.0000000000000000  0.5605590667075546
  0.9095640746772560  0.5000000000000000  0.1264711068139803
  0.8475096308175836  0.5000000000000000  0.2322558777586394
  0.6509974795819602  0.5000000000000000  0.2321024032854453
  0.5894386588407059  0.5000000000000000  0.1262317686131382
  0.7496697569417137  0.5000000000000000  0.0605590667075546
  0.9095640746772560  0.0000000000000000  0.3735288931860197
  0.8475096308175836  0.0000000000000000  0.2677441222413606
  0.6509974795819602  0.0000000000000000  0.2678975967145547
  0.5894386588407059  0.0000000000000000  0.3737682313868618
  0.7496697569417137  0.0000000000000000  0.4394409332924454
  0.0904359253227440  0.5000000000000000  0.8735288931860197
  0.1524903691824164  0.5000000000000000  0.7677441222413606
  0.3490025204180398  0.5000000000000000  0.7678975967145547
  0.4105613411592941  0.5000000000000000  0.8737682313868618
  0.2503302430582792  0.5000000000000000  0.9394409332924454
  0.7506915672464771  0.0000000000000000  0.8105120796563483
  0.7507464535832966  0.8400009096375811  0.8762943529607909
  0.7506648602252994  0.9017846147007944  0.9821130451086901
  0.7506648602252994  0.0982153852992056  0.9821130451086901
  0.7507464535832966  0.1599990903624189  0.8762943529607909
  0.2493084327535229  0.5000000000000000  0.3105120796563483
  0.2492535464167034  0.6599990903624189  0.3762943529607909
  0.2493351397747006  0.5982153852992056  0.4821130451086901
  0.2493351397747006  0.4017846147007944  0.4821130451086901
  0.2492535464167034  0.3400009096375811  0.3762943529607909
  0.2493084327535229  0.0000000000000000  0.1894879203436517
  0.2492535464167034  0.8400009096375811  0.1237056470392091
  0.2493351397747006  0.9017846147007944  0.0178869548913099
  0.2493351397747006  0.0982153852992056  0.0178869548913099
  0.2492535464167034  0.1599990903624189  0.1237056470392091
  0.7506915672464771  0.5000000000000000  0.6894879203436517
  0.7507464535832966  0.6599990903624189  0.6237056470392091
  0.7506648602252994  0.5982153852992056  0.5178869548913099
  0.7506648602252994  0.4017846147007944  0.5178869548913099
  0.7507464535832966  0.3400009096375811  0.6237056470392091
 
  0.00000000E+00  0.00000000E+00  0.00000000E+00
  0.00000000E+00  0.00000000E+00  0.00000000E+00
  0.00000000E+00  0.00000000E+00  0.00000000E+00
  0.00000000E+00  0.00000000E+00  0.00000000E+00
  0.00000000E+00  0.00000000E+00  0.00000000E+00
  0.00000000E+00  0.00000000E+00  0.00000000E+00
  0.00000000E+00  0.00000000E+00  0.00000000E+00
  0.00000000E+00  0.00000000E+00  0.00000000E+00
  0.00000000E+00  0.00000000E+00  0.00000000E+00
  0.00000000E+00  0.00000000E+00  0.00000000E+00
  0.00000000E+00  0.00000000E+00  0.00000000E+00
  0.00000000E+00  0.00000000E+00  0.00000000E+00
  0.00000000E+00  0.00000000E+00  0.00000000E+00
  0.00000000E+00  0.00000000E+00  0.00000000E+00
  0.00000000E+00  0.00000000E+00  0.00000000E+00
  0.00000000E+00  0.00000000E+00  0.00000000E+00
  0.00000000E+00  0.00000000E+00  0.00000000E+00
  0.00000000E+00  0.00000000E+00  0.00000000E+00
  0.00000000E+00  0.00000000E+00  0.00000000E+00
  0.00000000E+00  0.00000000E+00  0.00000000E+00
  0.00000000E+00  0.00000000E+00  0.00000000E+00
  0.00000000E+00  0.00000000E+00  0.00000000E+00
  0.00000000E+00  0.00000000E+00  0.00000000E+00
  0.00000000E+00  0.00000000E+00  0.00000000E+00
  0.00000000E+00  0.00000000E+00  0.00000000E+00
  0.00000000E+00  0.00000000E+00  0.00000000E+00
  0.00000000E+00  0.00000000E+00  0.00000000E+00
  0.00000000E+00  0.00000000E+00  0.00000000E+00
  0.00000000E+00  0.00000000E+00  0.00000000E+00
  0.00000000E+00  0.00000000E+00  0.00000000E+00
  0.00000000E+00  0.00000000E+00  0.00000000E+00
  0.00000000E+00  0.00000000E+00  0.00000000E+00
  0.00000000E+00  0.00000000E+00  0.00000000E+00
  0.00000000E+00  0.00000000E+00  0.00000000E+00
  0.00000000E+00  0.00000000E+00  0.00000000E+00
  0.00000000E+00  0.00000000E+00  0.00000000E+00
  0.00000000E+00  0.00000000E+00  0.00000000E+00
  0.00000000E+00  0.00000000E+00  0.00000000E+00
  0.00000000E+00  0.00000000E+00  0.00000000E+00
  0.00000000E+00  0.00000000E+00  0.00000000E+00
  0.00000000E+00  0.00000000E+00  0.00000000E+00
  0.00000000E+00  0.00000000E+00  0.00000000E+00
  0.00000000E+00  0.00000000E+00  0.00000000E+00
  0.00000000E+00  0.00000000E+00  0.00000000E+00
