       N       E                     dE             d eps       ncg     rms          rms(c)
DAV:   1     0.141561899755E+04    0.14156E+04   -0.10517E+05  2072   0.145E+03
DAV:   2    -0.217391228207E+03   -0.16330E+04   -0.15747E+04  2680   0.349E+02
DAV:   3    -0.342270337587E+03   -0.12488E+03   -0.12335E+03  2328   0.105E+02
DAV:   4    -0.344995125964E+03   -0.27248E+01   -0.27180E+01  2440   0.160E+01
DAV:   5    -0.345087299178E+03   -0.92173E-01   -0.92121E-01  2408   0.263E+00    0.323E+01
DAV:   6    -0.333890374282E+03    0.11197E+02   -0.16250E+01  2272   0.104E+01    0.179E+01
DAV:   7    -0.331763928656E+03    0.21264E+01   -0.10770E+01  2328   0.836E+00    0.487E+00
DAV:   8    -0.331777543982E+03   -0.13615E-01   -0.85457E-01  2176   0.279E+00    0.613E-01
DAV:   9    -0.331777820785E+03   -0.27680E-03   -0.50656E-02  2224   0.803E-01    0.352E-01
DAV:  10    -0.331779234333E+03   -0.14135E-02   -0.56488E-03  2384   0.259E-01    0.981E-02
DAV:  11    -0.331779614690E+03   -0.38036E-03   -0.89729E-04  2320   0.103E-01    0.307E-02
DAV:  12    -0.331779665317E+03   -0.50627E-04   -0.55110E-05  2048   0.308E-02    0.199E-02
DAV:  13    -0.331779691162E+03   -0.25845E-04   -0.56664E-05  1992   0.234E-02    0.534E-03
DAV:  14    -0.331779693109E+03   -0.19474E-05   -0.61278E-06  1216   0.828E-03
   1 F= -.33177969E+03 E0= -.33177969E+03  d E =-.331780E+03
