 vasp.5.4.4.18Apr17-6-g9f103f2a35 (build Sep 25 2018 12:01:19) complex          
  
 executed on             LinuxIFC date 2018.10.11  17:58:43
 running on   28 total cores
 distrk:  each k-point on   28 cores,    1 groups
 distr:  one band on NCORES_PER_BAND=  14 cores,    2 groups


--------------------------------------------------------------------------------------------------------


 INCAR:
 POTCAR:    PAW_PBE Mg 13Apr2007                  
 POTCAR:    PAW_PBE N 08Apr2002                   

 ----------------------------------------------------------------------------- 
|                                                                             |
|           W    W    AA    RRRRR   N    N  II  N    N   GGGG   !!!           |
|           W    W   A  A   R    R  NN   N  II  NN   N  G    G  !!!           |
|           W    W  A    A  R    R  N N  N  II  N N  N  G       !!!           |
|           W WW W  AAAAAA  RRRRR   N  N N  II  N  N N  G  GGG   !            |
|           WW  WW  A    A  R   R   N   NN  II  N   NN  G    G                |
|           W    W  A    A  R    R  N    N  II  N    N   GGGG   !!!           |
|                                                                             |
|      For optimal performance we recommend to set                            |
|        NCORE= 4 - approx SQRT( number of cores)                             |
|      NCORE specifies how many cores store one orbital (NPAR=cpu/NCORE).     |
|      This setting can  greatly improve the performance of VASP for DFT.     |
|      The default,   NCORE=1            might be grossly inefficient         |
|      on modern multi-core architectures or massively parallel machines.     |
|      Do your own testing !!!!                                               |
|      Unfortunately you need to use the default for GW and RPA calculations. |
|      (for HF NCORE is supported but not extensively tested yet)             |
|                                                                             |
 ----------------------------------------------------------------------------- 

 POTCAR:    PAW_PBE Mg 13Apr2007                  
   VRHFIN =Mg: s2p0                                                             
   LEXCH  = PE                                                                  
   EATOM  =    23.0369 eV,    1.6932 Ry                                         
                                                                                
   TITEL  = PAW_PBE Mg 13Apr2007                                                
   LULTRA =        F    use ultrasoft PP ?                                      
   IUNSCR =        1    unscreen: 0-lin 1-nonlin 2-no                           
   RPACOR =    1.500    partial core radius                                     
   POMASS =   24.305; ZVAL   =    2.000    mass and valenz                      
   RCORE  =    2.000    outmost cutoff radius                                   
   RWIGS  =    2.880; RWIGS  =    1.524    wigner-seitz radius (au A)           
   ENMAX  =  200.000; ENMIN  =  100.000 eV                                      
   RCLOC  =    1.506    cutoff for local pot                                    
   LCOR   =        T    correct aug charges                                     
   LPAW   =        T    paw PP                                                  
   EAUG   =  454.734                                                            
   DEXC   =    0.000                                                            
   RMAX   =    2.045    core radius for proj-oper                               
   RAUG   =    1.300    factor for augmentation sphere                          
   RDEP   =    2.025    radius for radial grids                                 
   RDEPT  =    1.942    core radius for aug-charge                              
                                                                                
   Atomic configuration                                                         
    6 entries                                                                   
     n  l   j            E        occ.                                          
     1  0  0.50     -1259.6230   2.0000                                         
     2  0  0.50       -79.8442   2.0000                                         
     2  1  1.50       -46.6121   6.0000                                         
     3  0  0.50        -4.7055   2.0000                                         
     3  1  0.50        -1.3660   0.0000                                         
     3  2  1.50        -1.3606   0.0000                                         
   Description                                                                  
     l       E           TYP  RCUT    TYP  RCUT                                 
     0     -4.7054661     23  2.000                                             
     0     27.2116520     23  2.000                                             
     1      1.3605826     23  2.000                                             
     1     27.2116520     23  2.000                                             
     2     -1.3605826     23  2.000                                             
  local pseudopotential read in
  partial core-charges read in
  partial kinetic energy density read in
  atomic valenz-charges read in
  non local Contribution for L=           0  read in
    real space projection operators read in
  non local Contribution for L=           0  read in
    real space projection operators read in
  non local Contribution for L=           1  read in
    real space projection operators read in
  non local Contribution for L=           1  read in
    real space projection operators read in
  non local Contribution for L=           2  read in
    real space projection operators read in
    PAW grid and wavefunctions read in
 
   number of l-projection  operators is LMAX  =           5
   number of lm-projection operators is LMMAX =          13
 
 POTCAR:    PAW_PBE N 08Apr2002                   
   VRHFIN =N: s2p3                                                              
   LEXCH  = PE                                                                  
   EATOM  =   264.5486 eV,   19.4438 Ry                                         
                                                                                
   TITEL  = PAW_PBE N 08Apr2002                                                 
   LULTRA =        F    use ultrasoft PP ?                                      
   IUNSCR =        1    unscreen: 0-lin 1-nonlin 2-no                           
   RPACOR =    1.200    partial core radius                                     
   POMASS =   14.001; ZVAL   =    5.000    mass and valenz                      
   RCORE  =    1.500    outmost cutoff radius                                   
   RWIGS  =    1.400; RWIGS  =    0.741    wigner-seitz radius (au A)           
   ENMAX  =  400.000; ENMIN  =  300.000 eV                                      
   ICORE  =        2    local potential                                         
   LCOR   =        T    correct aug charges                                     
   LPAW   =        T    paw PP                                                  
   EAUG   =  627.112                                                            
   DEXC   =    0.000                                                            
   RMAX   =    1.529    core radius for proj-oper                               
   RAUG   =    1.300    factor for augmentation sphere                          
   RDEP   =    1.514    radius for radial grids                                 
   RDEPT  =    1.338    core radius for aug-charge                              
                                                                                
   Atomic configuration                                                         
    4 entries                                                                   
     n  l   j            E        occ.                                          
     1  0  0.50      -384.7179   2.0000                                         
     2  0  0.50       -18.5828   2.0000                                         
     2  1  0.50        -7.0898   3.0000                                         
     3  2  1.50        -6.8029   0.0000                                         
   Description                                                                  
     l       E           TYP  RCUT    TYP  RCUT                                 
     0    -18.5828119     23  1.200                                             
     0    -13.5018863     23  1.200                                             
     1     -7.0897853     23  1.500                                             
     1      9.5240782     23  1.500                                             
     2     -6.8029130      7  1.500                                             
  local pseudopotential read in
  partial core-charges read in
  partial kinetic energy density read in
  atomic valenz-charges read in
  non local Contribution for L=           0  read in
    real space projection operators read in
  non local Contribution for L=           0  read in
    real space projection operators read in
  non local Contribution for L=           1  read in
    real space projection operators read in
  non local Contribution for L=           1  read in
    real space projection operators read in
    PAW grid and wavefunctions read in
 
   number of l-projection  operators is LMAX  =           4
   number of lm-projection operators is LMMAX =           8
 

 ----------------------------------------------------------------------------- 
|                                                                             |
|  ADVICE TO THIS USER RUNNING 'VASP/VAMP'   (HEAR YOUR MASTER'S VOICE ...):  |
|                                                                             |
|      You have a (more or less) 'large supercell' and for larger cells       |
|      it might be more efficient to use real space projection opertators     |
|      So try LREAL= Auto  in the INCAR   file.                               |
|      Mind:          For very  accurate calculation you might also keep the  |
|      reciprocal projection scheme          (i.e. LREAL=.FALSE.)             |
|                                                                             |
 ----------------------------------------------------------------------------- 

  PAW_PBE Mg 13Apr2007                  :
 energy of atom  1       EATOM=  -23.0369
 kinetic energy error for atom=    0.0000 (will be added to EATOM!!)
  PAW_PBE N 08Apr2002                   :
 energy of atom  2       EATOM= -264.5486
 kinetic energy error for atom=    0.0138 (will be added to EATOM!!)
 
 
 POSCAR: 3:Pnmb(53)                              
  positions in direct lattice
  velocities in cartesian coordinates
 exchange correlation table for  LEXCH =        8
   RHO(1)=    0.500       N(1)  =     2000
   RHO(2)=  100.500       N(2)  =     4000

 VTST: version 3.1, (03/28/14)

 CHAIN: initializing optimizer
 
 OPT: Using VASP Conjugate-Gradient optimizer
 CHAIN: Read ICHAIN            0
 
 POSCAR: 3:Pnmb(53)                              
  positions in direct lattice
  velocities in cartesian coordinates
 


--------------------------------------------------------------------------------------------------------


 ion  position               nearest neighbor table
   1  0.250  0.000  0.375-  35 2.21   9 2.22  18 2.26  15 2.27  34 2.27  31 2.27
   2  0.750  0.500  0.875-  40 2.21  14 2.22  23 2.26  20 2.27  29 2.27  26 2.27
   3  0.750  0.000  0.625-  25 2.21  19 2.22   8 2.26   5 2.27  41 2.27  44 2.27
   4  0.250  0.500  0.125-  30 2.21  24 2.22  13 2.26  10 2.27  36 2.27  39 2.27
   5  0.090  0.000  0.626-   9 1.32   6 1.33   3 2.27
   6  0.152  0.000  0.732-   7 1.31   5 1.33
   7  0.349  0.000  0.732-   6 1.31   8 1.33
   8  0.411  0.000  0.626-   9 1.32   7 1.33   3 2.26
   9  0.250  0.000  0.561-   5 1.32   8 1.32   1 2.22
  10  0.910  0.500  0.126-  14 1.32  11 1.33   4 2.27
  11  0.848  0.500  0.232-  12 1.31  10 1.33
  12  0.651  0.500  0.232-  11 1.31  13 1.33
  13  0.589  0.500  0.126-  14 1.32  12 1.33   4 2.26
  14  0.750  0.500  0.061-  10 1.32  13 1.32   2 2.22
  15  0.910  0.000  0.374-  19 1.32  16 1.33   1 2.27
  16  0.848  0.000  0.268-  17 1.31  15 1.33
  17  0.651  0.000  0.268-  16 1.31  18 1.33
  18  0.589  0.000  0.374-  19 1.32  17 1.33   1 2.26
  19  0.750  0.000  0.439-  15 1.32  18 1.32   3 2.22
  20  0.090  0.500  0.874-  24 1.32  21 1.33   2 2.27
  21  0.152  0.500  0.768-  22 1.31  20 1.33
  22  0.349  0.500  0.768-  21 1.31  23 1.33
  23  0.411  0.500  0.874-  24 1.32  22 1.33   2 2.26
  24  0.250  0.500  0.939-  20 1.32  23 1.32   4 2.22
  25  0.751  0.000  0.811-  26 1.32  29 1.32   3 2.21
  26  0.751  0.840  0.876-  25 1.32  27 1.33   2 2.27
  27  0.751  0.902  0.982-  28 1.31  26 1.33
  28  0.751  0.098  0.982-  27 1.31  29 1.33
  29  0.751  0.160  0.876-  25 1.32  28 1.33   2 2.27
  30  0.249  0.500  0.311-  31 1.32  34 1.32   4 2.21
  31  0.249  0.660  0.376-  30 1.32  32 1.33   1 2.27
  32  0.249  0.598  0.482-  33 1.31  31 1.33
  33  0.249  0.402  0.482-  32 1.31  34 1.33
  34  0.249  0.340  0.376-  30 1.32  33 1.33   1 2.27
  35  0.249  0.000  0.189-  36 1.32  39 1.32   1 2.21
  36  0.249  0.840  0.124-  35 1.32  37 1.33   4 2.27
  37  0.249  0.902  0.018-  38 1.31  36 1.33
  38  0.249  0.098  0.018-  37 1.31  39 1.33
  39  0.249  0.160  0.124-  35 1.32  38 1.33   4 2.27
  40  0.751  0.500  0.689-  41 1.32  44 1.32   2 2.21
  41  0.751  0.660  0.624-  40 1.32  42 1.33   3 2.27
  42  0.751  0.598  0.518-  43 1.31  41 1.33
  43  0.751  0.402  0.518-  42 1.31  44 1.33
  44  0.751  0.340  0.624-  40 1.32  43 1.33   3 2.27
 
  LATTYP: Found a simple orthorhombic cell.
 ALAT       =     6.6620543930
 B/A-ratio  =     1.0004450158
 C/A-ratio  =     1.7923069418
  
  Lattice vectors:
  
 A1 = (   6.6620543930,   0.0000000000,   0.0000000000)
 A2 = (   0.0000000000,   6.6650191123,   0.0000000000)
 A3 = (   0.0000000000,   0.0000000000,  11.9404463352)


Analysis of symmetry for initial positions (statically):
=====================================================================
 Subroutine PRICEL returns:
 Original cell was already a primitive cell.
 

 Routine SETGRP: Setting up the symmetry group for a 
 simple orthorhombic supercell.


 Subroutine GETGRP returns: Found  8 space group operations
 (whereof  4 operations were pure point group operations)
 out of a pool of  8 trial point group operations.


The static configuration has the point symmetry C_2h.
 The point group associated with its full space group is D_2h.


Analysis of symmetry for dynamics (positions and initial velocities):
=====================================================================
 Subroutine PRICEL returns:
 Original cell was already a primitive cell.
 

 Routine SETGRP: Setting up the symmetry group for a 
 simple orthorhombic supercell.


 Subroutine GETGRP returns: Found  8 space group operations
 (whereof  4 operations were pure point group operations)
 out of a pool of  8 trial point group operations.


The dynamic configuration has the point symmetry C_2h.
 The point group associated with its full space group is D_2h.


 Subroutine INISYM returns: Found  8 space group operations
 (whereof  4 operations are pure point group operations),
 and found     1 'primitive' translations

 
 

Automatic generation of k-mesh.
 generate k-points for:    2    2    2
Space group operators:
 irot       det(A)        alpha          n_x          n_y          n_z        tau_x        tau_y        tau_z
    1     1.000000     0.000001     1.000000     0.000000     0.000000     0.000000     0.000000     0.000000
    2    -1.000000     0.000001     1.000000     0.000000     0.000000     0.000000     0.000000     0.000000
    3     1.000000   179.999999     0.000000     1.000000     0.000000     0.000000     0.000000     0.000000
    4    -1.000000   179.999999     0.000000     1.000000     0.000000     0.000000     0.000000     0.000000
    5     1.000000   180.000000     0.000000     0.000000     1.000000     0.000000     0.500000     0.500000
    6    -1.000000   180.000000     0.000000     0.000000     1.000000     0.000000     0.500000     0.500000
    7     1.000000   179.999999     1.000000     0.000000     0.000000     0.000000     0.500000     0.500000
    8    -1.000000   179.999999     1.000000     0.000000     0.000000     0.000000     0.500000     0.500000
 
 Subroutine IBZKPT returns following result:
 ===========================================
 
 Found      8 irreducible k-points:
 
 Following reciprocal coordinates:
            Coordinates               Weight
  0.000000  0.000000  0.000000      1.000000
  0.500000  0.000000  0.000000      1.000000
  0.000000  0.500000  0.000000      1.000000
  0.500000  0.500000  0.000000      1.000000
  0.000000  0.000000  0.500000      1.000000
  0.500000  0.000000  0.500000      1.000000
  0.000000  0.500000  0.500000      1.000000
  0.500000  0.500000  0.500000      1.000000
 
 Following cartesian coordinates:
            Coordinates               Weight
  0.000000  0.000000  0.000000      1.000000
  0.075052  0.000000  0.000000      1.000000
  0.000000  0.075019  0.000000      1.000000
  0.075052  0.075019  0.000000      1.000000
  0.000000  0.000000  0.041874      1.000000
  0.075052  0.000000  0.041874      1.000000
  0.000000  0.075019  0.041874      1.000000
  0.075052  0.075019  0.041874      1.000000
 


--------------------------------------------------------------------------------------------------------




 Dimension of arrays:
   k-points           NKPTS =      8   k-points in BZ     NKDIM =      8   number of bands    NBANDS=    128
   number of dos      NEDOS =    301   number of ions     NIONS =     44
   non local maximal  LDIM  =      5   non local SUM 2l+1 LMDIM =     13
   total plane-waves  NPLWV =  90720
   max r-space proj   IRMAX =      1   max aug-charges    IRDMAX=   7467
   dimension x,y,z NGX =    36 NGY =   36 NGZ =   70
   dimension x,y,z NGXF=    72 NGYF=   72 NGZF=  140
   support grid    NGXF=    72 NGYF=   72 NGZF=  140
   ions per type =               4  40
   NGX,Y,Z   is equivalent  to a cutoff of   8.98,  8.98,  9.75 a.u.
   NGXF,Y,Z  is equivalent  to a cutoff of  17.97, 17.96, 19.49 a.u.

 SYSTEM =  qvasp                                   
 POSCAR =  3:Pnmb(53)                              

 Startparameter for this run:
   NWRITE =      2    write-flag & timer
   PREC   = normal    normal or accurate (medium, high low for compatibility)
   ISTART =      0    job   : 0-new  1-cont  2-samecut
   ICHARG =      2    charge: 1-file 2-atom 10-const
   ISPIN  =      1    spin polarized calculation?
   LNONCOLLINEAR =      F non collinear calculations
   LSORBIT =      F    spin-orbit coupling
   INIWAV =      1    electr: 0-lowe 1-rand  2-diag
   LASPH  =      F    aspherical Exc in radial PAW
   METAGGA=      F    non-selfconsistent MetaGGA calc.

 Electronic Relaxation 1
   ENCUT  =  500.0 eV  36.75 Ry    6.06 a.u.  12.15 12.15 21.77*2*pi/ulx,y,z
   ENINI  =  500.0     initial cutoff
   ENAUG  =  627.1 eV  augmentation charge cutoff
   NELM   =     60;   NELMIN=  5; NELMDL=  0     # of ELM steps 
   EDIFF  = 0.1E-04   stopping-criterion for ELM
   LREAL  =      F    real-space projection
   NLSPLINE    = F    spline interpolate recip. space projectors
   LCOMPAT=      F    compatible to vasp.4.4
   GGA_COMPAT  = T    GGA compatible to vasp.4.4-vasp.4.6
   LMAXPAW     = -100 max onsite density
   LMAXMIX     =    2 max onsite mixed and CHGCAR
   VOSKOWN=      0    Vosko Wilk Nusair interpolation
   ROPT   =    0.00000   0.00000
 Ionic relaxation
   EDIFFG = -.1E-01   stopping-criterion for IOM
   NSW    =    300    number of steps for IOM
   NBLOCK =      1;   KBLOCK =    300    inner block; outer block 
   IBRION =      2    ionic relax: 0-MD 1-quasi-New 2-CG
   NFREE  =      1    steps in history (QN), initial steepest desc. (CG)
   ISIF   =      3    stress and relaxation
   IWAVPR =     11    prediction:  0-non 1-charg 2-wave 3-comb
   ISYM   =      2    0-nonsym 1-usesym 2-fastsym
   LCORR  =      T    Harris-Foulkes like correction to forces

   POTIM  = 0.5000    time-step for ionic-motion
   TEIN   =    0.0    initial temperature
   TEBEG  =    0.0;   TEEND  =   0.0 temperature during run
   SMASS  =  -3.00    Nose mass-parameter (am)
   estimated Nose-frequenzy (Omega)   =  0.10E-29 period in steps =****** mass=  -0.101E-26a.u.
   SCALEE = 1.0000    scale energy and forces
   NPACO  =    256;   APACO  = 16.0  distance and # of slots for P.C.
   PSTRESS=    0.0 pullay stress

  Mass of Ions in am
   POMASS =  24.30 14.00
  Ionic Valenz
   ZVAL   =   2.00  5.00
  Atomic Wigner-Seitz radii
   RWIGS  =  -1.00 -1.00
  virtual crystal weights 
   VCA    =   1.00  1.00
   NELECT =     208.0000    total number of electrons
   NUPDOWN=      -1.0000    fix difference up-down

 DOS related values:
   EMIN   =  10.00;   EMAX   =-10.00  energy-range for DOS
   EFERMI =   0.00
   ISMEAR =     0;   SIGMA  =   0.20  broadening in eV -4-tet -1-fermi 0-gaus

 Electronic relaxation 2 (details)
   IALGO  =     38    algorithm
   LDIAG  =      T    sub-space diagonalisation (order eigenvalues)
   LSUBROT=      F    optimize rotation matrix (better conditioning)
   TURBO    =      0    0=normal 1=particle mesh
   IRESTART =      0    0=no restart 2=restart with 2 vectors
   NREBOOT  =      0    no. of reboots
   NMIN     =      0    reboot dimension
   EREF     =   0.00    reference energy to select bands
   IMIX   =      4    mixing-type and parameters
     AMIX     =   0.40;   BMIX     =  1.00
     AMIX_MAG =   1.60;   BMIX_MAG =  1.00
     AMIN     =   0.10
     WC   =   100.;   INIMIX=   1;  MIXPRE=   1;  MAXMIX= -45

 Intra band minimization:
   WEIMIN = 0.0010     energy-eigenvalue tresh-hold
   EBREAK =  0.20E-07  absolut break condition
   DEPER  =   0.30     relativ break condition  

   TIME   =   0.40     timestep for ELM

  volume/ion in A,a.u.               =      12.05        81.32
  Fermi-wavevector in a.u.,A,eV,Ry     =   1.198448  2.264739 19.541746  1.436278
  Thomas-Fermi vector in A             =   2.334337
 
 Write flags
   LWAVE        =      F    write WAVECAR
   LDOWNSAMPLE  =      F    k-point downsampling of WAVECAR
   LCHARG       =      F    write CHGCAR
   LVTOT        =      F    write LOCPOT, total local potential
   LVHAR        =      F    write LOCPOT, Hartree potential only
   LELF         =      F    write electronic localiz. function (ELF)
   LORBIT       =      0    0 simple, 1 ext, 2 COOP (PROOUT), +10 PAW based schemes


 Dipole corrections
   LMONO  =      F    monopole corrections only (constant potential shift)
   LDIPOL =      F    correct potential (dipole corrections)
   IDIPOL =      0    1-x, 2-y, 3-z, 4-all directions 
   EPSILON=  1.0000000 bulk dielectric constant

 Exchange correlation treatment:
   GGA     =    --    GGA type
   LEXCH   =     8    internal setting for exchange type
   VOSKOWN=      0    Vosko Wilk Nusair interpolation
   LHFCALC =     F    Hartree Fock is set to
   LHFONE  =     F    Hartree Fock one center treatment
   AEXX    =    0.0000 exact exchange contribution

 Linear response parameters
   LEPSILON=     F    determine dielectric tensor
   LRPA    =     F    only Hartree local field effects (RPA)
   LNABLA  =     F    use nabla operator in PAW spheres
   LVEL    =     F    velocity operator in full k-point grid
   LINTERFAST=   F  fast interpolation
   KINTER  =     0    interpolate to denser k-point grid
   CSHIFT  =0.1000    complex shift for real part using Kramers Kronig
   OMEGAMAX=  -1.0    maximum frequency
   DEG_THRESHOLD= 0.2000000E-02 threshold for treating states as degnerate
   RTIME   =   -0.100 relaxation time in fs
  (WPLASMAI=    0.000 imaginary part of plasma frequency in eV, 0.658/RTIME)
   DFIELD  = 0.0000000 0.0000000 0.0000000 field for delta impulse in time
 
 Orbital magnetization related:
   ORBITALMAG=     F  switch on orbital magnetization
   LCHIMAG   =     F  perturbation theory with respect to B field
   DQ        =  0.001000  dq finite difference perturbation B field
   LLRAUG    =     F  two centre corrections for induced B field



--------------------------------------------------------------------------------------------------------


 conjugate gradient relaxation of ions
 charge density and potential will be updated during run
 non-spin polarized calculation
 Variant of blocked Davidson
 Davidson routine will perform the subspace rotation
 perform sub-space diagonalisation
    after iterative eigenvector-optimisation
 modified Broyden-mixing scheme, WC =      100.0
 initial mixing is a Kerker type mixing with AMIX =  0.4000 and BMIX =      1.0000
 Hartree-type preconditioning will be used
 using additional bands           24
 reciprocal scheme for non local part
 use partial core corrections
 calculate Harris-corrections to forces 
   (improved forces if not selfconsistent)
 use gradient corrections 
 use of overlap-Matrix (Vanderbilt PP)
 Gauss-broadening in eV      SIGMA  =   0.20


--------------------------------------------------------------------------------------------------------


  energy-cutoff  :      500.00
  volume of cell :      530.19
      direct lattice vectors                 reciprocal lattice vectors
     6.662054393  0.000000000  0.000000000     0.150103848  0.000000000  0.000000000
     0.000000000  6.665019112  0.000000000     0.000000000  0.150037079  0.000000000
     0.000000000  0.000000000 11.940446335     0.000000000  0.000000000  0.083748963

  length of vectors
     6.662054393  6.665019112 11.940446335     0.150103848  0.150037079  0.083748963


 
 k-points in units of 2pi/SCALE and weight: read from INCAR                         
   0.00000000  0.00000000  0.00000000       0.125
   0.07505192  0.00000000  0.00000000       0.125
   0.00000000  0.07501854  0.00000000       0.125
   0.07505192  0.07501854  0.00000000       0.125
   0.00000000  0.00000000  0.04187448       0.125
   0.07505192  0.00000000  0.04187448       0.125
   0.00000000  0.07501854  0.04187448       0.125
   0.07505192  0.07501854  0.04187448       0.125
 
 k-points in reciprocal lattice and weights: read from INCAR                         
   0.00000000  0.00000000  0.00000000       0.125
   0.50000000  0.00000000  0.00000000       0.125
   0.00000000  0.50000000  0.00000000       0.125
   0.50000000  0.50000000  0.00000000       0.125
   0.00000000  0.00000000  0.50000000       0.125
   0.50000000  0.00000000  0.50000000       0.125
   0.00000000  0.50000000  0.50000000       0.125
   0.50000000  0.50000000  0.50000000       0.125
 
 position of ions in fractional coordinates (direct lattice) 
   0.24954804  0.00000000  0.37494240
   0.75045196  0.50000000  0.87494240
   0.75045196  0.00000000  0.62505760
   0.24954804  0.50000000  0.12505760
   0.09043593  0.00000000  0.62647111
   0.15249037  0.00000000  0.73225588
   0.34900252  0.00000000  0.73210240
   0.41056134  0.00000000  0.62623177
   0.25033024  0.00000000  0.56055907
   0.90956407  0.50000000  0.12647111
   0.84750963  0.50000000  0.23225588
   0.65099748  0.50000000  0.23210240
   0.58943866  0.50000000  0.12623177
   0.74966976  0.50000000  0.06055907
   0.90956407  0.00000000  0.37352889
   0.84750963  0.00000000  0.26774412
   0.65099748  0.00000000  0.26789760
   0.58943866  0.00000000  0.37376823
   0.74966976  0.00000000  0.43944093
   0.09043593  0.50000000  0.87352889
   0.15249037  0.50000000  0.76774412
   0.34900252  0.50000000  0.76789760
   0.41056134  0.50000000  0.87376823
   0.25033024  0.50000000  0.93944093
   0.75069157  0.00000000  0.81051208
   0.75074645  0.84000091  0.87629435
   0.75066486  0.90178461  0.98211305
   0.75066486  0.09821539  0.98211305
   0.75074645  0.15999909  0.87629435
   0.24930843  0.50000000  0.31051208
   0.24925355  0.65999909  0.37629435
   0.24933514  0.59821539  0.48211305
   0.24933514  0.40178461  0.48211305
   0.24925355  0.34000091  0.37629435
   0.24930843  0.00000000  0.18948792
   0.24925355  0.84000091  0.12370565
   0.24933514  0.90178461  0.01788695
   0.24933514  0.09821539  0.01788695
   0.24925355  0.15999909  0.12370565
   0.75069157  0.50000000  0.68948792
   0.75074645  0.65999909  0.62370565
   0.75066486  0.59821539  0.51788695
   0.75066486  0.40178461  0.51788695
   0.75074645  0.34000091  0.62370565
 
 position of ions in cartesian coordinates  (Angst):
   1.66250259  0.00000000  4.47697965
   4.99955180  3.33250956 10.44720282
   4.99955180  0.00000000  7.46346668
   1.66250259  3.33250956  1.49324352
   0.60248905  0.00000000  7.48034463
   1.01589913  0.00000000  8.74346201
   2.32507377  0.00000000  8.74162946
   2.73518199  0.00000000  7.47748683
   1.66771370  0.00000000  6.69332545
   6.05956534  3.33250956  1.51012146
   5.64615526  3.33250956  2.77323884
   4.33698062  3.33250956  2.77140629
   3.92687241  3.33250956  1.50726366
   4.99434070  3.33250956  0.72310229
   6.05956534  0.00000000  4.46010170
   5.64615526  0.00000000  3.19698432
   4.33698062  0.00000000  3.19881688
   3.92687241  0.00000000  4.46295951
   4.99434070  0.00000000  5.24712088
   0.60248905  3.33250956 10.43032487
   1.01589913  3.33250956  9.16720749
   2.32507377  3.33250956  9.16904004
   2.73518199  3.33250956 10.43318268
   1.66771370  3.33250956 11.21734405
   5.00114805  0.00000000  9.67787599
   5.00151371  5.59862212 10.46334570
   5.00097013  6.01041169 11.72686811
   5.00097013  0.65460742 11.72686811
   5.00151371  1.06639700 10.46334570
   1.66090634  3.33250956  3.70765282
   1.66054068  4.39890655  4.49312253
   1.66108426  3.98711698  5.75664494
   1.66108426  2.67790214  5.75664494
   1.66054068  2.26611256  4.49312253
   1.66090634  0.00000000  2.26257034
   1.66054068  5.59862212  1.47710064
   1.66108426  6.01041169  0.21357822
   1.66108426  0.65460742  0.21357822
   1.66054068  1.06639700  1.47710064
   5.00114805  3.33250956  8.23279351
   5.00151371  4.39890655  7.44732381
   5.00097013  3.98711698  6.18380139
   5.00097013  2.67790214  6.18380139
   5.00151371  2.26611256  7.44732381
 


--------------------------------------------------------------------------------------------------------


 k-point  1 :   0.0000 0.0000 0.0000  plane waves:   13427
 k-point  2 :   0.5000 0.0000 0.0000  plane waves:   13520
 k-point  3 :   0.0000 0.5000 0.0000  plane waves:   13520
 k-point  4 :   0.5000 0.5000 0.0000  plane waves:   13484
 k-point  5 :   0.0000 0.0000 0.5000  plane waves:   13500
 k-point  6 :   0.5000 0.0000 0.5000  plane waves:   13464
 k-point  7 :   0.0000 0.5000 0.5000  plane waves:   13472
 k-point  8 :   0.5000 0.5000 0.5000  plane waves:   13496

 maximum and minimum number of plane-waves per node :       985      936

 maximum number of plane-waves:     13520
 maximum index in each direction: 
   IXMAX=   12   IYMAX=   12   IZMAX=   21
   IXMIN=  -12   IYMIN=  -12   IZMIN=  -22


 parallel 3D FFT for wavefunctions:
    minimum data exchange during FFTs selected (reduces bandwidth)
 parallel 3D FFT for charge:
    minimum data exchange during FFTs selected (reduces bandwidth)


 total amount of memory used by VASP MPI-rank0    43897. kBytes
=======================================================================

   base      :      30000. kBytes
   nonl-proj :       2311. kBytes
   fftplans  :       1234. kBytes
   grid      :       2014. kBytes
   one-center:         32. kBytes
   wavefun   :       8306. kBytes
 
     INWAV:  cpu time    0.0000: real time    0.0000
 Broyden mixing: mesh for mixing (old mesh)
   NGX = 25   NGY = 25   NGZ = 43
  (NGX  = 72   NGY  = 72   NGZ  =140)
  gives a total of  26875 points

 initial charge density was supplied:
 charge density of overlapping atoms calculated
 number of electron     208.0000000 magnetization 
 keeping initial charge density in first step


--------------------------------------------------------------------------------------------------------


 Maximum index for augmentation-charges          448 (set IRDMAX)


--------------------------------------------------------------------------------------------------------


 First call to EWALD:  gamma=   0.219
 Maximum number of real-space cells 3x 3x 2
 Maximum number of reciprocal cells 2x 2x 4

    FEWALD:  cpu time    0.0020: real time    0.0020


--------------------------------------- Iteration      1(   1)  ---------------------------------------


    POTLOK:  cpu time    0.0136: real time    0.0148
    SETDIJ:  cpu time    0.0036: real time    0.0036
     EDDAV:  cpu time    1.4759: real time    1.4815
       DOS:  cpu time    0.0019: real time    0.0019
    --------------------------------------------
      LOOP:  cpu time    1.4949: real time    1.5017

 eigenvalue-minimisations  :  2072
 total energy-change (2. order) : 0.1415619E+04  (-0.1051729E+05)
 number of electron     208.0000000 magnetization 
 augmentation part      208.0000000 magnetization 

 Free energy of the ion-electron system (eV)
  ---------------------------------------------------
  alpha Z        PSCENC =       373.47427032
  Ewald energy   TEWEN  =     -5796.59994758
  -Hartree energ DENC   =     -4403.93969108
  -exchange      EXHF   =         0.00000000
  -V(xc)+E(xc)   XCENC  =       598.17184611
  PAW double counting   =      8458.53604555    -8298.72446309
  entropy T*S    EENTRO =        -0.12696882
  eigenvalues    EBANDS =      -188.71350621
  atomic energy  EATOM  =     10673.54141234
  Solvation  Ediel_sol  =         0.00000000
  ---------------------------------------------------
  free energy    TOTEN  =      1415.61899755 eV

  energy without entropy =     1415.74596637  energy(sigma->0) =     1415.68248196


--------------------------------------------------------------------------------------------------------




--------------------------------------- Iteration      1(   2)  ---------------------------------------


     EDDAV:  cpu time    1.8042: real time    1.8094
       DOS:  cpu time    0.0015: real time    0.0014
    --------------------------------------------
      LOOP:  cpu time    1.8056: real time    1.8109

 eigenvalue-minimisations  :  2680
 total energy-change (2. order) :-0.1633010E+04  (-0.1574665E+04)
 number of electron     208.0000000 magnetization 
 augmentation part      208.0000000 magnetization 

 Free energy of the ion-electron system (eV)
  ---------------------------------------------------
  alpha Z        PSCENC =       373.47427032
  Ewald energy   TEWEN  =     -5796.59994758
  -Hartree energ DENC   =     -4403.93969108
  -exchange      EXHF   =         0.00000000
  -V(xc)+E(xc)   XCENC  =       598.17184611
  PAW double counting   =      8458.53604555    -8298.72446309
  entropy T*S    EENTRO =        -0.00000000
  eigenvalues    EBANDS =     -1821.85070078
  atomic energy  EATOM  =     10673.54141234
  Solvation  Ediel_sol  =         0.00000000
  ---------------------------------------------------
  free energy    TOTEN  =      -217.39122821 eV

  energy without entropy =     -217.39122821  energy(sigma->0) =     -217.39122821


--------------------------------------------------------------------------------------------------------




--------------------------------------- Iteration      1(   3)  ---------------------------------------


     EDDAV:  cpu time    1.5963: real time    1.6040
       DOS:  cpu time    0.0013: real time    0.0013
    --------------------------------------------
      LOOP:  cpu time    1.5976: real time    1.6053

 eigenvalue-minimisations  :  2328
 total energy-change (2. order) :-0.1248791E+03  (-0.1233488E+03)
 number of electron     208.0000000 magnetization 
 augmentation part      208.0000000 magnetization 

 Free energy of the ion-electron system (eV)
  ---------------------------------------------------
  alpha Z        PSCENC =       373.47427032
  Ewald energy   TEWEN  =     -5796.59994758
  -Hartree energ DENC   =     -4403.93969108
  -exchange      EXHF   =         0.00000000
  -V(xc)+E(xc)   XCENC  =       598.17184611
  PAW double counting   =      8458.53604555    -8298.72446309
  entropy T*S    EENTRO =        -0.00000000
  eigenvalues    EBANDS =     -1946.72981016
  atomic energy  EATOM  =     10673.54141234
  Solvation  Ediel_sol  =         0.00000000
  ---------------------------------------------------
  free energy    TOTEN  =      -342.27033759 eV

  energy without entropy =     -342.27033759  energy(sigma->0) =     -342.27033759


--------------------------------------------------------------------------------------------------------




--------------------------------------- Iteration      1(   4)  ---------------------------------------


     EDDAV:  cpu time    1.6630: real time    1.6710
       DOS:  cpu time    0.0016: real time    0.0016
    --------------------------------------------
      LOOP:  cpu time    1.6646: real time    1.6726

 eigenvalue-minimisations  :  2440
 total energy-change (2. order) :-0.2724788E+01  (-0.2717959E+01)
 number of electron     208.0000000 magnetization 
 augmentation part      208.0000000 magnetization 

 Free energy of the ion-electron system (eV)
  ---------------------------------------------------
  alpha Z        PSCENC =       373.47427032
  Ewald energy   TEWEN  =     -5796.59994758
  -Hartree energ DENC   =     -4403.93969108
  -exchange      EXHF   =         0.00000000
  -V(xc)+E(xc)   XCENC  =       598.17184611
  PAW double counting   =      8458.53604555    -8298.72446309
  entropy T*S    EENTRO =        -0.00000000
  eigenvalues    EBANDS =     -1949.45459854
  atomic energy  EATOM  =     10673.54141234
  Solvation  Ediel_sol  =         0.00000000
  ---------------------------------------------------
  free energy    TOTEN  =      -344.99512596 eV

  energy without entropy =     -344.99512596  energy(sigma->0) =     -344.99512596


--------------------------------------------------------------------------------------------------------




--------------------------------------- Iteration      1(   5)  ---------------------------------------


     EDDAV:  cpu time    1.6377: real time    1.6448
       DOS:  cpu time    0.0015: real time    0.0015
    CHARGE:  cpu time    0.0510: real time    0.0511
    MIXING:  cpu time    0.0010: real time    0.0012
    --------------------------------------------
      LOOP:  cpu time    1.6912: real time    1.6986

 eigenvalue-minimisations  :  2408
 total energy-change (2. order) :-0.9217321E-01  (-0.9212068E-01)
 number of electron     207.9999662 magnetization 
 augmentation part        8.3722924 magnetization 

 Broyden mixing:
  rms(total) = 0.32266E+01    rms(broyden)= 0.32247E+01
  rms(prec ) = 0.35351E+01
  weight for this iteration     100.00

 Free energy of the ion-electron system (eV)
  ---------------------------------------------------
  alpha Z        PSCENC =       373.47427032
  Ewald energy   TEWEN  =     -5796.59994758
  -Hartree energ DENC   =     -4403.93969108
  -exchange      EXHF   =         0.00000000
  -V(xc)+E(xc)   XCENC  =       598.17184611
  PAW double counting   =      8458.53604555    -8298.72446309
  entropy T*S    EENTRO =        -0.00000000
  eigenvalues    EBANDS =     -1949.54677175
  atomic energy  EATOM  =     10673.54141234
  Solvation  Ediel_sol  =         0.00000000
  ---------------------------------------------------
  free energy    TOTEN  =      -345.08729918 eV

  energy without entropy =     -345.08729918  energy(sigma->0) =     -345.08729918


--------------------------------------------------------------------------------------------------------




--------------------------------------- Iteration      1(   6)  ---------------------------------------


    POTLOK:  cpu time    0.0115: real time    0.0147
    SETDIJ:  cpu time    0.0035: real time    0.0035
     EDDAV:  cpu time    1.5603: real time    1.5646
       DOS:  cpu time    0.0015: real time    0.0015
    CHARGE:  cpu time    0.0507: real time    0.0509
    MIXING:  cpu time    0.0008: real time    0.0008
    --------------------------------------------
      LOOP:  cpu time    1.6283: real time    1.6361

 eigenvalue-minimisations  :  2272
 total energy-change (2. order) : 0.1119692E+02  (-0.1625030E+01)
 number of electron     207.9999677 magnetization 
 augmentation part        7.9455582 magnetization 

 Broyden mixing:
  rms(total) = 0.17930E+01    rms(broyden)= 0.17930E+01
  rms(prec ) = 0.19118E+01
  weight for this iteration     100.00

 eigenvalues of (default mixing * dielectric matrix)
  average eigenvalue GAMMA=   2.0287
  2.0287

 Free energy of the ion-electron system (eV)
  ---------------------------------------------------
  alpha Z        PSCENC =       373.47427032
  Ewald energy   TEWEN  =     -5796.59994758
  -Hartree energ DENC   =     -4575.16612623
  -exchange      EXHF   =         0.00000000
  -V(xc)+E(xc)   XCENC  =       610.48442499
  PAW double counting   =     12528.40421845   -12371.61193674
  entropy T*S    EENTRO =        -0.00000000
  eigenvalues    EBANDS =     -1776.41668984
  atomic energy  EATOM  =     10673.54141234
  Solvation  Ediel_sol  =         0.00000000
  ---------------------------------------------------
  free energy    TOTEN  =      -333.89037428 eV

  energy without entropy =     -333.89037428  energy(sigma->0) =     -333.89037428


--------------------------------------------------------------------------------------------------------




--------------------------------------- Iteration      1(   7)  ---------------------------------------


    POTLOK:  cpu time    0.0113: real time    0.0201
    SETDIJ:  cpu time    0.0035: real time    0.0035
     EDDAV:  cpu time    1.6132: real time    1.6182
       DOS:  cpu time    0.0014: real time    0.0014
    CHARGE:  cpu time    0.0513: real time    0.0514
    MIXING:  cpu time    0.0007: real time    0.0007
    --------------------------------------------
      LOOP:  cpu time    1.6815: real time    1.6954

 eigenvalue-minimisations  :  2328
 total energy-change (2. order) : 0.2126446E+01  (-0.1077016E+01)
 number of electron     207.9999689 magnetization 
 augmentation part        7.6207341 magnetization 

 Broyden mixing:
  rms(total) = 0.48748E+00    rms(broyden)= 0.48738E+00
  rms(prec ) = 0.51049E+00
  weight for this iteration     100.00

 eigenvalues of (default mixing * dielectric matrix)
  average eigenvalue GAMMA=   2.0310
  1.6594  2.4026

 Free energy of the ion-electron system (eV)
  ---------------------------------------------------
  alpha Z        PSCENC =       373.47427032
  Ewald energy   TEWEN  =     -5796.59994758
  -Hartree energ DENC   =     -4710.34882799
  -exchange      EXHF   =         0.00000000
  -V(xc)+E(xc)   XCENC  =       621.17365567
  PAW double counting   =     18598.01802603   -18443.96293388
  entropy T*S    EENTRO =        -0.00000000
  eigenvalues    EBANDS =     -1647.05958357
  atomic energy  EATOM  =     10673.54141234
  Solvation  Ediel_sol  =         0.00000000
  ---------------------------------------------------
  free energy    TOTEN  =      -331.76392866 eV

  energy without entropy =     -331.76392866  energy(sigma->0) =     -331.76392866


--------------------------------------------------------------------------------------------------------




--------------------------------------- Iteration      1(   8)  ---------------------------------------


    POTLOK:  cpu time    0.0126: real time    0.0146
    SETDIJ:  cpu time    0.0035: real time    0.0035
     EDDAV:  cpu time    1.5178: real time    1.5218
       DOS:  cpu time    0.0015: real time    0.0015
    CHARGE:  cpu time    0.0524: real time    0.0526
    MIXING:  cpu time    0.0007: real time    0.0007
    --------------------------------------------
      LOOP:  cpu time    1.5885: real time    1.5948

 eigenvalue-minimisations  :  2176
 total energy-change (2. order) :-0.1361533E-01  (-0.8545651E-01)
 number of electron     207.9999685 magnetization 
 augmentation part        7.6957971 magnetization 

 Broyden mixing:
  rms(total) = 0.61314E-01    rms(broyden)= 0.61281E-01
  rms(prec ) = 0.71802E-01
  weight for this iteration     100.00

 eigenvalues of (default mixing * dielectric matrix)
  average eigenvalue GAMMA=   1.7611
  2.4444  1.3642  1.4749

 Free energy of the ion-electron system (eV)
  ---------------------------------------------------
  alpha Z        PSCENC =       373.47427032
  Ewald energy   TEWEN  =     -5796.59994758
  -Hartree energ DENC   =     -4686.87998646
  -exchange      EXHF   =         0.00000000
  -V(xc)+E(xc)   XCENC  =       620.10437640
  PAW double counting   =     20517.31813644   -20363.21540430
  entropy T*S    EENTRO =        -0.00000000
  eigenvalues    EBANDS =     -1669.52040114
  atomic energy  EATOM  =     10673.54141234
  Solvation  Ediel_sol  =         0.00000000
  ---------------------------------------------------
  free energy    TOTEN  =      -331.77754398 eV

  energy without entropy =     -331.77754398  energy(sigma->0) =     -331.77754398


--------------------------------------------------------------------------------------------------------




--------------------------------------- Iteration      1(   9)  ---------------------------------------


    POTLOK:  cpu time    0.0143: real time    0.0145
    SETDIJ:  cpu time    0.0035: real time    0.0035
     EDDAV:  cpu time    1.5423: real time    1.5466
       DOS:  cpu time    0.0014: real time    0.0014
    CHARGE:  cpu time    0.0504: real time    0.0505
    MIXING:  cpu time    0.0007: real time    0.0007
    --------------------------------------------
      LOOP:  cpu time    1.6126: real time    1.6172

 eigenvalue-minimisations  :  2224
 total energy-change (2. order) :-0.2768037E-03  (-0.5065595E-02)
 number of electron     207.9999685 magnetization 
 augmentation part        7.6851621 magnetization 

 Broyden mixing:
  rms(total) = 0.35166E-01    rms(broyden)= 0.35157E-01
  rms(prec ) = 0.38010E-01
  weight for this iteration     100.00

 eigenvalues of (default mixing * dielectric matrix)
  average eigenvalue GAMMA=   1.7331
  2.4156  2.0874  1.2147  1.2147

 Free energy of the ion-electron system (eV)
  ---------------------------------------------------
  alpha Z        PSCENC =       373.47427032
  Ewald energy   TEWEN  =     -5796.59994758
  -Hartree energ DENC   =     -4693.68580521
  -exchange      EXHF   =         0.00000000
  -V(xc)+E(xc)   XCENC  =       620.54203475
  PAW double counting   =     20651.88903361   -20497.87156810
  entropy T*S    EENTRO =        -0.00000000
  eigenvalues    EBANDS =     -1663.06725093
  atomic energy  EATOM  =     10673.54141234
  Solvation  Ediel_sol  =         0.00000000
  ---------------------------------------------------
  free energy    TOTEN  =      -331.77782079 eV

  energy without entropy =     -331.77782079  energy(sigma->0) =     -331.77782079


--------------------------------------------------------------------------------------------------------




--------------------------------------- Iteration      1(  10)  ---------------------------------------


    POTLOK:  cpu time    0.0113: real time    0.0146
    SETDIJ:  cpu time    0.0034: real time    0.0034
     EDDAV:  cpu time    1.6353: real time    1.6400
       DOS:  cpu time    0.0015: real time    0.0015
    CHARGE:  cpu time    0.0505: real time    0.0507
    MIXING:  cpu time    0.0007: real time    0.0007
    --------------------------------------------
      LOOP:  cpu time    1.7028: real time    1.7109

 eigenvalue-minimisations  :  2384
 total energy-change (2. order) :-0.1413548E-02  (-0.5648771E-03)
 number of electron     207.9999685 magnetization 
 augmentation part        7.6885091 magnetization 

 Broyden mixing:
  rms(total) = 0.98082E-02    rms(broyden)= 0.98053E-02
  rms(prec ) = 0.11184E-01
  weight for this iteration     100.00

 eigenvalues of (default mixing * dielectric matrix)
  average eigenvalue GAMMA=   1.6811
  2.5513  2.1230  1.1181  1.1181  1.4948

 Free energy of the ion-electron system (eV)
  ---------------------------------------------------
  alpha Z        PSCENC =       373.47427032
  Ewald energy   TEWEN  =     -5796.59994758
  -Hartree energ DENC   =     -4693.08408212
  -exchange      EXHF   =         0.00000000
  -V(xc)+E(xc)   XCENC  =       620.48356373
  PAW double counting   =     20686.31772540   -20532.28609717
  entropy T*S    EENTRO =        -0.00000000
  eigenvalues    EBANDS =     -1663.62607926
  atomic energy  EATOM  =     10673.54141234
  Solvation  Ediel_sol  =         0.00000000
  ---------------------------------------------------
  free energy    TOTEN  =      -331.77923433 eV

  energy without entropy =     -331.77923433  energy(sigma->0) =     -331.77923433


--------------------------------------------------------------------------------------------------------




--------------------------------------- Iteration      1(  11)  ---------------------------------------


    POTLOK:  cpu time    0.0114: real time    0.0146
    SETDIJ:  cpu time    0.0035: real time    0.0035
     EDDAV:  cpu time    1.5898: real time    1.5939
       DOS:  cpu time    0.0015: real time    0.0015
    CHARGE:  cpu time    0.0523: real time    0.0525
    MIXING:  cpu time    0.0008: real time    0.0008
    --------------------------------------------
      LOOP:  cpu time    1.6592: real time    1.6668

 eigenvalue-minimisations  :  2320
 total energy-change (2. order) :-0.3803568E-03  (-0.8972949E-04)
 number of electron     207.9999685 magnetization 
 augmentation part        7.6865448 magnetization 

 Broyden mixing:
  rms(total) = 0.30674E-02    rms(broyden)= 0.30665E-02
  rms(prec ) = 0.37431E-02
  weight for this iteration     100.00

 eigenvalues of (default mixing * dielectric matrix)
  average eigenvalue GAMMA=   1.5754
  2.5444  2.2477  1.4536  1.2494  0.9786  0.9786

 Free energy of the ion-electron system (eV)
  ---------------------------------------------------
  alpha Z        PSCENC =       373.47427032
  Ewald energy   TEWEN  =     -5796.59994758
  -Hartree energ DENC   =     -4693.82677823
  -exchange      EXHF   =         0.00000000
  -V(xc)+E(xc)   XCENC  =       620.54326168
  PAW double counting   =     20709.36135155   -20555.34293004
  entropy T*S    EENTRO =        -0.00000000
  eigenvalues    EBANDS =     -1662.93025473
  atomic energy  EATOM  =     10673.54141234
  Solvation  Ediel_sol  =         0.00000000
  ---------------------------------------------------
  free energy    TOTEN  =      -331.77961469 eV

  energy without entropy =     -331.77961469  energy(sigma->0) =     -331.77961469


--------------------------------------------------------------------------------------------------------




--------------------------------------- Iteration      1(  12)  ---------------------------------------


    POTLOK:  cpu time    0.0112: real time    0.0145
    SETDIJ:  cpu time    0.0034: real time    0.0035
     EDDAV:  cpu time    1.4693: real time    1.4751
       DOS:  cpu time    0.0015: real time    0.0015
    CHARGE:  cpu time    0.0508: real time    0.0509
    MIXING:  cpu time    0.0008: real time    0.0008
    --------------------------------------------
      LOOP:  cpu time    1.5371: real time    1.5462

 eigenvalue-minimisations  :  2048
 total energy-change (2. order) :-0.5062729E-04  (-0.5510992E-05)
 number of electron     207.9999685 magnetization 
 augmentation part        7.6865828 magnetization 

 Broyden mixing:
  rms(total) = 0.19925E-02    rms(broyden)= 0.19924E-02
  rms(prec ) = 0.22874E-02
  weight for this iteration     100.00

 eigenvalues of (default mixing * dielectric matrix)
  average eigenvalue GAMMA=   1.6809
  2.5536  2.3203  2.3203  1.5047  1.0007  1.0335  1.0335

 Free energy of the ion-electron system (eV)
  ---------------------------------------------------
  alpha Z        PSCENC =       373.47427032
  Ewald energy   TEWEN  =     -5796.59994758
  -Hartree energ DENC   =     -4693.86016874
  -exchange      EXHF   =         0.00000000
  -V(xc)+E(xc)   XCENC  =       620.54961887
  PAW double counting   =     20706.06771733   -20552.04852093
  entropy T*S    EENTRO =        -0.00000000
  eigenvalues    EBANDS =     -1662.90404693
  atomic energy  EATOM  =     10673.54141234
  Solvation  Ediel_sol  =         0.00000000
  ---------------------------------------------------
  free energy    TOTEN  =      -331.77966532 eV

  energy without entropy =     -331.77966532  energy(sigma->0) =     -331.77966532


--------------------------------------------------------------------------------------------------------




--------------------------------------- Iteration      1(  13)  ---------------------------------------


    POTLOK:  cpu time    0.0126: real time    0.0147
    SETDIJ:  cpu time    0.0035: real time    0.0035
     EDDAV:  cpu time    1.4253: real time    1.4291
       DOS:  cpu time    0.0014: real time    0.0014
    CHARGE:  cpu time    0.0503: real time    0.0504
    MIXING:  cpu time    0.0008: real time    0.0008
    --------------------------------------------
      LOOP:  cpu time    1.4939: real time    1.4999

 eigenvalue-minimisations  :  1992
 total energy-change (2. order) :-0.2584502E-04  (-0.5666382E-05)
 number of electron     207.9999685 magnetization 
 augmentation part        7.6862560 magnetization 

 Broyden mixing:
  rms(total) = 0.53428E-03    rms(broyden)= 0.53391E-03
  rms(prec ) = 0.65339E-03
  weight for this iteration     100.00

 eigenvalues of (default mixing * dielectric matrix)
  average eigenvalue GAMMA=   1.6331
  2.5606  2.5606  2.1379  1.4792  1.3081  0.9496  1.0345  1.0345

 Free energy of the ion-electron system (eV)
  ---------------------------------------------------
  alpha Z        PSCENC =       373.47427032
  Ewald energy   TEWEN  =     -5796.59994758
  -Hartree energ DENC   =     -4693.93100342
  -exchange      EXHF   =         0.00000000
  -V(xc)+E(xc)   XCENC  =       620.56165288
  PAW double counting   =     20704.12492563   -20550.10596365
  entropy T*S    EENTRO =        -0.00000000
  eigenvalues    EBANDS =     -1662.84503769
  atomic energy  EATOM  =     10673.54141234
  Solvation  Ediel_sol  =         0.00000000
  ---------------------------------------------------
  free energy    TOTEN  =      -331.77969116 eV

  energy without entropy =     -331.77969116  energy(sigma->0) =     -331.77969116


--------------------------------------------------------------------------------------------------------




--------------------------------------- Iteration      1(  14)  ---------------------------------------


    POTLOK:  cpu time    0.0143: real time    0.0144
    SETDIJ:  cpu time    0.0035: real time    0.0035
     EDDAV:  cpu time    1.0279: real time    1.0308
       DOS:  cpu time    0.0012: real time    0.0012
    --------------------------------------------
      LOOP:  cpu time    1.0468: real time    1.0499

 eigenvalue-minimisations  :  1216
 total energy-change (2. order) :-0.1947377E-05  (-0.6127836E-06)
 number of electron     207.9999685 magnetization 
 augmentation part        7.6862560 magnetization 

 Free energy of the ion-electron system (eV)
  ---------------------------------------------------
  alpha Z        PSCENC =       373.47427032
  Ewald energy   TEWEN  =     -5796.59994758
  -Hartree energ DENC   =     -4693.96814845
  -exchange      EXHF   =         0.00000000
  -V(xc)+E(xc)   XCENC  =       620.56290991
  PAW double counting   =     20703.68895909   -20549.66950479
  entropy T*S    EENTRO =        -0.00000000
  eigenvalues    EBANDS =     -1662.80964396
  atomic energy  EATOM  =     10673.54141234
  Solvation  Ediel_sol  =         0.00000000
  ---------------------------------------------------
  free energy    TOTEN  =      -331.77969311 eV

  energy without entropy =     -331.77969311  energy(sigma->0) =     -331.77969311


--------------------------------------------------------------------------------------------------------




 average (electrostatic) potential at core
  the test charge radii are     1.0714  0.7089
  (the norm of the test charge is              1.0000)
       1 -39.4404       2 -39.4404       3 -39.4404       4 -39.4404       5 -69.1100
       6 -68.5969       7 -68.5982       8 -69.1097       9 -69.3111      10 -69.1100
      11 -68.5969      12 -68.5982      13 -69.1097      14 -69.3111      15 -69.1100
      16 -68.5969      17 -68.5982      18 -69.1097      19 -69.3111      20 -69.1100
      21 -68.5969      22 -68.5982      23 -69.1097      24 -69.3111      25 -69.3097
      26 -69.1082      27 -68.5958      28 -68.5958      29 -69.1082      30 -69.3097
      31 -69.1082      32 -68.5958      33 -68.5958      34 -69.1082      35 -69.3097
      36 -69.1082      37 -68.5958      38 -68.5958      39 -69.1082      40 -69.3097
      41 -69.1082      42 -68.5958      43 -68.5958      44 -69.1082
 
 
 
 E-fermi :   0.3569     XC(G=0):  -8.9252     alpha+bet : -7.8450


 k-point     1 :       0.0000    0.0000    0.0000
  band No.  band energies     occupation 
      1     -23.4580      2.00000
      2     -23.3993      2.00000
      3     -23.3989      2.00000
      4     -23.3843      2.00000
      5     -23.3779      2.00000
      6     -23.3774      2.00000
      7     -23.3658      2.00000
      8     -23.3433      2.00000
      9     -17.6683      2.00000
     10     -17.5823      2.00000
     11     -17.5746      2.00000
     12     -17.5737      2.00000
     13     -17.5429      2.00000
     14     -17.5367      2.00000
     15     -17.5360      2.00000
     16     -17.4586      2.00000
     17     -17.4582      2.00000
     18     -17.4341      2.00000
     19     -17.4337      2.00000
     20     -17.4279      2.00000
     21     -17.4087      2.00000
     22     -17.4083      2.00000
     23     -17.3840      2.00000
     24     -17.3836      2.00000
     25     -10.9558      2.00000
     26     -10.7863      2.00000
     27     -10.7853      2.00000
     28     -10.7616      2.00000
     29     -10.7610      2.00000
     30     -10.7602      2.00000
     31     -10.7600      2.00000
     32     -10.6815      2.00000
     33     -10.6117      2.00000
     34     -10.6108      2.00000
     35     -10.5917      2.00000
     36     -10.5706      2.00000
     37     -10.5697      2.00000
     38     -10.5400      2.00000
     39     -10.5389      2.00000
     40     -10.4569      2.00000
     41      -7.2969      2.00000
     42      -6.5714      2.00000
     43      -6.5713      2.00000
     44      -6.5488      2.00000
     45      -6.5480      2.00000
     46      -6.4576      2.00000
     47      -6.4568      2.00000
     48      -6.1583      2.00000
     49      -6.1572      2.00000
     50      -6.0754      2.00000
     51      -6.0743      2.00000
     52      -5.9083      2.00000
     53      -5.7197      2.00000
     54      -5.7193      2.00000
     55      -5.6771      2.00000
     56      -5.6002      2.00000
     57      -3.4566      2.00000
     58      -3.2133      2.00000
     59      -3.2118      2.00000
     60      -2.9029      2.00000
     61      -2.6865      2.00000
     62      -2.6396      2.00000
     63      -2.6374      2.00000
     64      -2.6355      2.00000
     65      -2.6336      2.00000
     66      -2.6054      2.00000
     67      -2.5632      2.00000
     68      -2.5602      2.00000
     69      -2.5421      2.00000
     70      -2.5393      2.00000
     71      -2.4789      2.00000
     72      -2.4787      2.00000
     73      -2.4265      2.00000
     74      -2.3926      2.00000
     75      -2.3916      2.00000
     76      -2.2773      2.00000
     77      -2.2768      2.00000
     78      -2.2326      2.00000
     79      -2.2321      2.00000
     80      -2.0485      2.00000
     81      -2.0478      2.00000
     82      -2.0387      2.00000
     83      -1.9093      2.00000
     84      -1.9089      2.00000
     85      -1.7177      2.00000
     86      -1.6721      2.00000
     87      -1.6260      2.00000
     88      -1.6160      2.00000
     89      -1.6115      2.00000
     90      -1.6093      2.00000
     91      -1.5991      2.00000
     92      -1.5980      2.00000
     93      -1.5905      2.00000
     94      -1.1952      2.00000
     95      -1.1936      2.00000
     96      -1.0115      2.00000
     97      -1.0113      2.00000
     98      -0.8798      2.00000
     99      -0.8793      2.00000
    100      -0.7725      2.00000
    101      -0.6950      2.00000
    102      -0.6942      2.00000
    103      -0.6424      2.00000
    104      -0.6421      2.00000
    105       4.3026      0.00000
    106       4.3049      0.00000
    107       4.3414      0.00000
    108       4.3435      0.00000
    109       4.3568      0.00000
    110       4.4532      0.00000
    111       4.4549      0.00000
    112       4.4919      0.00000
    113       4.4935      0.00000
    114       4.8090      0.00000
    115       4.8109      0.00000
    116       4.9888      0.00000
    117       4.9985      0.00000
    118       5.1610      0.00000
    119       5.1641      0.00000
    120       5.6030      0.00000
    121       7.6839      0.00000
    122       7.7618      0.00000
    123       7.9371      0.00000
    124       7.9381      0.00000
    125       8.7623      0.00000
    126       8.8213      0.00000
    127       8.8241      0.00000
    128       8.9581      0.00000

 k-point     2 :       0.5000    0.0000    0.0000
  band No.  band energies     occupation 
      1     -23.4184      2.00000
      2     -23.4181      2.00000
      3     -23.3911      2.00000
      4     -23.3908      2.00000
      5     -23.3816      2.00000
      6     -23.3814      2.00000
      7     -23.3605      2.00000
      8     -23.3604      2.00000
      9     -17.6184      2.00000
     10     -17.6180      2.00000
     11     -17.6002      2.00000
     12     -17.5994      2.00000
     13     -17.5840      2.00000
     14     -17.5838      2.00000
     15     -17.4878      2.00000
     16     -17.4875      2.00000
     17     -17.4464      2.00000
     18     -17.4458      2.00000
     19     -17.3984      2.00000
     20     -17.3977      2.00000
     21     -17.3963      2.00000
     22     -17.3957      2.00000
     23     -17.3905      2.00000
     24     -17.3898      2.00000
     25     -10.7916      2.00000
     26     -10.7916      2.00000
     27     -10.7730      2.00000
     28     -10.7723      2.00000
     29     -10.7646      2.00000
     30     -10.7643      2.00000
     31     -10.6630      2.00000
     32     -10.6609      2.00000
     33     -10.6601      2.00000
     34     -10.6594      2.00000
     35     -10.5687      2.00000
     36     -10.5675      2.00000
     37     -10.5548      2.00000
     38     -10.5542      2.00000
     39     -10.5521      2.00000
     40     -10.5506      2.00000
     41      -6.9026      2.00000
     42      -6.9024      2.00000
     43      -6.5093      2.00000
     44      -6.5086      2.00000
     45      -6.3957      2.00000
     46      -6.3929      2.00000
     47      -6.3098      2.00000
     48      -6.3044      2.00000
     49      -6.1741      2.00000
     50      -6.1700      2.00000
     51      -6.1149      2.00000
     52      -6.1140      2.00000
     53      -5.7407      2.00000
     54      -5.7387      2.00000
     55      -5.6164      2.00000
     56      -5.6163      2.00000
     57      -3.7779      2.00000
     58      -3.7774      2.00000
     59      -3.0033      2.00000
     60      -2.9991      2.00000
     61      -2.8801      2.00000
     62      -2.8791      2.00000
     63      -2.8333      2.00000
     64      -2.8264      2.00000
     65      -2.7167      2.00000
     66      -2.7167      2.00000
     67      -2.5621      2.00000
     68      -2.5584      2.00000
     69      -2.4753      2.00000
     70      -2.4753      2.00000
     71      -2.2715      2.00000
     72      -2.2697      2.00000
     73      -2.2494      2.00000
     74      -2.2455      2.00000
     75      -2.2069      2.00000
     76      -2.2058      2.00000
     77      -2.1577      2.00000
     78      -2.1576      2.00000
     79      -2.1053      2.00000
     80      -2.0986      2.00000
     81      -2.0711      2.00000
     82      -2.0671      2.00000
     83      -1.8272      2.00000
     84      -1.8268      2.00000
     85      -1.7980      2.00000
     86      -1.7941      2.00000
     87      -1.6501      2.00000
     88      -1.6501      2.00000
     89      -1.5794      2.00000
     90      -1.5788      2.00000
     91      -1.4483      2.00000
     92      -1.4482      2.00000
     93      -1.2069      2.00000
     94      -1.2069      2.00000
     95      -1.0080      2.00000
     96      -1.0075      2.00000
     97      -0.9197      2.00000
     98      -0.9182      2.00000
     99      -0.8954      2.00000
    100      -0.8933      2.00000
    101      -0.8740      2.00000
    102      -0.8709      2.00000
    103      -0.6656      2.00000
    104      -0.6639      2.00000
    105       4.2194      0.00000
    106       4.2196      0.00000
    107       4.3124      0.00000
    108       4.3140      0.00000
    109       4.3234      0.00000
    110       4.3248      0.00000
    111       4.5012      0.00000
    112       4.5013      0.00000
    113       4.7028      0.00000
    114       4.7038      0.00000
    115       4.9451      0.00000
    116       4.9478      0.00000
    117       4.9800      0.00000
    118       4.9883      0.00000
    119       5.3450      0.00000
    120       5.3485      0.00000
    121       8.2405      0.00000
    122       8.2557      0.00000
    123       8.3427      0.00000
    124       8.3488      0.00000
    125       8.8980      0.00000
    126       8.8996      0.00000
    127       9.2197      0.00000
    128       9.2443      0.00000

 k-point     3 :       0.0000    0.5000    0.0000
  band No.  band energies     occupation 
      1     -23.4183      2.00000
      2     -23.4183      2.00000
      3     -23.3911      2.00000
      4     -23.3911      2.00000
      5     -23.3815      2.00000
      6     -23.3815      2.00000
      7     -23.3602      2.00000
      8     -23.3602      2.00000
      9     -17.6196      2.00000
     10     -17.6196      2.00000
     11     -17.5997      2.00000
     12     -17.5997      2.00000
     13     -17.5821      2.00000
     14     -17.5821      2.00000
     15     -17.4870      2.00000
     16     -17.4870      2.00000
     17     -17.4464      2.00000
     18     -17.4464      2.00000
     19     -17.3982      2.00000
     20     -17.3982      2.00000
     21     -17.3964      2.00000
     22     -17.3964      2.00000
     23     -17.3903      2.00000
     24     -17.3903      2.00000
     25     -10.7925      2.00000
     26     -10.7925      2.00000
     27     -10.7736      2.00000
     28     -10.7736      2.00000
     29     -10.7644      2.00000
     30     -10.7644      2.00000
     31     -10.6607      2.00000
     32     -10.6607      2.00000
     33     -10.6583      2.00000
     34     -10.6583      2.00000
     35     -10.5674      2.00000
     36     -10.5674      2.00000
     37     -10.5555      2.00000
     38     -10.5555      2.00000
     39     -10.5522      2.00000
     40     -10.5522      2.00000
     41      -6.9031      2.00000
     42      -6.9031      2.00000
     43      -6.5082      2.00000
     44      -6.5082      2.00000
     45      -6.3947      2.00000
     46      -6.3947      2.00000
     47      -6.3075      2.00000
     48      -6.3075      2.00000
     49      -6.1726      2.00000
     50      -6.1726      2.00000
     51      -6.1133      2.00000
     52      -6.1133      2.00000
     53      -5.7398      2.00000
     54      -5.7398      2.00000
     55      -5.6166      2.00000
     56      -5.6166      2.00000
     57      -3.7760      2.00000
     58      -3.7760      2.00000
     59      -2.9994      2.00000
     60      -2.9994      2.00000
     61      -2.8802      2.00000
     62      -2.8802      2.00000
     63      -2.8298      2.00000
     64      -2.8298      2.00000
     65      -2.7184      2.00000
     66      -2.7184      2.00000
     67      -2.5589      2.00000
     68      -2.5589      2.00000
     69      -2.4752      2.00000
     70      -2.4752      2.00000
     71      -2.2709      2.00000
     72      -2.2709      2.00000
     73      -2.2473      2.00000
     74      -2.2473      2.00000
     75      -2.2049      2.00000
     76      -2.2049      2.00000
     77      -2.1576      2.00000
     78      -2.1576      2.00000
     79      -2.1018      2.00000
     80      -2.1018      2.00000
     81      -2.0704      2.00000
     82      -2.0704      2.00000
     83      -1.8275      2.00000
     84      -1.8275      2.00000
     85      -1.7969      2.00000
     86      -1.7969      2.00000
     87      -1.6498      2.00000
     88      -1.6498      2.00000
     89      -1.5800      2.00000
     90      -1.5800      2.00000
     91      -1.4493      2.00000
     92      -1.4493      2.00000
     93      -1.2076      2.00000
     94      -1.2076      2.00000
     95      -1.0072      2.00000
     96      -1.0072      2.00000
     97      -0.9192      2.00000
     98      -0.9192      2.00000
     99      -0.8950      2.00000
    100      -0.8950      2.00000
    101      -0.8710      2.00000
    102      -0.8710      2.00000
    103      -0.6642      2.00000
    104      -0.6642      2.00000
    105       4.2172      0.00000
    106       4.2172      0.00000
    107       4.3151      0.00000
    108       4.3151      0.00000
    109       4.3256      0.00000
    110       4.3256      0.00000
    111       4.4996      0.00000
    112       4.4996      0.00000
    113       4.7040      0.00000
    114       4.7040      0.00000
    115       4.9458      0.00000
    116       4.9458      0.00000
    117       4.9833      0.00000
    118       4.9833      0.00000
    119       5.3484      0.00000
    120       5.3484      0.00000
    121       8.2499      0.00000
    122       8.2499      0.00000
    123       8.3471      0.00000
    124       8.3471      0.00000
    125       8.8975      0.00000
    126       8.8982      0.00000
    127       9.2025      0.00000
    128       9.2156      0.00000

 k-point     4 :       0.5000    0.5000    0.0000
  band No.  band energies     occupation 
      1     -23.3892      2.00000
      2     -23.3892      2.00000
      3     -23.3890      2.00000
      4     -23.3890      2.00000
      5     -23.3857      2.00000
      6     -23.3857      2.00000
      7     -23.3855      2.00000
      8     -23.3855      2.00000
      9     -17.6332      2.00000
     10     -17.6332      2.00000
     11     -17.6323      2.00000
     12     -17.6323      2.00000
     13     -17.5510      2.00000
     14     -17.5510      2.00000
     15     -17.5509      2.00000
     16     -17.5509      2.00000
     17     -17.4181      2.00000
     18     -17.4181      2.00000
     19     -17.4176      2.00000
     20     -17.4176      2.00000
     21     -17.3639      2.00000
     22     -17.3639      2.00000
     23     -17.3639      2.00000
     24     -17.3639      2.00000
     25     -10.7475      2.00000
     26     -10.7475      2.00000
     27     -10.7473      2.00000
     28     -10.7473      2.00000
     29     -10.7116      2.00000
     30     -10.7116      2.00000
     31     -10.7114      2.00000
     32     -10.7114      2.00000
     33     -10.5996      2.00000
     34     -10.5996      2.00000
     35     -10.5981      2.00000
     36     -10.5981      2.00000
     37     -10.5843      2.00000
     38     -10.5843      2.00000
     39     -10.5835      2.00000
     40     -10.5835      2.00000
     41      -6.6968      2.00000
     42      -6.6968      2.00000
     43      -6.6965      2.00000
     44      -6.6965      2.00000
     45      -6.2317      2.00000
     46      -6.2317      2.00000
     47      -6.2297      2.00000
     48      -6.2297      2.00000
     49      -5.9941      2.00000
     50      -5.9941      2.00000
     51      -5.9940      2.00000
     52      -5.9940      2.00000
     53      -5.9354      2.00000
     54      -5.9354      2.00000
     55      -5.9342      2.00000
     56      -5.9342      2.00000
     57      -3.8248      2.00000
     58      -3.8248      2.00000
     59      -3.8248      2.00000
     60      -3.8248      2.00000
     61      -2.8693      2.00000
     62      -2.8693      2.00000
     63      -2.8644      2.00000
     64      -2.8644      2.00000
     65      -2.5178      2.00000
     66      -2.5178      2.00000
     67      -2.5153      2.00000
     68      -2.5153      2.00000
     69      -2.2629      2.00000
     70      -2.2629      2.00000
     71      -2.2628      2.00000
     72      -2.2628      2.00000
     73      -2.1572      2.00000
     74      -2.1572      2.00000
     75      -2.1550      2.00000
     76      -2.1550      2.00000
     77      -2.0264      2.00000
     78      -2.0264      2.00000
     79      -2.0261      2.00000
     80      -2.0261      2.00000
     81      -1.9035      2.00000
     82      -1.9035      2.00000
     83      -1.9002      2.00000
     84      -1.9002      2.00000
     85      -1.8833      2.00000
     86      -1.8833      2.00000
     87      -1.8827      2.00000
     88      -1.8827      2.00000
     89      -1.3564      2.00000
     90      -1.3564      2.00000
     91      -1.3550      2.00000
     92      -1.3550      2.00000
     93      -0.9819      2.00000
     94      -0.9819      2.00000
     95      -0.9805      2.00000
     96      -0.9805      2.00000
     97      -0.9273      2.00000
     98      -0.9273      2.00000
     99      -0.9257      2.00000
    100      -0.9257      2.00000
    101      -0.8976      2.00000
    102      -0.8976      2.00000
    103      -0.8963      2.00000
    104      -0.8963      2.00000
    105       3.9787      0.00000
    106       3.9787      0.00000
    107       3.9810      0.00000
    108       3.9810      0.00000
    109       4.7321      0.00000
    110       4.7321      0.00000
    111       4.7326      0.00000
    112       4.7326      0.00000
    113       4.8796      0.00000
    114       4.8796      0.00000
    115       4.8822      0.00000
    116       4.8822      0.00000
    117       4.9811      0.00000
    118       4.9811      0.00000
    119       4.9839      0.00000
    120       4.9839      0.00000
    121       8.8679      0.00000
    122       8.8679      0.00000
    123       8.8806      0.00000
    124       8.8806      0.00000
    125       9.0890      0.00000
    126       9.0895      0.00000
    127       9.1022      0.00000
    128       9.1024      0.00000

 k-point     5 :       0.0000    0.0000    0.5000
  band No.  band energies     occupation 
      1     -23.4404      2.00000
      2     -23.4404      2.00000
      3     -23.3830      2.00000
      4     -23.3830      2.00000
      5     -23.3705      2.00000
      6     -23.3705      2.00000
      7     -23.3586      2.00000
      8     -23.3586      2.00000
      9     -17.6471      2.00000
     10     -17.6471      2.00000
     11     -17.5623      2.00000
     12     -17.5623      2.00000
     13     -17.5370      2.00000
     14     -17.5370      2.00000
     15     -17.4751      2.00000
     16     -17.4751      2.00000
     17     -17.4492      2.00000
     18     -17.4492      2.00000
     19     -17.4489      2.00000
     20     -17.4489      2.00000
     21     -17.3935      2.00000
     22     -17.3935      2.00000
     23     -17.3931      2.00000
     24     -17.3931      2.00000
     25     -10.8858      2.00000
     26     -10.8858      2.00000
     27     -10.7745      2.00000
     28     -10.7745      2.00000
     29     -10.7735      2.00000
     30     -10.7735      2.00000
     31     -10.6800      2.00000
     32     -10.6800      2.00000
     33     -10.6512      2.00000
     34     -10.6512      2.00000
     35     -10.5547      2.00000
     36     -10.5547      2.00000
     37     -10.5537      2.00000
     38     -10.5537      2.00000
     39     -10.4978      2.00000
     40     -10.4978      2.00000
     41      -7.0744      2.00000
     42      -7.0744      2.00000
     43      -6.5068      2.00000
     44      -6.5068      2.00000
     45      -6.5060      2.00000
     46      -6.5060      2.00000
     47      -6.1136      2.00000
     48      -6.1136      2.00000
     49      -6.1126      2.00000
     50      -6.1126      2.00000
     51      -6.0888      2.00000
     52      -6.0888      2.00000
     53      -5.8844      2.00000
     54      -5.8844      2.00000
     55      -5.4643      2.00000
     56      -5.4643      2.00000
     57      -3.3896      2.00000
     58      -3.3896      2.00000
     59      -3.0219      2.00000
     60      -3.0219      2.00000
     61      -2.6044      2.00000
     62      -2.6044      2.00000
     63      -2.6036      2.00000
     64      -2.6036      2.00000
     65      -2.6011      2.00000
     66      -2.6011      2.00000
     67      -2.5696      2.00000
     68      -2.5696      2.00000
     69      -2.5669      2.00000
     70      -2.5669      2.00000
     71      -2.5482      2.00000
     72      -2.5482      2.00000
     73      -2.4641      2.00000
     74      -2.4641      2.00000
     75      -2.2893      2.00000
     76      -2.2893      2.00000
     77      -2.2890      2.00000
     78      -2.2890      2.00000
     79      -2.1523      2.00000
     80      -2.1523      2.00000
     81      -1.9773      2.00000
     82      -1.9773      2.00000
     83      -1.9770      2.00000
     84      -1.9770      2.00000
     85      -1.8704      2.00000
     86      -1.8704      2.00000
     87      -1.6126      2.00000
     88      -1.6126      2.00000
     89      -1.5925      2.00000
     90      -1.5925      2.00000
     91      -1.5146      2.00000
     92      -1.5146      2.00000
     93      -1.2593      2.00000
     94      -1.2593      2.00000
     95      -1.0367      2.00000
     96      -1.0367      2.00000
     97      -0.8422      2.00000
     98      -0.8422      2.00000
     99      -0.8416      2.00000
    100      -0.8416      2.00000
    101      -0.7576      2.00000
    102      -0.7576      2.00000
    103      -0.7575      2.00000
    104      -0.7575      2.00000
    105       4.3181      0.00000
    106       4.3181      0.00000
    107       4.3203      0.00000
    108       4.3203      0.00000
    109       4.4796      0.00000
    110       4.4796      0.00000
    111       4.4812      0.00000
    112       4.4812      0.00000
    113       4.4974      0.00000
    114       4.4974      0.00000
    115       4.9766      0.00000
    116       4.9766      0.00000
    117       5.0349      0.00000
    118       5.0349      0.00000
    119       5.4359      0.00000
    120       5.4359      0.00000
    121       7.8792      0.00000
    122       7.8792      0.00000
    123       7.9085      0.00000
    124       7.9085      0.00000
    125       8.5664      0.00000
    126       8.5664      0.00000
    127       9.0740      0.00000
    128       9.0929      0.00000

 k-point     6 :       0.5000    0.0000    0.5000
  band No.  band energies     occupation 
      1     -23.4112      2.00000
      2     -23.4112      2.00000
      3     -23.4057      2.00000
      4     -23.4057      2.00000
      5     -23.3682      2.00000
      6     -23.3682      2.00000
      7     -23.3660      2.00000
      8     -23.3660      2.00000
      9     -17.6249      2.00000
     10     -17.6249      2.00000
     11     -17.6052      2.00000
     12     -17.6052      2.00000
     13     -17.5437      2.00000
     14     -17.5437      2.00000
     15     -17.5240      2.00000
     16     -17.5240      2.00000
     17     -17.4460      2.00000
     18     -17.4460      2.00000
     19     -17.3960      2.00000
     20     -17.3960      2.00000
     21     -17.3910      2.00000
     22     -17.3910      2.00000
     23     -17.3888      2.00000
     24     -17.3888      2.00000
     25     -10.7880      2.00000
     26     -10.7880      2.00000
     27     -10.7724      2.00000
     28     -10.7724      2.00000
     29     -10.7567      2.00000
     30     -10.7567      2.00000
     31     -10.6707      2.00000
     32     -10.6707      2.00000
     33     -10.6544      2.00000
     34     -10.6544      2.00000
     35     -10.6051      2.00000
     36     -10.6051      2.00000
     37     -10.5547      2.00000
     38     -10.5547      2.00000
     39     -10.5219      2.00000
     40     -10.5219      2.00000
     41      -6.7363      2.00000
     42      -6.7363      2.00000
     43      -6.7078      2.00000
     44      -6.7078      2.00000
     45      -6.5074      2.00000
     46      -6.5074      2.00000
     47      -6.3013      2.00000
     48      -6.3013      2.00000
     49      -6.1163      2.00000
     50      -6.1163      2.00000
     51      -5.9146      2.00000
     52      -5.9146      2.00000
     53      -5.9097      2.00000
     54      -5.9097      2.00000
     55      -5.5581      2.00000
     56      -5.5581      2.00000
     57      -3.7661      2.00000
     58      -3.7661      2.00000
     59      -2.9799      2.00000
     60      -2.9799      2.00000
     61      -2.8597      2.00000
     62      -2.8597      2.00000
     63      -2.8499      2.00000
     64      -2.8499      2.00000
     65      -2.7320      2.00000
     66      -2.7320      2.00000
     67      -2.5630      2.00000
     68      -2.5630      2.00000
     69      -2.4728      2.00000
     70      -2.4728      2.00000
     71      -2.3387      2.00000
     72      -2.3387      2.00000
     73      -2.2930      2.00000
     74      -2.2930      2.00000
     75      -2.1512      2.00000
     76      -2.1512      2.00000
     77      -2.1162      2.00000
     78      -2.1162      2.00000
     79      -2.0890      2.00000
     80      -2.0890      2.00000
     81      -2.0531      2.00000
     82      -2.0531      2.00000
     83      -1.8627      2.00000
     84      -1.8627      2.00000
     85      -1.7723      2.00000
     86      -1.7723      2.00000
     87      -1.6652      2.00000
     88      -1.6652      2.00000
     89      -1.6538      2.00000
     90      -1.6538      2.00000
     91      -1.2842      2.00000
     92      -1.2842      2.00000
     93      -1.2425      2.00000
     94      -1.2425      2.00000
     95      -1.2150      2.00000
     96      -1.2150      2.00000
     97      -0.8215      2.00000
     98      -0.8215      2.00000
     99      -0.8096      2.00000
    100      -0.8096      2.00000
    101      -0.7900      2.00000
    102      -0.7900      2.00000
    103      -0.7836      2.00000
    104      -0.7836      2.00000
    105       4.2168      0.00000
    106       4.2168      0.00000
    107       4.3048      0.00000
    108       4.3048      0.00000
    109       4.3371      0.00000
    110       4.3371      0.00000
    111       4.5047      0.00000
    112       4.5047      0.00000
    113       4.7114      0.00000
    114       4.7114      0.00000
    115       4.8482      0.00000
    116       4.8482      0.00000
    117       5.1226      0.00000
    118       5.1226      0.00000
    119       5.2964      0.00000
    120       5.2964      0.00000
    121       8.2428      0.00000
    122       8.2428      0.00000
    123       8.4903      0.00000
    124       8.4903      0.00000
    125       8.8309      0.00000
    126       8.8311      0.00000
    127       9.0148      0.00000
    128       9.0181      0.00000

 k-point     7 :       0.0000    0.5000    0.5000
  band No.  band energies     occupation 
      1     -23.4110      2.00000
      2     -23.4110      2.00000
      3     -23.4061      2.00000
      4     -23.4061      2.00000
      5     -23.3685      2.00000
      6     -23.3685      2.00000
      7     -23.3655      2.00000
      8     -23.3655      2.00000
      9     -17.6262      2.00000
     10     -17.6262      2.00000
     11     -17.6044      2.00000
     12     -17.6044      2.00000
     13     -17.5420      2.00000
     14     -17.5420      2.00000
     15     -17.5243      2.00000
     16     -17.5243      2.00000
     17     -17.4464      2.00000
     18     -17.4464      2.00000
     19     -17.3964      2.00000
     20     -17.3964      2.00000
     21     -17.3908      2.00000
     22     -17.3908      2.00000
     23     -17.3891      2.00000
     24     -17.3891      2.00000
     25     -10.7880      2.00000
     26     -10.7880      2.00000
     27     -10.7735      2.00000
     28     -10.7735      2.00000
     29     -10.7578      2.00000
     30     -10.7578      2.00000
     31     -10.6692      2.00000
     32     -10.6692      2.00000
     33     -10.6533      2.00000
     34     -10.6533      2.00000
     35     -10.6046      2.00000
     36     -10.6046      2.00000
     37     -10.5557      2.00000
     38     -10.5557      2.00000
     39     -10.5223      2.00000
     40     -10.5223      2.00000
     41      -6.7376      2.00000
     42      -6.7376      2.00000
     43      -6.7077      2.00000
     44      -6.7077      2.00000
     45      -6.5066      2.00000
     46      -6.5066      2.00000
     47      -6.3013      2.00000
     48      -6.3013      2.00000
     49      -6.1152      2.00000
     50      -6.1152      2.00000
     51      -5.9142      2.00000
     52      -5.9142      2.00000
     53      -5.9115      2.00000
     54      -5.9115      2.00000
     55      -5.5578      2.00000
     56      -5.5578      2.00000
     57      -3.7645      2.00000
     58      -3.7645      2.00000
     59      -2.9781      2.00000
     60      -2.9781      2.00000
     61      -2.8602      2.00000
     62      -2.8602      2.00000
     63      -2.8498      2.00000
     64      -2.8498      2.00000
     65      -2.7337      2.00000
     66      -2.7337      2.00000
     67      -2.5616      2.00000
     68      -2.5616      2.00000
     69      -2.4726      2.00000
     70      -2.4726      2.00000
     71      -2.3379      2.00000
     72      -2.3379      2.00000
     73      -2.2933      2.00000
     74      -2.2933      2.00000
     75      -2.1514      2.00000
     76      -2.1514      2.00000
     77      -2.1163      2.00000
     78      -2.1163      2.00000
     79      -2.0883      2.00000
     80      -2.0883      2.00000
     81      -2.0543      2.00000
     82      -2.0543      2.00000
     83      -1.8628      2.00000
     84      -1.8628      2.00000
     85      -1.7735      2.00000
     86      -1.7735      2.00000
     87      -1.6665      2.00000
     88      -1.6665      2.00000
     89      -1.6535      2.00000
     90      -1.6535      2.00000
     91      -1.2844      2.00000
     92      -1.2844      2.00000
     93      -1.2416      2.00000
     94      -1.2416      2.00000
     95      -1.2165      2.00000
     96      -1.2165      2.00000
     97      -0.8201      2.00000
     98      -0.8201      2.00000
     99      -0.8102      2.00000
    100      -0.8102      2.00000
    101      -0.7892      2.00000
    102      -0.7892      2.00000
    103      -0.7840      2.00000
    104      -0.7840      2.00000
    105       4.2144      0.00000
    106       4.2144      0.00000
    107       4.3067      0.00000
    108       4.3067      0.00000
    109       4.3387      0.00000
    110       4.3387      0.00000
    111       4.5031      0.00000
    112       4.5031      0.00000
    113       4.7124      0.00000
    114       4.7124      0.00000
    115       4.8471      0.00000
    116       4.8471      0.00000
    117       5.1211      0.00000
    118       5.1211      0.00000
    119       5.2987      0.00000
    120       5.2987      0.00000
    121       8.2450      0.00000
    122       8.2450      0.00000
    123       8.4919      0.00000
    124       8.4919      0.00000
    125       8.8308      0.00000
    126       8.8310      0.00000
    127       9.0101      0.00000
    128       9.0120      0.00000

 k-point     8 :       0.5000    0.5000    0.5000
  band No.  band energies     occupation 
      1     -23.3888      2.00000
      2     -23.3888      2.00000
      3     -23.3883      2.00000
      4     -23.3883      2.00000
      5     -23.3864      2.00000
      6     -23.3864      2.00000
      7     -23.3860      2.00000
      8     -23.3860      2.00000
      9     -17.6200      2.00000
     10     -17.6200      2.00000
     11     -17.6196      2.00000
     12     -17.6196      2.00000
     13     -17.5706      2.00000
     14     -17.5706      2.00000
     15     -17.5696      2.00000
     16     -17.5696      2.00000
     17     -17.4115      2.00000
     18     -17.4115      2.00000
     19     -17.4106      2.00000
     20     -17.4106      2.00000
     21     -17.3645      2.00000
     22     -17.3645      2.00000
     23     -17.3644      2.00000
     24     -17.3644      2.00000
     25     -10.7641      2.00000
     26     -10.7641      2.00000
     27     -10.7641      2.00000
     28     -10.7641      2.00000
     29     -10.6845      2.00000
     30     -10.6845      2.00000
     31     -10.6842      2.00000
     32     -10.6842      2.00000
     33     -10.6102      2.00000
     34     -10.6102      2.00000
     35     -10.6093      2.00000
     36     -10.6093      2.00000
     37     -10.5841      2.00000
     38     -10.5841      2.00000
     39     -10.5828      2.00000
     40     -10.5828      2.00000
     41      -6.6654      2.00000
     42      -6.6654      2.00000
     43      -6.6637      2.00000
     44      -6.6637      2.00000
     45      -6.2971      2.00000
     46      -6.2971      2.00000
     47      -6.2936      2.00000
     48      -6.2936      2.00000
     49      -6.0286      2.00000
     50      -6.0286      2.00000
     51      -6.0256      2.00000
     52      -6.0256      2.00000
     53      -5.8767      2.00000
     54      -5.8767      2.00000
     55      -5.8725      2.00000
     56      -5.8725      2.00000
     57      -3.7996      2.00000
     58      -3.7996      2.00000
     59      -3.7990      2.00000
     60      -3.7990      2.00000
     61      -2.8901      2.00000
     62      -2.8901      2.00000
     63      -2.8850      2.00000
     64      -2.8850      2.00000
     65      -2.5273      2.00000
     66      -2.5273      2.00000
     67      -2.5251      2.00000
     68      -2.5251      2.00000
     69      -2.2001      2.00000
     70      -2.2001      2.00000
     71      -2.2000      2.00000
     72      -2.2000      2.00000
     73      -2.1967      2.00000
     74      -2.1967      2.00000
     75      -2.1945      2.00000
     76      -2.1945      2.00000
     77      -1.9902      2.00000
     78      -1.9902      2.00000
     79      -1.9877      2.00000
     80      -1.9877      2.00000
     81      -1.9406      2.00000
     82      -1.9406      2.00000
     83      -1.9403      2.00000
     84      -1.9403      2.00000
     85      -1.8767      2.00000
     86      -1.8767      2.00000
     87      -1.8766      2.00000
     88      -1.8766      2.00000
     89      -1.3426      2.00000
     90      -1.3426      2.00000
     91      -1.3396      2.00000
     92      -1.3396      2.00000
     93      -1.1601      2.00000
     94      -1.1601      2.00000
     95      -1.1578      2.00000
     96      -1.1578      2.00000
     97      -0.9376      2.00000
     98      -0.9376      2.00000
     99      -0.9375      2.00000
    100      -0.9375      2.00000
    101      -0.7418      2.00000
    102      -0.7418      2.00000
    103      -0.7392      2.00000
    104      -0.7392      2.00000
    105       3.9790      0.00000
    106       3.9790      0.00000
    107       3.9812      0.00000
    108       3.9812      0.00000
    109       4.7316      0.00000
    110       4.7316      0.00000
    111       4.7322      0.00000
    112       4.7322      0.00000
    113       4.8921      0.00000
    114       4.8921      0.00000
    115       4.8961      0.00000
    116       4.8961      0.00000
    117       4.9670      0.00000
    118       4.9670      0.00000
    119       4.9711      0.00000
    120       4.9711      0.00000
    121       8.9045      0.00000
    122       8.9045      0.00000
    123       8.9191      0.00000
    124       8.9192      0.00000
    125       8.9935      0.00000
    126       8.9935      0.00000
    127       9.0090      0.00000
    128       9.0091      0.00000


--------------------------------------------------------------------------------------------------------


 soft charge-density along one line, spin component           1
         0         1         2         3         4         5         6         7         8         9
 total charge-density along one line
 
 pseudopotential strength for first ion, spin component:           1
  2.990   9.583  -0.000  -0.000   0.000  -0.000   0.000   0.000
  9.583  30.528  -0.000   0.000   0.000  -0.000   0.000   0.000
 -0.000  -0.000   7.016  -0.000  -0.000  10.388  -0.000  -0.000
 -0.000   0.000  -0.000   7.016  -0.000  -0.000  10.387  -0.000
  0.000   0.000  -0.000  -0.000   7.016  -0.000  -0.000  10.388
 -0.000  -0.000  10.388  -0.000  -0.000  14.509  -0.000  -0.000
  0.000   0.000  -0.000  10.387  -0.000  -0.000  14.506  -0.000
  0.000   0.000  -0.000  -0.000  10.388  -0.000  -0.000  14.509
 -0.000  -0.000   0.000  -0.000  -0.000   0.000  -0.000  -0.000
 -0.000  -0.000   0.001  -0.000  -0.000   0.001  -0.000  -0.000
 -0.001  -0.002   0.000   0.000  -0.000   0.000   0.000  -0.000
 -0.000  -0.000  -0.000  -0.000  -0.001  -0.000  -0.000  -0.001
 -0.000  -0.000   0.000  -0.001   0.000   0.000  -0.001   0.000
 total augmentation occupancy for first ion, spin component:           1
  0.810  -0.032   0.000  -0.000   0.000   0.000   0.000  -0.000   0.000   0.000   0.015   0.000   0.000
 -0.032   0.001   0.000   0.000  -0.000   0.000  -0.000   0.000   0.000   0.000  -0.001  -0.000  -0.000
  0.000   0.000   0.081   0.000   0.000  -0.008   0.000  -0.000  -0.000  -0.003   0.000   0.000   0.000
 -0.000   0.000   0.000   0.096   0.000   0.000  -0.010  -0.000   0.000   0.000  -0.000   0.000   0.002
  0.000  -0.000   0.000   0.000   0.082  -0.000  -0.000  -0.008  -0.000   0.000   0.000   0.003   0.000
  0.000   0.000  -0.008   0.000  -0.000   0.001   0.000  -0.000   0.000   0.000  -0.000  -0.000   0.000
  0.000  -0.000   0.000  -0.010  -0.000   0.000   0.001   0.000   0.000   0.000   0.000  -0.000  -0.000
 -0.000   0.000  -0.000  -0.000  -0.008  -0.000   0.000   0.001   0.000  -0.000  -0.000  -0.000  -0.000
  0.000   0.000  -0.000   0.000  -0.000   0.000   0.000   0.000   0.004   0.000   0.000   0.000   0.000
  0.000   0.000  -0.003   0.000   0.000   0.000   0.000  -0.000   0.000   0.002   0.000  -0.000   0.000
  0.015  -0.001   0.000  -0.000   0.000  -0.000   0.000  -0.000   0.000   0.000   0.040   0.000  -0.000
  0.000  -0.000   0.000   0.000   0.003  -0.000  -0.000  -0.000   0.000  -0.000   0.000   0.002   0.000
  0.000  -0.000   0.000   0.002   0.000   0.000  -0.000  -0.000   0.000   0.000  -0.000   0.000   0.035


------------------------ aborting loop because EDIFF is reached ----------------------------------------


    CHARGE:  cpu time    0.0506: real time    0.0509
    FORLOC:  cpu time    0.0037: real time    0.0037
    FORNL :  cpu time    0.7931: real time    0.7950
    STRESS:  cpu time    1.0138: real time    1.0166
    FORCOR:  cpu time    0.0150: real time    0.0151
    FORHAR:  cpu time    0.0059: real time    0.0059
    MIXING:  cpu time    0.0008: real time    0.0008
    OFIELD:  cpu time    0.0001: real time    0.0001

  FORCE on cell =-STRESS in cart. coord.  units (eV):
  Direction    XX          YY          ZZ          XY          YZ          ZX
  --------------------------------------------------------------------------------------
  Alpha Z   373.47427   373.47427   373.47427
  Ewald   -2972.68163 -2976.13127   152.17567    -0.00000     0.00000     0.00000
  Hartree  1122.95957  1120.80929  2450.21732    -0.00000    -0.00000    -0.00000
  E(xc)    -882.25068  -882.24985  -872.51920    -0.00000    -0.00000    -0.00000
  Local   -1234.10414 -1228.53096 -5501.35087    -0.00000    -0.00000     0.00000
  n-local  -431.20390  -431.23677  -469.28876    -0.00000    -0.00000    -0.00000
  augment    34.12085    34.12129    33.85994     0.00000    -0.00000    -0.00000
  Kinetic  3989.68862  3989.63290  3833.25559    -0.00000    -0.00000     0.00000
  Fock        0.00000     0.00000     0.00000     0.00000     0.00000     0.00000
  -------------------------------------------------------------------------------------
  Total       0.00296    -0.11111    -0.17603     0.00000     0.00000     0.00000
  in kB       0.00894    -0.33575    -0.53195     0.00000     0.00000     0.00000
  external pressure =       -0.29 kB  Pullay stress =        0.00 kB


 VOLUME and BASIS-vectors are now :
 -----------------------------------------------------------------------------
  energy-cutoff  :      500.00
  volume of cell :      530.19
      direct lattice vectors                 reciprocal lattice vectors
     6.662054393  0.000000000  0.000000000     0.150103848  0.000000000  0.000000000
     0.000000000  6.665019112  0.000000000     0.000000000  0.150037079  0.000000000
     0.000000000  0.000000000 11.940446335     0.000000000  0.000000000  0.083748963

  length of vectors
     6.662054393  6.665019112 11.940446335     0.150103848  0.150037079  0.083748963


 FORCES acting on ions
    electron-ion (+dipol)            ewald-force                    non-local-force                 convergence-correction
 -----------------------------------------------------------------------------------------------
   -.216E-01 0.640E-13 -.109E+00   0.216E-01 -.733E-14 0.102E+00   -.142E-02 0.324E-23 0.133E-01   -.217E-05 -.165E-14 -.113E-05
   0.216E-01 -.981E-13 -.109E+00   -.216E-01 -.266E-14 0.102E+00   0.142E-02 -.590E-23 0.133E-01   0.217E-05 -.250E-14 -.113E-05
   0.216E-01 -.789E-13 0.109E+00   -.216E-01 0.000E+00 -.102E+00   0.142E-02 0.207E-22 -.133E-01   0.217E-05 -.124E-14 0.113E-05
   -.216E-01 -.490E-13 0.109E+00   0.216E-01 0.355E-14 -.102E+00   -.142E-02 0.101E-22 -.133E-01   -.217E-05 -.251E-14 0.113E-05
   0.220E+03 0.313E-12 0.677E+02   -.251E+03 0.355E-14 -.764E+02   0.310E+02 -.540E-22 0.872E+01   -.143E-02 0.124E-13 -.872E-03
   0.131E+03 0.196E-12 -.196E+03   -.155E+03 -.355E-14 0.229E+03   0.237E+02 0.587E-22 -.331E+02   -.892E-03 0.296E-14 0.311E-03
   -.132E+03 0.307E-12 -.196E+03   0.156E+03 -.711E-14 0.229E+03   -.238E+02 -.127E-22 -.330E+02   0.896E-03 0.207E-14 0.320E-03
   -.220E+03 0.650E-12 0.681E+02   0.251E+03 0.711E-14 -.770E+02   -.310E+02 -.429E-22 0.882E+01   0.141E-02 0.234E-13 -.854E-03
   0.164E+00 -.177E-15 0.222E+03   -.205E+00 0.355E-14 -.255E+03   0.397E-01 0.762E-23 0.327E+02   -.208E-04 0.557E-13 -.165E-02
   -.220E+03 0.695E-12 0.677E+02   0.251E+03 0.200E-14 -.764E+02   -.310E+02 0.755E-22 0.872E+01   0.143E-02 0.496E-14 -.872E-03
   -.131E+03 -.516E-13 -.196E+03   0.155E+03 -.444E-14 0.229E+03   -.237E+02 -.640E-22 -.331E+02   0.892E-03 -.199E-13 0.311E-03
   0.132E+03 -.125E-11 -.196E+03   -.156E+03 -.200E-14 0.229E+03   0.238E+02 0.527E-23 -.330E+02   -.896E-03 -.212E-13 0.320E-03
   0.220E+03 0.263E-11 0.681E+02   -.251E+03 0.167E-14 -.770E+02   0.310E+02 0.312E-22 0.882E+01   -.141E-02 -.996E-14 -.854E-03
   -.164E+00 0.115E-11 0.222E+03   0.205E+00 0.189E-14 -.255E+03   -.397E-01 -.769E-23 0.327E+02   0.208E-04 0.321E-13 -.165E-02
   -.220E+03 -.262E-12 -.677E+02   0.251E+03 0.000E+00 0.764E+02   -.310E+02 0.746E-22 -.872E+01   0.143E-02 0.253E-13 0.872E-03
   -.131E+03 -.307E-12 0.196E+03   0.155E+03 0.222E-14 -.229E+03   -.237E+02 0.641E-22 0.331E+02   0.892E-03 0.700E-13 -.311E-03
   0.132E+03 -.239E-12 0.196E+03   -.156E+03 0.600E-14 -.229E+03   0.238E+02 0.868E-23 0.330E+02   -.896E-03 0.580E-13 -.320E-03
   0.220E+03 -.567E-12 -.681E+02   -.251E+03 -.178E-14 0.770E+02   0.310E+02 0.345E-22 -.882E+01   -.141E-02 0.237E-13 0.854E-03
   -.164E+00 0.772E-13 -.222E+03   0.205E+00 0.000E+00 0.255E+03   -.397E-01 -.400E-22 -.327E+02   0.208E-04 -.259E-13 0.165E-02
   0.220E+03 -.102E-12 -.677E+02   -.251E+03 -.444E-14 0.764E+02   0.310E+02 0.138E-22 -.872E+01   -.143E-02 0.711E-15 0.872E-03
   0.131E+03 -.765E-13 0.196E+03   -.155E+03 0.888E-14 -.229E+03   0.237E+02 -.382E-22 0.331E+02   -.892E-03 0.345E-13 -.311E-03
   -.132E+03 -.307E-12 0.196E+03   0.156E+03 -.178E-14 -.229E+03   -.238E+02 0.108E-22 0.330E+02   0.896E-03 0.441E-13 -.320E-03
   -.220E+03 -.934E-12 -.681E+02   0.251E+03 -.266E-14 0.770E+02   -.310E+02 -.328E-22 -.882E+01   0.141E-02 0.129E-13 0.854E-03
   0.164E+00 0.600E-13 -.222E+03   -.205E+00 0.466E-14 0.255E+03   0.397E-01 -.278E-22 -.327E+02   -.208E-04 -.404E-13 0.165E-02
   0.418E+00 -.929E-12 0.222E+03   -.425E+00 0.533E-14 -.255E+03   0.148E-01 0.398E-22 0.327E+02   -.392E-05 0.518E-13 -.164E-02
   0.294E+00 0.220E+03 0.678E+02   -.280E+00 -.251E+03 -.765E+02   -.224E-01 0.310E+02 0.877E+01   0.177E-05 -.140E-02 -.866E-03
   0.863E+00 0.132E+03 -.196E+03   -.875E+00 -.156E+03 0.229E+03   0.121E-01 0.238E+02 -.331E+02   -.109E-05 -.864E-03 0.305E-03
   0.863E+00 -.132E+03 -.196E+03   -.875E+00 0.156E+03 0.229E+03   0.121E-01 -.238E+02 -.331E+02   -.109E-05 0.864E-03 0.305E-03
   0.294E+00 -.220E+03 0.678E+02   -.280E+00 0.251E+03 -.765E+02   -.224E-01 -.310E+02 0.877E+01   0.177E-05 0.140E-02 -.866E-03
   -.418E+00 -.750E-12 0.222E+03   0.425E+00 0.222E-14 -.255E+03   -.148E-01 -.339E-22 0.327E+02   0.392E-05 0.616E-13 -.164E-02
   -.294E+00 -.220E+03 0.678E+02   0.280E+00 0.251E+03 -.765E+02   0.224E-01 -.310E+02 0.877E+01   -.177E-05 0.140E-02 -.866E-03
   -.863E+00 -.132E+03 -.196E+03   0.875E+00 0.156E+03 0.229E+03   -.121E-01 -.238E+02 -.331E+02   0.109E-05 0.864E-03 0.305E-03
   -.863E+00 0.132E+03 -.196E+03   0.875E+00 -.156E+03 0.229E+03   -.121E-01 0.238E+02 -.331E+02   0.109E-05 -.864E-03 0.305E-03
   -.294E+00 0.220E+03 0.678E+02   0.280E+00 -.251E+03 -.765E+02   0.224E-01 0.310E+02 0.877E+01   -.177E-05 -.140E-02 -.866E-03
   -.418E+00 0.903E-12 -.222E+03   0.425E+00 -.111E-15 0.255E+03   -.148E-01 0.391E-22 -.327E+02   0.392E-05 -.270E-13 0.164E-02
   -.294E+00 0.220E+03 -.678E+02   0.280E+00 -.251E+03 0.765E+02   0.224E-01 0.310E+02 -.877E+01   -.177E-05 -.140E-02 0.866E-03
   -.863E+00 0.132E+03 0.196E+03   0.875E+00 -.156E+03 -.229E+03   -.121E-01 0.238E+02 0.331E+02   0.109E-05 -.864E-03 -.305E-03
   -.863E+00 -.132E+03 0.196E+03   0.875E+00 0.156E+03 -.229E+03   -.121E-01 -.238E+02 0.331E+02   0.109E-05 0.864E-03 -.305E-03
   -.294E+00 -.220E+03 -.678E+02   0.280E+00 0.251E+03 0.765E+02   0.224E-01 -.310E+02 -.877E+01   -.177E-05 0.140E-02 0.866E-03
   0.418E+00 0.260E-11 -.222E+03   -.425E+00 0.000E+00 0.255E+03   0.148E-01 -.194E-22 -.327E+02   -.392E-05 -.300E-13 0.164E-02
   0.294E+00 -.220E+03 -.678E+02   -.280E+00 0.251E+03 0.765E+02   -.224E-01 -.310E+02 -.877E+01   0.177E-05 0.140E-02 0.866E-03
   0.863E+00 -.132E+03 0.196E+03   -.875E+00 0.156E+03 -.229E+03   0.121E-01 -.238E+02 0.331E+02   -.109E-05 0.864E-03 -.305E-03
   0.863E+00 0.132E+03 0.196E+03   -.875E+00 -.156E+03 -.229E+03   0.121E-01 0.238E+02 0.331E+02   -.109E-05 -.864E-03 -.305E-03
   0.294E+00 0.220E+03 -.678E+02   -.280E+00 -.251E+03 0.765E+02   -.224E-01 0.310E+02 -.877E+01   0.177E-05 -.140E-02 0.866E-03
 -----------------------------------------------------------------------------------------------
   0.532E-10 0.674E-11 -.947E-09   -.457E-13 0.568E-13 0.000E+00   -.705E-14 -.711E-14 -.142E-13   -.250E-12 0.552E-12 0.734E-12
 
 
 POSITION                                       TOTAL-FORCE (eV/Angst)
 -----------------------------------------------------------------------------------
      1.66250      0.00000      4.47698        -0.001436     -0.000000      0.006290
      4.99955      3.33251     10.44720         0.001436     -0.000000      0.006290
      4.99955      0.00000      7.46347         0.001436     -0.000000     -0.006290
      1.66250      3.33251      1.49324        -0.001436     -0.000000     -0.006290
      0.60249      0.00000      7.48034         0.000145     -0.000000     -0.002521
      1.01590      0.00000      8.74346        -0.002752     -0.000000     -0.002555
      2.32507      0.00000      8.74163        -0.003229     -0.000000     -0.002380
      2.73518      0.00000      7.47749        -0.003183     -0.000000     -0.001105
      1.66771      0.00000      6.69333        -0.000971     -0.000000     -0.001654
      6.05957      3.33251      1.51012        -0.000145     -0.000000     -0.002521
      5.64616      3.33251      2.77324         0.002752     -0.000000     -0.002555
      4.33698      3.33251      2.77141         0.003229     -0.000000     -0.002380
      3.92687      3.33251      1.50726         0.003183     -0.000000     -0.001105
      4.99434      3.33251      0.72310         0.000971     -0.000000     -0.001654
      6.05957      0.00000      4.46010        -0.000145     -0.000000      0.002521
      5.64616      0.00000      3.19698         0.002752     -0.000000      0.002555
      4.33698      0.00000      3.19882         0.003229     -0.000000      0.002380
      3.92687      0.00000      4.46296         0.003183     -0.000000      0.001105
      4.99434      0.00000      5.24712         0.000971     -0.000000      0.001654
      0.60249      3.33251     10.43032         0.000145     -0.000000      0.002521
      1.01590      3.33251      9.16721        -0.002752     -0.000000      0.002555
      2.32507      3.33251      9.16904        -0.003229     -0.000000      0.002380
      2.73518      3.33251     10.43318        -0.003183     -0.000000      0.001105
      1.66771      3.33251     11.21734        -0.000971     -0.000000      0.001654
      5.00115      0.00000      9.67788         0.007185     -0.000000     -0.002092
      5.00151      5.59862     10.46335        -0.008248     -0.001079     -0.001898
      5.00097      6.01041     11.72687         0.001030     -0.001826      0.001291
      5.00097      0.65461     11.72687         0.001030      0.001826      0.001291
      5.00151      1.06640     10.46335        -0.008248      0.001079     -0.001898
      1.66091      3.33251      3.70765        -0.007185     -0.000000     -0.002092
      1.66054      4.39891      4.49312         0.008248      0.001079     -0.001898
      1.66108      3.98712      5.75664        -0.001030      0.001826      0.001291
      1.66108      2.67790      5.75664        -0.001030     -0.001826      0.001291
      1.66054      2.26611      4.49312         0.008248     -0.001079     -0.001898
      1.66091      0.00000      2.26257        -0.007185     -0.000000      0.002092
      1.66054      5.59862      1.47710         0.008248     -0.001079      0.001898
      1.66108      6.01041      0.21358        -0.001030     -0.001826     -0.001291
      1.66108      0.65461      0.21358        -0.001030      0.001826     -0.001291
      1.66054      1.06640      1.47710         0.008248      0.001079      0.001898
      5.00115      3.33251      8.23279         0.007185     -0.000000      0.002092
      5.00151      4.39891      7.44732        -0.008248      0.001079      0.001898
      5.00097      3.98712      6.18380         0.001030      0.001826     -0.001291
      5.00097      2.67790      6.18380         0.001030     -0.001826     -0.001291
      5.00151      2.26611      7.44732        -0.008248     -0.001079      0.001898
 -----------------------------------------------------------------------------------
    total drift:                                0.000000      0.000000     -0.000000


--------------------------------------------------------------------------------------------------------



  FREE ENERGIE OF THE ION-ELECTRON SYSTEM (eV)
  ---------------------------------------------------
  free  energy   TOTEN  =      -331.77969311 eV

  energy  without entropy=     -331.77969311  energy(sigma->0) =     -331.77969311
 


--------------------------------------------------------------------------------------------------------


    POTLOK:  cpu time    0.0158: real time    0.0159


--------------------------------------------------------------------------------------------------------


 stress matrix after NEB project (eV)
      0.00296      0.00000      0.00000
      0.00000     -0.11111      0.00000
      0.00000      0.00000     -0.17603
  FORCES: max atom, RMS     0.008532    0.005282
  FORCE total and by dimension    0.035039    0.008248
  Stress total and by dimension    0.208184    0.176032


--------------------------------------------------------------------------------------------------------


  
 reached required accuracy - stopping structural energy minimisation
     LOOP+:  cpu time   24.1185: real time   24.2280
    4ORBIT:  cpu time    0.0000: real time    0.0000

 total amount of memory used by VASP MPI-rank0    43897. kBytes
=======================================================================

   base      :      30000. kBytes
   nonl-proj :       2311. kBytes
   fftplans  :       1234. kBytes
   grid      :       2014. kBytes
   one-center:         32. kBytes
   wavefun   :       8306. kBytes
 
  
  
 General timing and accounting informations for this job:
 ========================================================
  
                  Total CPU time used (sec):       25.451
                            User time (sec):       25.236
                          System time (sec):        0.214
                         Elapsed time (sec):       25.583
  
                   Maximum memory used (kb):       84208.
                   Average memory used (kb):           0.
  
                          Minor page faults:        25043
                          Major page faults:            0
                 Voluntary context switches:          315
