3:Pnmb(53)                              
   1.00000000000000     
     6.6620543929959739    0.0000000000000000   -0.0000000000000000
     0.0000000000000000    6.6650191123237370    0.0000000000000000
     0.0000000000000000    0.0000000000000000   11.9404463351786525
   Mg   N 
     4    40
Direct
  0.2495480362724521 -0.0000000000000000  0.3749424038508586
  0.7504519637275474  0.5000000000000000  0.8749424038508588
  0.7504519637275474 -0.0000000000000000  0.6250575961491412
  0.2495480362724521  0.5000000000000000  0.1250575961491411
  0.0904359253227465 -0.0000000000000000  0.6264711068139791
  0.1524903691824151 -0.0000000000000000  0.7322558777586371
  0.3490025204180373 -0.0000000000000000  0.7321024032854432
  0.4105613411592932 -0.0000000000000000  0.6262317686131357
  0.2503302430582825 -0.0000000000000000  0.5605590667075568
  0.9095640746772540  0.5000000000000000  0.1264711068139790
  0.8475096308175852  0.5000000000000000  0.2322558777586369
  0.6509974795819627  0.5000000000000000  0.2321024032854436
  0.5894386588407069  0.5000000000000000  0.1262317686131357
  0.7496697569417170  0.5000000000000000  0.0605590667075570
  0.9095640746772540 -0.0000000000000000  0.3735288931860211
  0.8475096308175852 -0.0000000000000000  0.2677441222413632
  0.6509974795819627 -0.0000000000000000  0.2678975967145562
  0.5894386588407069 -0.0000000000000000  0.3737682313868641
  0.7496697569417170 -0.0000000000000000  0.4394409332924430
  0.0904359253227465  0.5000000000000000  0.8735288931860209
  0.1524903691824151  0.5000000000000000  0.7677441222413629
  0.3490025204180373  0.5000000000000000  0.7678975967145568
  0.4105613411592932  0.5000000000000000  0.8737682313868643
  0.2503302430582825  0.5000000000000000  0.9394409332924432
  0.7506915672464757 -0.0000000000000000  0.8105120796563514
  0.7507464535832934  0.8400009096375793  0.8762943529607904
  0.7506648602252962  0.9017846147007961  0.9821130451086869
  0.7506648602252962  0.0982153852992042  0.9821130451086869
  0.7507464535832934  0.1599990903624208  0.8762943529607904
  0.2493084327535245  0.5000000000000000  0.3105120796563514
  0.2492535464167063  0.6599990903624207  0.3762943529607905
  0.2493351397747036  0.5982153852992039  0.4821130451086870
  0.2493351397747036  0.4017846147007960  0.4821130451086870
  0.2492535464167063  0.3400009096375793  0.3762943529607905
  0.2493084327535245 -0.0000000000000000  0.1894879203436486
  0.2492535464167063  0.8400009096375793  0.1237056470392096
  0.2493351397747036  0.9017846147007961  0.0178869548913130
  0.2493351397747036  0.0982153852992042  0.0178869548913130
  0.2492535464167063  0.1599990903624208  0.1237056470392096
  0.7506915672464757  0.5000000000000000  0.6894879203436486
  0.7507464535832934  0.6599990903624207  0.6237056470392096
  0.7506648602252962  0.5982153852992039  0.5178869548913131
  0.7506648602252962  0.4017846147007959  0.5178869548913131
  0.7507464535832934  0.3400009096375793  0.6237056470392096
 
  0.00000000E+00  0.00000000E+00  0.00000000E+00
  0.00000000E+00  0.00000000E+00  0.00000000E+00
  0.00000000E+00  0.00000000E+00  0.00000000E+00
  0.00000000E+00  0.00000000E+00  0.00000000E+00
  0.00000000E+00  0.00000000E+00  0.00000000E+00
  0.00000000E+00  0.00000000E+00  0.00000000E+00
  0.00000000E+00  0.00000000E+00  0.00000000E+00
  0.00000000E+00  0.00000000E+00  0.00000000E+00
  0.00000000E+00  0.00000000E+00  0.00000000E+00
  0.00000000E+00  0.00000000E+00  0.00000000E+00
  0.00000000E+00  0.00000000E+00  0.00000000E+00
  0.00000000E+00  0.00000000E+00  0.00000000E+00
  0.00000000E+00  0.00000000E+00  0.00000000E+00
  0.00000000E+00  0.00000000E+00  0.00000000E+00
  0.00000000E+00  0.00000000E+00  0.00000000E+00
  0.00000000E+00  0.00000000E+00  0.00000000E+00
  0.00000000E+00  0.00000000E+00  0.00000000E+00
  0.00000000E+00  0.00000000E+00  0.00000000E+00
  0.00000000E+00  0.00000000E+00  0.00000000E+00
  0.00000000E+00  0.00000000E+00  0.00000000E+00
  0.00000000E+00  0.00000000E+00  0.00000000E+00
  0.00000000E+00  0.00000000E+00  0.00000000E+00
  0.00000000E+00  0.00000000E+00  0.00000000E+00
  0.00000000E+00  0.00000000E+00  0.00000000E+00
  0.00000000E+00  0.00000000E+00  0.00000000E+00
  0.00000000E+00  0.00000000E+00  0.00000000E+00
  0.00000000E+00  0.00000000E+00  0.00000000E+00
  0.00000000E+00  0.00000000E+00  0.00000000E+00
  0.00000000E+00  0.00000000E+00  0.00000000E+00
  0.00000000E+00  0.00000000E+00  0.00000000E+00
  0.00000000E+00  0.00000000E+00  0.00000000E+00
  0.00000000E+00  0.00000000E+00  0.00000000E+00
  0.00000000E+00  0.00000000E+00  0.00000000E+00
  0.00000000E+00  0.00000000E+00  0.00000000E+00
  0.00000000E+00  0.00000000E+00  0.00000000E+00
  0.00000000E+00  0.00000000E+00  0.00000000E+00
  0.00000000E+00  0.00000000E+00  0.00000000E+00
  0.00000000E+00  0.00000000E+00  0.00000000E+00
  0.00000000E+00  0.00000000E+00  0.00000000E+00
  0.00000000E+00  0.00000000E+00  0.00000000E+00
  0.00000000E+00  0.00000000E+00  0.00000000E+00
  0.00000000E+00  0.00000000E+00  0.00000000E+00
  0.00000000E+00  0.00000000E+00  0.00000000E+00
  0.00000000E+00  0.00000000E+00  0.00000000E+00
