3:Pnmb(53)
1.0
   6.6780329    0.0000000    0.0000000
   0.0000000    6.7049779    0.0000000
   0.0000000    0.0000000   11.9024498
Mg  N 
  4  40 
Direct
 0.24156  0.00000  0.37440
 0.75844  0.50000  0.87440
 0.75844  0.00000  0.62560
 0.24156  0.50000  0.12560
 0.09818  0.00000  0.62660
 0.16335  0.00000  0.73203
 0.35952  0.00000  0.72976
 0.41774  0.00000  0.62314
 0.25544  0.00000  0.55876
 0.90182  0.50000  0.12660
 0.83665  0.50000  0.23203
 0.64048  0.50000  0.22976
 0.58226  0.50000  0.12314
 0.74456  0.50000  0.05876
 0.90182  0.00000  0.37340
 0.83665  0.00000  0.26797
 0.64048  0.00000  0.27024
 0.58226  0.00000  0.37686
 0.74456  0.00000  0.44124
 0.09818  0.50000  0.87340
 0.16335  0.50000  0.76797
 0.35952  0.50000  0.77024
 0.41774  0.50000  0.87686
 0.25544  0.50000  0.94124
 0.76207  0.00000  0.81057
 0.76187  0.83899  0.87614
 0.76225  0.89979  0.98250
 0.76225  0.10021  0.98250
 0.76187  0.16101  0.87614
 0.23793  0.50000  0.31057
 0.23813  0.66101  0.37614
 0.23775  0.60021  0.48250
 0.23775  0.39979  0.48250
 0.23813  0.33899  0.37614
 0.23793  0.00000  0.18943
 0.23813  0.83899  0.12386
 0.23775  0.89979  0.01750
 0.23775  0.10021  0.01750
 0.23813  0.16101  0.12386
 0.76207  0.50000  0.68943
 0.76187  0.66101  0.62386
 0.76225  0.60021  0.51750
 0.76225  0.39979  0.51750
 0.76187  0.33899  0.62386
