       N       E                     dE             d eps       ncg     rms          rms(c)
DAV:   1     0.231246402200E+04    0.23125E+04   -0.94260E+04  1664   0.106E+03
DAV:   2     0.561774450169E+02   -0.22563E+04   -0.21803E+04  2496   0.200E+02
DAV:   3    -0.322852236522E+03   -0.37903E+03   -0.37526E+03  1920   0.831E+01
DAV:   4    -0.340895395620E+03   -0.18043E+02   -0.17899E+02  2208   0.218E+01
DAV:   5    -0.341588067597E+03   -0.69267E+00   -0.69151E+00  2384   0.386E+00    0.370E+01
RMM:   6    -0.333410931579E+03    0.81771E+01   -0.14582E+01  1664   0.396E+00    0.217E+01
RMM:   7    -0.331940326966E+03    0.14706E+01   -0.13268E+01  1666   0.375E+00    0.333E+00
RMM:   8    -0.331562771992E+03    0.37755E+00   -0.88018E-01  1674   0.131E+00    0.782E-01
RMM:   9    -0.331549917774E+03    0.12854E-01   -0.10559E-01  1776   0.433E-01    0.471E-01
RMM:  10    -0.331540198839E+03    0.97189E-02   -0.41204E-02  1702   0.221E-01    0.251E-01
RMM:  11    -0.331534402412E+03    0.57964E-02   -0.18340E-02  1672   0.159E-01    0.151E-01
RMM:  12    -0.331546850659E+03   -0.12448E-01   -0.19525E-02  1673   0.146E-01    0.133E-01
RMM:  13    -0.331553098180E+03   -0.62475E-02   -0.38487E-03  1667   0.816E-02    0.525E-02
RMM:  14    -0.331560054091E+03   -0.69559E-02   -0.74003E-04  1693   0.378E-02    0.443E-02
RMM:  15    -0.331561199554E+03   -0.11455E-02   -0.13597E-04  1438   0.127E-02    0.171E-02
RMM:  16    -0.331563708789E+03   -0.25092E-02   -0.15283E-04  1491   0.144E-02    0.934E-03
RMM:  17    -0.331563912244E+03   -0.20345E-03   -0.15912E-05  1089   0.481E-03    0.653E-03
RMM:  18    -0.331564168343E+03   -0.25610E-03   -0.18379E-05  1111   0.467E-03    0.247E-03
RMM:  19    -0.331564250722E+03   -0.82379E-04   -0.57082E-06   781   0.256E-03    0.113E-03
RMM:  20    -0.331564311631E+03   -0.60909E-04   -0.41498E-06   702   0.220E-03    0.163E-03
RMM:  21    -0.331564344665E+03   -0.33034E-04   -0.19172E-06   614   0.170E-03    0.480E-04
RMM:  22    -0.331564373086E+03   -0.28421E-04   -0.14241E-06   579   0.163E-03    0.725E-04
RMM:  23    -0.331564383992E+03   -0.10906E-04   -0.33483E-07   420   0.132E-03    0.252E-04
RMM:  24    -0.331564386736E+03   -0.27445E-05   -0.19305E-07   403   0.129E-03
    1 T=   300. E= -.32881099E+03 F= -.33156439E+03 E0= -.33157852E+03  EK= 0.27534E+01 SP= 0.00E+00 SK= 0.21E-10
       N       E                     dE             d eps       ncg     rms          rms(c)
DAV:   1    -0.331516587128E+03    0.47797E-01   -0.27266E+00  1824   0.275E+00    0.116E+00
RMM:   2    -0.331539404937E+03   -0.22818E-01   -0.24946E-01  1664   0.865E-01    0.231E-01
RMM:   3    -0.331539992537E+03   -0.58760E-03   -0.17479E-02  1921   0.223E-01    0.204E-01
RMM:   4    -0.331539374882E+03    0.61766E-03   -0.22315E-03  1706   0.760E-02    0.972E-02
RMM:   5    -0.331539367640E+03    0.72422E-05   -0.51667E-04  1827   0.318E-02    0.315E-02
RMM:   6    -0.331539363867E+03    0.37725E-05   -0.46842E-05  1348   0.113E-02
    2 T=   297. E= -.32881152E+03 F= -.33153936E+03 E0= -.33155341E+03  EK= 0.27278E+01 SP= 0.34E-05 SK= 0.71E-06
       N       E                     dE             d eps       ncg     rms          rms(c)
DAV:   1    -0.331462681143E+03    0.76686E-01   -0.71031E-03  2848   0.960E-01    0.149E-01
RMM:   2    -0.331463495731E+03   -0.81459E-03   -0.82715E-03  1664   0.159E-01    0.520E-02
RMM:   3    -0.331463535456E+03   -0.39724E-04   -0.46644E-04  1942   0.294E-02    0.443E-02
RMM:   4    -0.331463540438E+03   -0.49825E-05   -0.38960E-05  1217   0.926E-03    0.305E-02
RMM:   5    -0.331463549395E+03   -0.89568E-05   -0.10752E-05  1007   0.518E-03
    3 T=   289. E= -.32881091E+03 F= -.33146355E+03 E0= -.33147761E+03  EK= 0.26532E+01 SP= -.62E-03 SK= 0.25E-04
       N       E                     dE             d eps       ncg     rms          rms(c)
DAV:   1    -0.331342036878E+03    0.12150E+00   -0.41307E-02  2448   0.952E-01    0.152E-01
RMM:   2    -0.331343480135E+03   -0.14433E-02   -0.14628E-02  1664   0.196E-01    0.635E-02
RMM:   3    -0.331343575795E+03   -0.95660E-04   -0.10554E-03  1910   0.444E-02    0.565E-02
RMM:   4    -0.331343589373E+03   -0.13578E-04   -0.12180E-04  1543   0.145E-02    0.350E-02
RMM:   5    -0.331343598622E+03   -0.92491E-05   -0.14519E-05  1009   0.610E-03
    4 T=   276. E= -.32880983E+03 F= -.33134360E+03 E0= -.33135776E+03  EK= 0.25372E+01 SP= -.37E-02 SK= 0.24E-03
       N       E                     dE             d eps       ncg     rms          rms(c)
DAV:   1    -0.331186464086E+03    0.15713E+00   -0.14605E-02  2704   0.888E-01    0.934E-02
RMM:   2    -0.331187129045E+03   -0.66496E-03   -0.63816E-03  1666   0.124E-01    0.278E-02
RMM:   3    -0.331187210970E+03   -0.81924E-04   -0.53480E-04  1958   0.313E-02    0.267E-02
RMM:   4    -0.331187237914E+03   -0.26944E-04   -0.52140E-05  1279   0.962E-03    0.210E-02
RMM:   5    -0.331187301705E+03   -0.63792E-04   -0.11273E-05  1024   0.512E-03    0.318E-03
RMM:   6    -0.331187331520E+03   -0.29815E-04   -0.49421E-06   995   0.325E-03    0.416E-03
RMM:   7    -0.331187353165E+03   -0.21644E-04   -0.30284E-06   886   0.246E-03    0.979E-04
RMM:   8    -0.331187371678E+03   -0.18514E-04   -0.19849E-06   677   0.195E-03    0.707E-04
RMM:   9    -0.331187395389E+03   -0.23710E-04   -0.51830E-06   802   0.233E-03    0.130E-03
RMM:  10    -0.331187397945E+03   -0.25567E-05   -0.61162E-07   456   0.147E-03
    5 T=   260. E= -.32880825E+03 F= -.33118740E+03 E0= -.33120176E+03  EK= 0.23901E+01 SP= -.12E-01 SK= 0.12E-02
       N       E                     dE             d eps       ncg     rms          rms(c)
DAV:   1    -0.331004671331E+03    0.18272E+00   -0.90935E-03  2832   0.836E-01    0.629E-02
RMM:   2    -0.331005262565E+03   -0.59123E-03   -0.55774E-03  1684   0.104E-01    0.269E-02
RMM:   3    -0.331005331394E+03   -0.68829E-04   -0.48946E-04  1988   0.269E-02    0.239E-02
RMM:   4    -0.331005365478E+03   -0.34084E-04   -0.38287E-05  1174   0.813E-03    0.133E-02
RMM:   5    -0.331005403437E+03   -0.37959E-04   -0.93449E-06  1015   0.468E-03    0.298E-03
RMM:   6    -0.331005427102E+03   -0.23665E-04   -0.41900E-06   995   0.308E-03    0.107E-03
RMM:   7    -0.331005454231E+03   -0.27129E-04   -0.40574E-06   895   0.250E-03    0.713E-04
RMM:   8    -0.331005462487E+03   -0.82559E-05   -0.16338E-06   610   0.179E-03
    6 T=   242. E= -.32880663E+03 F= -.33100546E+03 E0= -.33102009E+03  EK= 0.22242E+01 SP= -.30E-01 SK= 0.42E-02
       N       E                     dE             d eps       ncg     rms          rms(c)
DAV:   1    -0.330809681999E+03    0.19577E+00   -0.84527E-03  2848   0.770E-01    0.526E-02
RMM:   2    -0.330810120052E+03   -0.43805E-03   -0.43157E-03  1685   0.886E-02    0.185E-02
RMM:   3    -0.330810163762E+03   -0.43710E-04   -0.37078E-04  1933   0.232E-02    0.166E-02
RMM:   4    -0.330810173291E+03   -0.95288E-05   -0.24940E-05  1109   0.683E-03    0.117E-02
RMM:   5    -0.330810188960E+03   -0.15669E-04   -0.56066E-06   999   0.390E-03    0.270E-03
RMM:   6    -0.330810198965E+03   -0.10005E-04   -0.22067E-06   887   0.258E-03    0.105E-03
RMM:   7    -0.330810204516E+03   -0.55517E-05   -0.74692E-07   630   0.188E-03
    7 T=   224. E= -.32880519E+03 F= -.33081020E+03 E0= -.33082517E+03  EK= 0.20538E+01 SP= -.60E-01 SK= 0.11E-01
       N       E                     dE             d eps       ncg     rms          rms(c)
DAV:   1    -0.330613435420E+03    0.19676E+00   -0.73119E-03  2784   0.703E-01    0.442E-02
RMM:   2    -0.330613776295E+03   -0.34088E-03   -0.34306E-03  1685   0.789E-02    0.164E-02
RMM:   3    -0.330613806482E+03   -0.30187E-04   -0.29430E-04  1903   0.208E-02    0.145E-02
RMM:   4    -0.330613810117E+03   -0.36346E-05   -0.19891E-05  1069   0.629E-03    0.978E-03
RMM:   5    -0.330613814150E+03   -0.40334E-05   -0.53842E-06  1002   0.379E-03
    8 T=   206. E= -.32880380E+03 F= -.33061381E+03 E0= -.33062918E+03  EK= 0.18927E+01 SP= -.11E+00 SK= 0.25E-01
       N       E                     dE             d eps       ncg     rms          rms(c)
DAV:   1    -0.330427391956E+03    0.18642E+00   -0.80366E-03  2720   0.637E-01    0.389E-02
RMM:   2    -0.330427692585E+03   -0.30063E-03   -0.30007E-03  1672   0.744E-02    0.137E-02
RMM:   3    -0.330427722723E+03   -0.30138E-04   -0.26696E-04  1875   0.202E-02    0.126E-02
RMM:   4    -0.330427728730E+03   -0.60070E-05   -0.20001E-05  1071   0.638E-03    0.856E-03
RMM:   5    -0.330427737313E+03   -0.85825E-05   -0.52565E-06   995   0.376E-03
    9 T=   191. E= -.32880268E+03 F= -.33042774E+03 E0= -.33044355E+03  EK= 0.17533E+01 SP= -.18E+00 SK= 0.48E-01
       N       E                     dE             d eps       ncg     rms          rms(c)
DAV:   1    -0.330261746941E+03    0.16598E+00   -0.53174E-03  2832   0.577E-01    0.340E-02
RMM:   2    -0.330261977171E+03   -0.23023E-03   -0.23191E-03  1691   0.638E-02    0.962E-03
RMM:   3    -0.330261999182E+03   -0.22012E-04   -0.20931E-04  1842   0.178E-02    0.882E-03
RMM:   4    -0.330262002296E+03   -0.31135E-05   -0.16319E-05  1039   0.588E-03    0.589E-03
RMM:   5    -0.330262005371E+03   -0.30750E-05   -0.48578E-06   985   0.356E-03
   10 T=   179. E= -.32880201E+03 F= -.33026201E+03 E0= -.33027832E+03  EK= 0.16459E+01 SP= -.27E+00 SK= 0.84E-01
       N       E                     dE             d eps       ncg     rms          rms(c)
DAV:   1    -0.330124018528E+03    0.13798E+00   -0.49478E-03  2752   0.528E-01    0.244E-02
RMM:   2    -0.330124209791E+03   -0.19126E-03   -0.19168E-03  1685   0.579E-02    0.103E-02
RMM:   3    -0.330124227609E+03   -0.17818E-04   -0.16555E-04  1765   0.162E-02    0.964E-03
RMM:   4    -0.330124230674E+03   -0.30654E-05   -0.15359E-05  1035   0.579E-03    0.703E-03
RMM:   5    -0.330124234878E+03   -0.42039E-05   -0.50449E-06   967   0.359E-03
   11 T=   172. E= -.32880200E+03 F= -.33012423E+03 E0= -.33014110E+03  EK= 0.15791E+01 SP= -.39E+00 SK= 0.13E+00
       N       E                     dE             d eps       ncg     rms          rms(c)
DAV:   1    -0.330017599992E+03    0.10663E+00   -0.41530E-03  2832   0.501E-01    0.266E-02
RMM:   2    -0.330017758962E+03   -0.15897E-03   -0.15726E-03  1688   0.528E-02    0.655E-03
RMM:   3    -0.330017775868E+03   -0.16905E-04   -0.13735E-04  1729   0.149E-02    0.641E-03
RMM:   4    -0.330017780406E+03   -0.45389E-05   -0.12969E-05  1014   0.551E-03    0.440E-03
RMM:   5    -0.330017786547E+03   -0.61404E-05   -0.47053E-06   961   0.346E-03
   12 T=   170. E= -.32880221E+03 F= -.33001779E+03 E0= -.33003524E+03  EK= 0.15581E+01 SP= -.54E+00 SK= 0.20E+00
       N       E                     dE             d eps       ncg     rms          rms(c)
DAV:   1    -0.329944167547E+03    0.73613E-01   -0.41280E-03  2832   0.501E-01    0.232E-02
RMM:   2    -0.329944320681E+03   -0.15313E-03   -0.15483E-03  1694   0.527E-02    0.901E-03
RMM:   3    -0.329944334619E+03   -0.13939E-04   -0.13790E-04  1715   0.149E-02    0.850E-03
RMM:   4    -0.329944336316E+03   -0.16969E-05   -0.13156E-05  1012   0.558E-03    0.629E-03
RMM:   5    -0.329944338048E+03   -0.17316E-05   -0.50407E-06   974   0.356E-03
   13 T=   173. E= -.32880288E+03 F= -.32994434E+03 E0= -.32996241E+03  EK= 0.15868E+01 SP= -.72E+00 SK= 0.28E+00
       N       E                     dE             d eps       ncg     rms          rms(c)
DAV:   1    -0.329901139527E+03    0.43197E-01   -0.42431E-03  2784   0.527E-01    0.251E-02
RMM:   2    -0.329901302007E+03   -0.16248E-03   -0.16238E-03  1703   0.532E-02    0.104E-02
RMM:   3    -0.329901317861E+03   -0.15854E-04   -0.14434E-04  1716   0.150E-02    0.920E-03
RMM:   4    -0.329901321388E+03   -0.35269E-05   -0.14310E-05  1024   0.565E-03    0.585E-03
RMM:   5    -0.329901325347E+03   -0.39593E-05   -0.50815E-06   977   0.358E-03
   14 T=   182. E= -.32880383E+03 F= -.32990133E+03 E0= -.32992005E+03  EK= 0.16663E+01 SP= -.93E+00 SK= 0.36E+00
       N       E                     dE             d eps       ncg     rms          rms(c)
DAV:   1    -0.329883613688E+03    0.17708E-01   -0.53247E-03  2848   0.573E-01    0.299E-02
RMM:   2    -0.329883799960E+03   -0.18627E-03   -0.18549E-03  1679   0.592E-02    0.123E-02
RMM:   3    -0.329883818400E+03   -0.18440E-04   -0.16764E-04  1776   0.164E-02    0.111E-02
RMM:   4    -0.329883822145E+03   -0.37453E-05   -0.14313E-05  1027   0.574E-03    0.722E-03
RMM:   5    -0.329883826748E+03   -0.46036E-05   -0.52189E-06   995   0.361E-03
   15 T=   196. E= -.32880528E+03 F= -.32988383E+03 E0= -.32990320E+03  EK= 0.17954E+01 SP= -.12E+01 SK= 0.45E+00
       N       E                     dE             d eps       ncg     rms          rms(c)
DAV:   1    -0.329884214727E+03   -0.39258E-03   -0.57754E-03  2832   0.634E-01    0.314E-02
RMM:   2    -0.329884430692E+03   -0.21596E-03   -0.21835E-03  1693   0.631E-02    0.150E-02
RMM:   3    -0.329884450508E+03   -0.19817E-04   -0.20455E-04  1826   0.174E-02    0.130E-02
RMM:   4    -0.329884452005E+03   -0.14960E-05   -0.14683E-05  1038   0.578E-03    0.809E-03
RMM:   5    -0.329884453420E+03   -0.14154E-05   -0.50401E-06  1000   0.364E-03
   16 T=   215. E= -.32880654E+03 F= -.32988445E+03 E0= -.32990447E+03  EK= 0.19720E+01 SP= -.14E+01 SK= 0.53E+00
       N       E                     dE             d eps       ncg     rms          rms(c)
DAV:   1    -0.329893333776E+03   -0.88818E-02   -0.57582E-03  2848   0.704E-01    0.346E-02
RMM:   2    -0.329893577517E+03   -0.24374E-03   -0.24480E-03  1686   0.666E-02    0.163E-02
RMM:   3    -0.329893600837E+03   -0.23320E-04   -0.23006E-04  1883   0.184E-02    0.140E-02
RMM:   4    -0.329893603521E+03   -0.26843E-05   -0.16283E-05  1047   0.596E-03    0.901E-03
RMM:   5    -0.329893606904E+03   -0.33822E-05   -0.54306E-06  1001   0.374E-03
   17 T=   239. E= -.32880805E+03 F= -.32989361E+03 E0= -.32991422E+03  EK= 0.21897E+01 SP= -.17E+01 SK= 0.60E+00
       N       E                     dE             d eps       ncg     rms          rms(c)
DAV:   1    -0.329900075919E+03   -0.64724E-02   -0.64913E-03  2816   0.776E-01    0.366E-02
RMM:   2    -0.329900349483E+03   -0.27356E-03   -0.27469E-03  1676   0.712E-02    0.189E-02
RMM:   3    -0.329900373866E+03   -0.24383E-04   -0.24069E-04  1881   0.193E-02    0.161E-02
RMM:   4    -0.329900376957E+03   -0.30908E-05   -0.18131E-05  1052   0.630E-03    0.985E-03
RMM:   5    -0.329900380945E+03   -0.39884E-05   -0.61746E-06  1004   0.397E-03
   18 T=   266. E= -.32880925E+03 F= -.32990038E+03 E0= -.32992150E+03  EK= 0.24405E+01 SP= -.20E+01 SK= 0.64E+00
       N       E                     dE             d eps       ncg     rms          rms(c)
DAV:   1    -0.329895299849E+03    0.50771E-02   -0.79355E-03  2816   0.847E-01    0.423E-02
RMM:   2    -0.329895594373E+03   -0.29452E-03   -0.29983E-03  1670   0.765E-02    0.189E-02
RMM:   3    -0.329895618394E+03   -0.24021E-04   -0.25403E-04  1888   0.204E-02    0.164E-02
RMM:   4    -0.329895619483E+03   -0.10893E-05   -0.19646E-05  1064   0.654E-03    0.105E-02
RMM:   5    -0.329895620485E+03   -0.10023E-05   -0.66219E-06  1004   0.411E-03
   19 T=   296. E= -.32881063E+03 F= -.32989562E+03 E0= -.32991712E+03  EK= 0.27145E+01 SP= -.23E+01 SK= 0.66E+00
       N       E                     dE             d eps       ncg     rms          rms(c)
DAV:   1    -0.329868202346E+03    0.27417E-01   -0.84999E-03  2848   0.914E-01    0.433E-02
RMM:   2    -0.329868529607E+03   -0.32726E-03   -0.33062E-03  1686   0.790E-02    0.194E-02
RMM:   3    -0.329868559277E+03   -0.29671E-04   -0.29814E-04  1922   0.214E-02    0.171E-02
RMM:   4    -0.329868562096E+03   -0.28189E-05   -0.21198E-05  1074   0.664E-03    0.111E-02
RMM:   5    -0.329868565679E+03   -0.35824E-05   -0.67750E-06  1006   0.414E-03
   20 T=   327. E= -.32881153E+03 F= -.32986857E+03 E0= -.32989031E+03  EK= 0.29978E+01 SP= -.26E+01 SK= 0.65E+00
       N       E                     dE             d eps       ncg     rms          rms(c)
DAV:   1    -0.329810441107E+03    0.58121E-01   -0.94685E-03  2864   0.972E-01    0.469E-02
RMM:   2    -0.329810810091E+03   -0.36898E-03   -0.37385E-03  1681   0.824E-02    0.187E-02
RMM:   3    -0.329810844910E+03   -0.34820E-04   -0.35041E-04  1969   0.227E-02    0.171E-02
RMM:   4    -0.329810847539E+03   -0.26281E-05   -0.22148E-05  1078   0.674E-03    0.110E-02
RMM:   5    -0.329810850897E+03   -0.33585E-05   -0.70522E-06  1006   0.419E-03
   21 T=   357. E= -.32881229E+03 F= -.32981085E+03 E0= -.32983268E+03  EK= 0.32744E+01 SP= -.29E+01 SK= 0.61E+00
       N       E                     dE             d eps       ncg     rms          rms(c)
DAV:   1    -0.329714955484E+03    0.95892E-01   -0.10741E-02  2832   0.102E+00    0.488E-02
RMM:   2    -0.329715361057E+03   -0.40557E-03   -0.41250E-03  1672   0.862E-02    0.183E-02
RMM:   3    -0.329715396714E+03   -0.35657E-04   -0.36886E-04  1967   0.239E-02    0.176E-02
RMM:   4    -0.329715398483E+03   -0.17689E-05   -0.25456E-05  1110   0.709E-03    0.124E-02
RMM:   5    -0.329715399549E+03   -0.10656E-05   -0.69138E-06  1004   0.421E-03
   22 T=   384. E= -.32881274E+03 F= -.32971540E+03 E0= -.32973719E+03  EK= 0.35261E+01 SP= -.32E+01 SK= 0.55E+00
       N       E                     dE             d eps       ncg     rms          rms(c)
DAV:   1    -0.329577497976E+03    0.13790E+00   -0.10798E-02  2864   0.105E+00    0.520E-02
RMM:   2    -0.329577895419E+03   -0.39744E-03   -0.40295E-03  1679   0.856E-02    0.170E-02
RMM:   3    -0.329577931771E+03   -0.36352E-04   -0.36402E-04  1969   0.240E-02    0.172E-02
RMM:   4    -0.329577934861E+03   -0.30905E-05   -0.26148E-05  1113   0.709E-03    0.123E-02
RMM:   5    -0.329577938208E+03   -0.33464E-05   -0.66526E-06  1007   0.413E-03
   23 T=   407. E= -.32881290E+03 F= -.32957794E+03 E0= -.32959958E+03  EK= 0.37347E+01 SP= -.34E+01 SK= 0.47E+00
       N       E                     dE             d eps       ncg     rms          rms(c)
DAV:   1    -0.329396591245E+03    0.18134E+00   -0.10726E-02  2880   0.107E+00    0.549E-02
RMM:   2    -0.329396999461E+03   -0.40822E-03   -0.41556E-03  1685   0.866E-02    0.169E-02
RMM:   3    -0.329397037378E+03   -0.37917E-04   -0.38278E-04  1968   0.244E-02    0.181E-02
RMM:   4    -0.329397040223E+03   -0.28447E-05   -0.27516E-05  1127   0.723E-03    0.136E-02
RMM:   5    -0.329397043074E+03   -0.28512E-05   -0.71789E-06  1006   0.425E-03
   24 T=   423. E= -.32881265E+03 F= -.32939704E+03 E0= -.32941848E+03  EK= 0.38841E+01 SP= -.37E+01 SK= 0.37E+00
       N       E                     dE             d eps       ncg     rms          rms(c)
DAV:   1    -0.329173610186E+03    0.22343E+00   -0.10493E-02  2896   0.107E+00    0.572E-02
RMM:   2    -0.329174031477E+03   -0.42129E-03   -0.43132E-03  1683   0.873E-02    0.180E-02
RMM:   3    -0.329174069294E+03   -0.37817E-04   -0.39079E-04  1969   0.245E-02    0.190E-02
RMM:   4    -0.329174071430E+03   -0.21354E-05   -0.27474E-05  1122   0.729E-03    0.141E-02
RMM:   5    -0.329174072540E+03   -0.11104E-05   -0.70779E-06  1003   0.425E-03
   25 T=   432. E= -.32881158E+03 F= -.32917407E+03 E0= -.32919527E+03  EK= 0.39627E+01 SP= -.39E+01 SK= 0.28E+00
       N       E                     dE             d eps       ncg     rms          rms(c)
DAV:   1    -0.328915707565E+03    0.25836E+00   -0.11615E-02  2816   0.105E+00    0.607E-02
RMM:   2    -0.328916182716E+03   -0.47515E-03   -0.48436E-03  1672   0.922E-02    0.209E-02
RMM:   3    -0.328916224308E+03   -0.41592E-04   -0.42287E-04  1978   0.258E-02    0.215E-02
RMM:   4    -0.328916227448E+03   -0.31406E-05   -0.30872E-05  1149   0.761E-03    0.154E-02
RMM:   5    -0.328916230837E+03   -0.33888E-05   -0.81934E-06  1006   0.451E-03
   26 T=   432. E= -.32880989E+03 F= -.32891623E+03 E0= -.32893715E+03  EK= 0.39676E+01 SP= -.41E+01 SK= 0.20E+00
       N       E                     dE             d eps       ncg     rms          rms(c)
DAV:   1    -0.328634292062E+03    0.28194E+00   -0.12259E-02  2832   0.101E+00    0.646E-02
RMM:   2    -0.328634783715E+03   -0.49165E-03   -0.50266E-03  1668   0.966E-02    0.247E-02
RMM:   3    -0.328634825899E+03   -0.42184E-04   -0.43631E-04  1979   0.263E-02    0.248E-02
RMM:   4    -0.328634828522E+03   -0.26237E-05   -0.30935E-05  1144   0.773E-03    0.172E-02
RMM:   5    -0.328634831291E+03   -0.27687E-05   -0.86561E-06  1005   0.462E-03
   27 T=   425. E= -.32880759E+03 F= -.32863483E+03 E0= -.32865544E+03  EK= 0.39049E+01 SP= -.42E+01 SK= 0.14E+00
       N       E                     dE             d eps       ncg     rms          rms(c)
DAV:   1    -0.328343201292E+03    0.29163E+00   -0.10066E-02  2816   0.965E-01    0.652E-02
RMM:   2    -0.328343638577E+03   -0.43729E-03   -0.45014E-03  1669   0.933E-02    0.261E-02
RMM:   3    -0.328343674533E+03   -0.35956E-04   -0.38548E-04  1952   0.249E-02    0.253E-02
RMM:   4    -0.328343676250E+03   -0.17165E-05   -0.31214E-05  1144   0.771E-03    0.166E-02
RMM:   5    -0.328343677605E+03   -0.13548E-05   -0.85435E-06  1002   0.457E-03
   28 T=   413. E= -.32880502E+03 F= -.32834368E+03 E0= -.32836392E+03  EK= 0.37881E+01 SP= -.43E+01 SK= 0.89E-01
       N       E                     dE             d eps       ncg     rms          rms(c)
DAV:   1    -0.328059142839E+03    0.28453E+00   -0.87463E-03  2864   0.904E-01    0.641E-02
RMM:   2    -0.328059548654E+03   -0.40582E-03   -0.41702E-03  1671   0.915E-02    0.277E-02
RMM:   3    -0.328059583560E+03   -0.34906E-04   -0.36859E-04  1958   0.242E-02    0.264E-02
RMM:   4    -0.328059585973E+03   -0.24125E-05   -0.28676E-05  1126   0.746E-03    0.172E-02
RMM:   5    -0.328059589292E+03   -0.33188E-05   -0.86472E-06  1002   0.456E-03
   29 T=   396. E= -.32880228E+03 F= -.32805959E+03 E0= -.32807939E+03  EK= 0.36382E+01 SP= -.44E+01 SK= 0.55E-01
       N       E                     dE             d eps       ncg     rms          rms(c)
DAV:   1    -0.327801928644E+03    0.25766E+00   -0.83183E-03  2864   0.840E-01    0.619E-02
RMM:   2    -0.327802301980E+03   -0.37334E-03   -0.38464E-03  1665   0.897E-02    0.284E-02
RMM:   3    -0.327802333025E+03   -0.31046E-04   -0.33258E-04  1953   0.233E-02    0.267E-02
RMM:   4    -0.327802334813E+03   -0.17878E-05   -0.27452E-05  1121   0.728E-03    0.161E-02
RMM:   5    -0.327802337020E+03   -0.22069E-05   -0.80756E-06  1002   0.442E-03
   30 T=   379. E= -.32880000E+03 F= -.32780234E+03 E0= -.32782164E+03  EK= 0.34809E+01 SP= -.45E+01 SK= 0.32E-01
       N       E                     dE             d eps       ncg     rms          rms(c)
DAV:   1    -0.327588784672E+03    0.21355E+00   -0.72757E-03  2864   0.784E-01    0.590E-02
RMM:   2    -0.327589103473E+03   -0.31880E-03   -0.32975E-03  1669   0.831E-02    0.249E-02
RMM:   3    -0.327589128814E+03   -0.25341E-04   -0.27735E-04  1913   0.214E-02    0.233E-02
RMM:   4    -0.327589129768E+03   -0.95467E-06   -0.22070E-05  1077   0.680E-03    0.144E-02
RMM:   5    -0.327589131192E+03   -0.14241E-05   -0.72329E-06  1002   0.421E-03
   31 T=   364. E= -.32879800E+03 F= -.32758913E+03 E0= -.32760792E+03  EK= 0.33410E+01 SP= -.46E+01 SK= 0.19E-01
       N       E                     dE             d eps       ncg     rms          rms(c)
DAV:   1    -0.327433575564E+03    0.15555E+00   -0.62984E-03  2864   0.746E-01    0.491E-02
RMM:   2    -0.327433836915E+03   -0.26135E-03   -0.26880E-03  1673   0.749E-02    0.215E-02
RMM:   3    -0.327433860923E+03   -0.24008E-04   -0.24511E-04  1903   0.195E-02    0.202E-02
RMM:   4    -0.327433863151E+03   -0.22274E-05   -0.18248E-05  1053   0.629E-03    0.130E-02
RMM:   5    -0.327433866595E+03   -0.34445E-05   -0.63539E-06  1000   0.396E-03
   32 T=   353. E= -.32879708E+03 F= -.32743387E+03 E0= -.32745217E+03  EK= 0.32380E+01 SP= -.46E+01 SK= 0.10E-01
       N       E                     dE             d eps       ncg     rms          rms(c)
DAV:   1    -0.327343108012E+03    0.90755E-01   -0.58860E-03  2896   0.737E-01    0.445E-02
RMM:   2    -0.327343339251E+03   -0.23124E-03   -0.23879E-03  1672   0.695E-02    0.145E-02
RMM:   3    -0.327343360861E+03   -0.21610E-04   -0.21771E-04  1863   0.185E-02    0.142E-02
RMM:   4    -0.327343362670E+03   -0.18094E-05   -0.16794E-05  1046   0.613E-03    0.996E-03
RMM:   5    -0.327343364748E+03   -0.20771E-05   -0.55497E-06  1001   0.377E-03
   33 T=   347. E= -.32879678E+03 F= -.32734336E+03 E0= -.32736126E+03  EK= 0.31839E+01 SP= -.46E+01 SK= 0.48E-02
       N       E                     dE             d eps       ncg     rms          rms(c)
DAV:   1    -0.327316632131E+03    0.26731E-01   -0.66013E-03  2848   0.759E-01    0.388E-02
RMM:   2    -0.327316885684E+03   -0.25355E-03   -0.25960E-03  1672   0.706E-02    0.138E-02
RMM:   3    -0.327316909507E+03   -0.23823E-04   -0.23723E-04  1897   0.191E-02    0.136E-02
RMM:   4    -0.327316911342E+03   -0.18346E-05   -0.17206E-05  1050   0.608E-03    0.100E-02
RMM:   5    -0.327316913205E+03   -0.18626E-05   -0.56873E-06  1001   0.377E-03
   34 T=   347. E= -.32879721E+03 F= -.32731691E+03 E0= -.32733453E+03  EK= 0.31805E+01 SP= -.47E+01 SK= 0.17E-02
       N       E                     dE             d eps       ncg     rms          rms(c)
DAV:   1    -0.327345353408E+03   -0.28442E-01   -0.77420E-03  2848   0.805E-01    0.402E-02
RMM:   2    -0.327345615760E+03   -0.26235E-03   -0.26747E-03  1667   0.740E-02    0.156E-02
RMM:   3    -0.327345639623E+03   -0.23863E-04   -0.23123E-04  1871   0.194E-02    0.144E-02
RMM:   4    -0.327345642382E+03   -0.27592E-05   -0.17930E-05  1049   0.630E-03    0.990E-03
RMM:   5    -0.327345645710E+03   -0.33277E-05   -0.60273E-06  1002   0.390E-03
   35 T=   351. E= -.32879836E+03 F= -.32734565E+03 E0= -.32736313E+03  EK= 0.32193E+01 SP= -.47E+01 SK= 0.12E-03
       N       E                     dE             d eps       ncg     rms          rms(c)
DAV:   1    -0.327415443809E+03   -0.69801E-01   -0.69423E-03  2848   0.865E-01    0.439E-02
RMM:   2    -0.327415705466E+03   -0.26166E-03   -0.26843E-03  1667   0.748E-02    0.194E-02
RMM:   3    -0.327415729188E+03   -0.23722E-04   -0.24381E-04  1882   0.196E-02    0.168E-02
RMM:   4    -0.327415730954E+03   -0.17666E-05   -0.19656E-05  1060   0.649E-03    0.109E-02
RMM:   5    -0.327415732773E+03   -0.18191E-05   -0.64197E-06  1002   0.401E-03
   36 T=   358. E= -.32880010E+03 F= -.32741573E+03 E0= -.32743326E+03  EK= 0.32855E+01 SP= -.47E+01 SK= 0.51E-03
       N       E                     dE             d eps       ncg     rms          rms(c)
DAV:   1    -0.327509609650E+03   -0.93879E-01   -0.75441E-03  2816   0.929E-01    0.468E-02
RMM:   2    -0.327509915255E+03   -0.30560E-03   -0.31268E-03  1666   0.796E-02    0.229E-02
RMM:   3    -0.327509940471E+03   -0.25216E-04   -0.26449E-04  1896   0.207E-02    0.194E-02
RMM:   4    -0.327509942042E+03   -0.15717E-05   -0.22723E-05  1078   0.679E-03    0.124E-02
RMM:   5    -0.327509943858E+03   -0.18154E-05   -0.72850E-06  1003   0.427E-03
   37 T=   366. E= -.32880166E+03 F= -.32750994E+03 E0= -.32752768E+03  EK= 0.33601E+01 SP= -.47E+01 SK= 0.37E-02
       N       E                     dE             d eps       ncg     rms          rms(c)
DAV:   1    -0.327611047846E+03   -0.10111E+00   -0.82193E-03  2832   0.989E-01    0.496E-02
RMM:   2    -0.327611382267E+03   -0.33442E-03   -0.34150E-03  1666   0.832E-02    0.246E-02
RMM:   3    -0.327611408426E+03   -0.26160E-04   -0.27296E-04  1892   0.214E-02    0.208E-02
RMM:   4    -0.327611410498E+03   -0.20717E-05   -0.24099E-05  1085   0.700E-03    0.133E-02
RMM:   5    -0.327611413228E+03   -0.27294E-05   -0.78626E-06  1002   0.438E-03
   38 T=   373. E= -.32880310E+03 F= -.32761141E+03 E0= -.32762953E+03  EK= 0.34232E+01 SP= -.46E+01 SK= 0.11E-01
       N       E                     dE             d eps       ncg     rms          rms(c)
DAV:   1    -0.327704028442E+03   -0.92618E-01   -0.75139E-03  2848   0.104E+00    0.483E-02
RMM:   2    -0.327704344451E+03   -0.31601E-03   -0.32437E-03  1667   0.804E-02    0.259E-02
RMM:   3    -0.327704368763E+03   -0.24311E-04   -0.26400E-04  1898   0.210E-02    0.219E-02
RMM:   4    -0.327704369843E+03   -0.10800E-05   -0.24734E-05  1090   0.700E-03    0.136E-02
RMM:   5    -0.327704371456E+03   -0.16133E-05   -0.80081E-06  1001   0.439E-03
   39 T=   377. E= -.32880406E+03 F= -.32770437E+03 E0= -.32772303E+03  EK= 0.34572E+01 SP= -.46E+01 SK= 0.22E-01
       N       E                     dE             d eps       ncg     rms          rms(c)
DAV:   1    -0.327776849634E+03   -0.72480E-01   -0.76421E-03  2880   0.108E+00    0.488E-02
RMM:   2    -0.327777152494E+03   -0.30286E-03   -0.31156E-03  1667   0.793E-02    0.230E-02
RMM:   3    -0.327777176370E+03   -0.23875E-04   -0.25648E-04  1900   0.208E-02    0.200E-02
RMM:   4    -0.327777177552E+03   -0.11825E-05   -0.22551E-05  1079   0.688E-03    0.128E-02
RMM:   5    -0.327777179169E+03   -0.16172E-05   -0.75550E-06  1002   0.428E-03
   40 T=   376. E= -.32880466E+03 F= -.32777718E+03 E0= -.32779649E+03  EK= 0.34495E+01 SP= -.45E+01 SK= 0.39E-01
       N       E                     dE             d eps       ncg     rms          rms(c)
DAV:   1    -0.327821387810E+03   -0.44210E-01   -0.75907E-03  2896   0.110E+00    0.468E-02
RMM:   2    -0.327821697448E+03   -0.30964E-03   -0.31788E-03  1666   0.761E-02    0.211E-02
RMM:   3    -0.327821722614E+03   -0.25166E-04   -0.26316E-04  1876   0.207E-02    0.187E-02
RMM:   4    -0.327821724348E+03   -0.17347E-05   -0.23453E-05  1087   0.688E-03    0.121E-02
RMM:   5    -0.327821726303E+03   -0.19545E-05   -0.73543E-06  1001   0.421E-03
   41 T=   370. E= -.32880464E+03 F= -.32782173E+03 E0= -.32784179E+03  EK= 0.33936E+01 SP= -.44E+01 SK= 0.58E-01
       N       E                     dE             d eps       ncg     rms          rms(c)
DAV:   1    -0.327833856906E+03   -0.12133E-01   -0.83241E-03  2880   0.111E+00    0.453E-02
RMM:   2    -0.327834168276E+03   -0.31137E-03   -0.32007E-03  1669   0.760E-02    0.188E-02
RMM:   3    -0.327834193299E+03   -0.25023E-04   -0.26420E-04  1888   0.209E-02    0.176E-02
RMM:   4    -0.327834194580E+03   -0.12814E-05   -0.22365E-05  1077   0.679E-03    0.121E-02
RMM:   5    -0.327834195585E+03   -0.10049E-05   -0.73622E-06  1002   0.422E-03
   42 T=   358. E= -.32880422E+03 F= -.32783420E+03 E0= -.32785506E+03  EK= 0.32892E+01 SP= -.43E+01 SK= 0.79E-01
       N       E                     dE             d eps       ncg     rms          rms(c)
DAV:   1    -0.327814286349E+03    0.19908E-01   -0.68895E-03  2928   0.110E+00    0.471E-02
RMM:   2    -0.327814563513E+03   -0.27716E-03   -0.28595E-03  1673   0.716E-02    0.164E-02
RMM:   3    -0.327814588245E+03   -0.24732E-04   -0.25863E-04  1919   0.203E-02    0.158E-02
RMM:   4    -0.327814589581E+03   -0.13357E-05   -0.20569E-05  1068   0.648E-03    0.106E-02
RMM:   5    -0.327814590951E+03   -0.13696E-05   -0.66298E-06   999   0.401E-03
   43 T=   342. E= -.32880348E+03 F= -.32781459E+03 E0= -.32783625E+03  EK= 0.31422E+01 SP= -.42E+01 SK= 0.97E-01
       N       E                     dE             d eps       ncg     rms          rms(c)
DAV:   1    -0.327765114419E+03    0.49475E-01   -0.63087E-03  2960   0.108E+00    0.458E-02
RMM:   2    -0.327765381100E+03   -0.26668E-03   -0.27468E-03  1674   0.697E-02    0.165E-02
RMM:   3    -0.327765404358E+03   -0.23258E-04   -0.24122E-04  1883   0.198E-02    0.161E-02
RMM:   4    -0.327765405948E+03   -0.15896E-05   -0.20666E-05  1066   0.649E-03    0.111E-02
RMM:   5    -0.327765407642E+03   -0.16945E-05   -0.68898E-06  1000   0.409E-03
   44 T=   323. E= -.32880248E+03 F= -.32776541E+03 E0= -.32778783E+03  EK= 0.29617E+01 SP= -.41E+01 SK= 0.11E+00
       N       E                     dE             d eps       ncg     rms          rms(c)
DAV:   1    -0.327691123659E+03    0.74282E-01   -0.67089E-03  2880   0.104E+00    0.462E-02
RMM:   2    -0.327691379539E+03   -0.25588E-03   -0.26353E-03  1666   0.702E-02    0.171E-02
RMM:   3    -0.327691399469E+03   -0.19930E-04   -0.21139E-04  1859   0.192E-02    0.166E-02
RMM:   4    -0.327691400753E+03   -0.12843E-05   -0.19943E-05  1069   0.648E-03    0.111E-02
RMM:   5    -0.327691401893E+03   -0.11396E-05   -0.64858E-06  1000   0.400E-03
   45 T=   301. E= -.32880100E+03 F= -.32769140E+03 E0= -.32771450E+03  EK= 0.27598E+01 SP= -.40E+01 SK= 0.11E+00
       N       E                     dE             d eps       ncg     rms          rms(c)
DAV:   1    -0.327599712443E+03    0.91688E-01   -0.70694E-03  2864   0.998E-01    0.478E-02
RMM:   2    -0.327599976305E+03   -0.26386E-03   -0.27093E-03  1669   0.723E-02    0.173E-02
RMM:   3    -0.327599997759E+03   -0.21455E-04   -0.22575E-04  1885   0.196E-02    0.166E-02
RMM:   4    -0.327599999289E+03   -0.15295E-05   -0.19735E-05  1067   0.644E-03    0.110E-02
RMM:   5    -0.327600000686E+03   -0.13972E-05   -0.61918E-06  1001   0.393E-03
   46 T=   278. E= -.32879956E+03 F= -.32760000E+03 E0= -.32762366E+03  EK= 0.25496E+01 SP= -.39E+01 SK= 0.11E+00
       N       E                     dE             d eps       ncg     rms          rms(c)
DAV:   1    -0.327498841675E+03    0.10116E+00   -0.63482E-03  2912   0.949E-01    0.450E-02
RMM:   2    -0.327499079089E+03   -0.23741E-03   -0.24409E-03  1667   0.696E-02    0.180E-02
RMM:   3    -0.327499098224E+03   -0.19135E-04   -0.20366E-04  1829   0.187E-02    0.170E-02
RMM:   4    -0.327499099602E+03   -0.13778E-05   -0.18906E-05  1054   0.649E-03    0.114E-02
RMM:   5    -0.327499100925E+03   -0.13226E-05   -0.64053E-06  1000   0.401E-03
   47 T=   255. E= -.32879816E+03 F= -.32749910E+03 E0= -.32752318E+03  EK= 0.23436E+01 SP= -.37E+01 SK= 0.97E-01
       N       E                     dE             d eps       ncg     rms          rms(c)
DAV:   1    -0.327397078243E+03    0.10202E+00   -0.58366E-03  2848   0.896E-01    0.453E-02
RMM:   2    -0.327397313571E+03   -0.23533E-03   -0.24231E-03  1667   0.677E-02    0.176E-02
RMM:   3    -0.327397332671E+03   -0.19100E-04   -0.20562E-04  1843   0.184E-02    0.163E-02
RMM:   4    -0.327397333769E+03   -0.10985E-05   -0.18929E-05  1057   0.633E-03    0.104E-02
RMM:   5    -0.327397334606E+03   -0.83621E-06   -0.61203E-06   999   0.394E-03
   48 T=   235. E= -.32879636E+03 F= -.32739733E+03 E0= -.32742170E+03  EK= 0.21539E+01 SP= -.36E+01 SK= 0.77E-01
       N       E                     dE             d eps       ncg     rms          rms(c)
DAV:   1    -0.327303831094E+03    0.93503E-01   -0.60157E-03  2848   0.844E-01    0.400E-02
RMM:   2    -0.327304054843E+03   -0.22375E-03   -0.22961E-03  1668   0.665E-02    0.186E-02
RMM:   3    -0.327304072535E+03   -0.17692E-04   -0.19022E-04  1797   0.179E-02    0.169E-02
RMM:   4    -0.327304073744E+03   -0.12086E-05   -0.18177E-05  1050   0.640E-03    0.104E-02
RMM:   5    -0.327304075136E+03   -0.13928E-05   -0.64757E-06   998   0.404E-03
   49 T=   217. E= -.32879522E+03 F= -.32730408E+03 E0= -.32732861E+03  EK= 0.19902E+01 SP= -.35E+01 SK= 0.54E-01
       N       E                     dE             d eps       ncg     rms          rms(c)
DAV:   1    -0.327225886871E+03    0.78187E-01   -0.56373E-03  2880   0.796E-01    0.409E-02
RMM:   2    -0.327226091176E+03   -0.20431E-03   -0.20991E-03  1666   0.644E-02    0.161E-02
RMM:   3    -0.327226106760E+03   -0.15584E-04   -0.16685E-04  1755   0.171E-02    0.147E-02
RMM:   4    -0.327226108019E+03   -0.12587E-05   -0.16656E-05  1034   0.627E-03    0.934E-03
RMM:   5    -0.327226109310E+03   -0.12916E-05   -0.59780E-06   991   0.390E-03
   50 T=   203. E= -.32879408E+03 F= -.32722611E+03 E0= -.32725070E+03  EK= 0.18599E+01 SP= -.35E+01 SK= 0.31E-01
       N       E                     dE             d eps       ncg     rms          rms(c)
DAV:   1    -0.327170315323E+03    0.55793E-01   -0.52569E-03  2896   0.758E-01    0.344E-02
RMM:   2    -0.327170497841E+03   -0.18252E-03   -0.18749E-03  1664   0.603E-02    0.170E-02
RMM:   3    -0.327170511807E+03   -0.13966E-04   -0.15069E-04  1702   0.162E-02    0.154E-02
RMM:   4    -0.327170512886E+03   -0.10795E-05   -0.16261E-05  1030   0.619E-03    0.936E-03
RMM:   5    -0.327170514082E+03   -0.11958E-05   -0.63174E-06   991   0.395E-03
   51 T=   193. E= -.32879344E+03 F= -.32717051E+03 E0= -.32719508E+03  EK= 0.17692E+01 SP= -.34E+01 SK= 0.13E-01
       N       E                     dE             d eps       ncg     rms          rms(c)
DAV:   1    -0.327141146019E+03    0.29367E-01   -0.41650E-03  2896   0.733E-01    0.329E-02
RMM:   2    -0.327141315993E+03   -0.16997E-03   -0.17474E-03  1678   0.561E-02    0.137E-02
RMM:   3    -0.327141330848E+03   -0.14855E-04   -0.15539E-04  1744   0.158E-02    0.125E-02
RMM:   4    -0.327141332156E+03   -0.13081E-05   -0.14972E-05  1033   0.589E-03    0.802E-03
RMM:   5    -0.327141333462E+03   -0.13061E-05   -0.53483E-06   991   0.373E-03
   52 T=   188. E= -.32879320E+03 F= -.32714133E+03 E0= -.32716581E+03  EK= 0.17213E+01 SP= -.34E+01 SK= 0.21E-02
       N       E                     dE             d eps       ncg     rms          rms(c)
DAV:   1    -0.327139936397E+03    0.13958E-02   -0.39710E-03  2912   0.723E-01    0.308E-02
RMM:   2    -0.327140099497E+03   -0.16310E-03   -0.16705E-03  1676   0.544E-02    0.135E-02
RMM:   3    -0.327140113222E+03   -0.13724E-04   -0.14413E-04  1700   0.154E-02    0.124E-02
RMM:   4    -0.327140114546E+03   -0.13242E-05   -0.15213E-05  1021   0.596E-03    0.787E-03
RMM:   5    -0.327140115738E+03   -0.11922E-05   -0.56850E-06   990   0.380E-03
   53 T=   187. E= -.32879320E+03 F= -.32714012E+03 E0= -.32716447E+03  EK= 0.17175E+01 SP= -.34E+01 SK= 0.55E-03
       N       E                     dE             d eps       ncg     rms          rms(c)
DAV:   1    -0.327166487103E+03   -0.26373E-01   -0.43135E-03  2912   0.729E-01    0.314E-02
RMM:   2    -0.327166661417E+03   -0.17431E-03   -0.17855E-03  1678   0.560E-02    0.136E-02
RMM:   3    -0.327166675124E+03   -0.13707E-04   -0.14722E-04  1706   0.156E-02    0.125E-02
RMM:   4    -0.327166676243E+03   -0.11191E-05   -0.15526E-05  1026   0.601E-03    0.806E-03
RMM:   5    -0.327166677194E+03   -0.95103E-06   -0.56689E-06   990   0.379E-03
   54 T=   191. E= -.32879360E+03 F= -.32716668E+03 E0= -.32719088E+03  EK= 0.17573E+01 SP= -.34E+01 SK= 0.83E-02
       N       E                     dE             d eps       ncg     rms          rms(c)
DAV:   1    -0.327217918998E+03   -0.51243E-01   -0.37355E-03  2896   0.752E-01    0.320E-02
RMM:   2    -0.327218080734E+03   -0.16174E-03   -0.16578E-03  1671   0.559E-02    0.137E-02
RMM:   3    -0.327218093824E+03   -0.13089E-04   -0.13685E-04  1692   0.155E-02    0.126E-02
RMM:   4    -0.327218095227E+03   -0.14035E-05   -0.15644E-05  1026   0.610E-03    0.836E-03
RMM:   5    -0.327218096543E+03   -0.13156E-05   -0.58209E-06   990   0.382E-03
   55 T=   200. E= -.32879422E+03 F= -.32721810E+03 E0= -.32724216E+03  EK= 0.18384E+01 SP= -.34E+01 SK= 0.24E-01
       N       E                     dE             d eps       ncg     rms          rms(c)
DAV:   1    -0.327289891410E+03   -0.71796E-01   -0.37951E-03  2912   0.786E-01    0.345E-02
RMM:   2    -0.327290064098E+03   -0.17269E-03   -0.17752E-03  1665   0.583E-02    0.152E-02
RMM:   3    -0.327290077857E+03   -0.13759E-04   -0.14668E-04  1735   0.160E-02    0.138E-02
RMM:   4    -0.327290078896E+03   -0.10390E-05   -0.15269E-05  1026   0.605E-03    0.874E-03
RMM:   5    -0.327290080011E+03   -0.11153E-05   -0.59167E-06   993   0.385E-03
   56 T=   213. E= -.32879538E+03 F= -.32729008E+03 E0= -.32731401E+03  EK= 0.19568E+01 SP= -.35E+01 SK= 0.45E-01
       N       E                     dE             d eps       ncg     rms          rms(c)
DAV:   1    -0.327375845684E+03   -0.85767E-01   -0.37230E-03  2896   0.828E-01    0.357E-02
RMM:   2    -0.327376021064E+03   -0.17538E-03   -0.18077E-03  1666   0.598E-02    0.172E-02
RMM:   3    -0.327376034547E+03   -0.13483E-04   -0.14591E-04  1735   0.160E-02    0.152E-02
RMM:   4    -0.327376035593E+03   -0.10459E-05   -0.15966E-05  1028   0.615E-03    0.961E-03
RMM:   5    -0.327376036858E+03   -0.12658E-05   -0.64026E-06   994   0.395E-03
   57 T=   230. E= -.32879659E+03 F= -.32737604E+03 E0= -.32739986E+03  EK= 0.21069E+01 SP= -.36E+01 SK= 0.68E-01
       N       E                     dE             d eps       ncg     rms          rms(c)
DAV:   1    -0.327468093709E+03   -0.92058E-01   -0.39016E-03  2896   0.876E-01    0.400E-02
RMM:   2    -0.327468281874E+03   -0.18817E-03   -0.19413E-03  1668   0.631E-02    0.181E-02
RMM:   3    -0.327468296620E+03   -0.14745E-04   -0.16056E-04  1772   0.167E-02    0.161E-02
RMM:   4    -0.327468297570E+03   -0.95005E-06   -0.16174E-05  1033   0.617E-03    0.104E-02
RMM:   5    -0.327468298717E+03   -0.11473E-05   -0.62975E-06  1001   0.395E-03
   58 T=   249. E= -.32879809E+03 F= -.32746830E+03 E0= -.32749205E+03  EK= 0.22810E+01 SP= -.37E+01 SK= 0.89E-01
       N       E                     dE             d eps       ncg     rms          rms(c)
DAV:   1    -0.327558551367E+03   -0.90254E-01   -0.40789E-03  2928   0.924E-01    0.409E-02
RMM:   2    -0.327558757405E+03   -0.20604E-03   -0.21226E-03  1672   0.659E-02    0.195E-02
RMM:   3    -0.327558773602E+03   -0.16197E-04   -0.17934E-04  1804   0.175E-02    0.172E-02
RMM:   4    -0.327558774208E+03   -0.60675E-06   -0.17214E-05  1045   0.627E-03    0.108E-02
RMM:   5    -0.327558775024E+03   -0.81615E-06   -0.64356E-06  1000   0.399E-03
   59 T=   269. E= -.32879957E+03 F= -.32755878E+03 E0= -.32758249E+03  EK= 0.24701E+01 SP= -.38E+01 SK= 0.10E+00
       N       E                     dE             d eps       ncg     rms          rms(c)
DAV:   1    -0.327638860495E+03   -0.80086E-01   -0.46454E-03  2912   0.971E-01    0.431E-02
RMM:   2    -0.327639092035E+03   -0.23154E-03   -0.23826E-03  1668   0.684E-02    0.198E-02
RMM:   3    -0.327639110166E+03   -0.18132E-04   -0.19922E-04  1794   0.182E-02    0.176E-02
RMM:   4    -0.327639110926E+03   -0.75937E-06   -0.19381E-05  1059   0.648E-03    0.114E-02
RMM:   5    -0.327639111843E+03   -0.91744E-06   -0.70432E-06  1003   0.417E-03
   60 T=   290. E= -.32880111E+03 F= -.32763911E+03 E0= -.32766281E+03  EK= 0.26635E+01 SP= -.39E+01 SK= 0.11E+00
       N       E                     dE             d eps       ncg     rms          rms(c)
DAV:   1    -0.327700500386E+03   -0.61389E-01   -0.57867E-03  2896   0.101E+00    0.454E-02
RMM:   2    -0.327700749806E+03   -0.24942E-03   -0.25675E-03  1666   0.712E-02    0.191E-02
RMM:   3    -0.327700769661E+03   -0.19855E-04   -0.21536E-04  1825   0.190E-02    0.171E-02
RMM:   4    -0.327700770731E+03   -0.10696E-05   -0.21103E-05  1070   0.668E-03    0.110E-02
RMM:   5    -0.327700771737E+03   -0.10057E-05   -0.69473E-06  1005   0.413E-03
   61 T=   310. E= -.32880272E+03 F= -.32770077E+03 E0= -.32772449E+03  EK= 0.28487E+01 SP= -.41E+01 SK= 0.11E+00
       N       E                     dE             d eps       ncg     rms          rms(c)
DAV:   1    -0.327736535077E+03   -0.35764E-01   -0.59688E-03  2864   0.105E+00    0.460E-02
RMM:   2    -0.327736820213E+03   -0.28514E-03   -0.29306E-03  1675   0.740E-02    0.181E-02
RMM:   3    -0.327736844456E+03   -0.24243E-04   -0.26007E-04  1890   0.203E-02    0.169E-02
RMM:   4    -0.327736845551E+03   -0.10950E-05   -0.21742E-05  1082   0.662E-03    0.119E-02
RMM:   5    -0.327736846292E+03   -0.74119E-06   -0.68677E-06  1005   0.412E-03
   62 T=   328. E= -.32880398E+03 F= -.32773685E+03 E0= -.32776059E+03  EK= 0.30141E+01 SP= -.42E+01 SK= 0.11E+00
       N       E                     dE             d eps       ncg     rms          rms(c)
DAV:   1    -0.327742584781E+03   -0.57392E-02   -0.76364E-03  2880   0.107E+00    0.492E-02
RMM:   2    -0.327742902911E+03   -0.31813E-03   -0.32706E-03  1671   0.788E-02    0.183E-02
RMM:   3    -0.327742929706E+03   -0.26794E-04   -0.28188E-04  1905   0.214E-02    0.176E-02
RMM:   4    -0.327742931240E+03   -0.15339E-05   -0.23282E-05  1091   0.679E-03    0.123E-02
RMM:   5    -0.327742932329E+03   -0.10899E-05   -0.71638E-06  1004   0.418E-03
   63 T=   343. E= -.32880459E+03 F= -.32774293E+03 E0= -.32776672E+03  EK= 0.31497E+01 SP= -.43E+01 SK= 0.92E-01
       N       E                     dE             d eps       ncg     rms          rms(c)
DAV:   1    -0.327718315761E+03    0.24615E-01   -0.69588E-03  2880   0.108E+00    0.503E-02
RMM:   2    -0.327718610002E+03   -0.29424E-03   -0.30451E-03  1668   0.761E-02    0.196E-02
RMM:   3    -0.327718633571E+03   -0.23569E-04   -0.25506E-04  1876   0.207E-02    0.187E-02
RMM:   4    -0.327718634619E+03   -0.10476E-05   -0.23297E-05  1090   0.688E-03    0.129E-02
RMM:   5    -0.327718635318E+03   -0.69918E-06   -0.76613E-06  1004   0.429E-03
   64 T=   354. E= -.32880526E+03 F= -.32771864E+03 E0= -.32774246E+03  EK= 0.32485E+01 SP= -.44E+01 SK= 0.74E-01
       N       E                     dE             d eps       ncg     rms          rms(c)
DAV:   1    -0.327663315584E+03    0.55319E-01   -0.75516E-03  2928   0.108E+00    0.542E-02
RMM:   2    -0.327663617547E+03   -0.30196E-03   -0.31270E-03  1666   0.785E-02    0.209E-02
RMM:   3    -0.327663642619E+03   -0.25072E-04   -0.27150E-04  1906   0.213E-02    0.199E-02
RMM:   4    -0.327663643562E+03   -0.94296E-06   -0.23717E-05  1089   0.689E-03    0.130E-02
RMM:   5    -0.327663644192E+03   -0.63032E-06   -0.73720E-06  1004   0.421E-03
   65 T=   360. E= -.32880492E+03 F= -.32766364E+03 E0= -.32768748E+03  EK= 0.33061E+01 SP= -.45E+01 SK= 0.57E-01
       N       E                     dE             d eps       ncg     rms          rms(c)
DAV:   1    -0.327581992271E+03    0.81651E-01   -0.86245E-03  2896   0.107E+00    0.551E-02
RMM:   2    -0.327582304578E+03   -0.31231E-03   -0.32295E-03  1664   0.807E-02    0.233E-02
RMM:   3    -0.327582328458E+03   -0.23880E-04   -0.26427E-04  1872   0.213E-02    0.219E-02
RMM:   4    -0.327582329319E+03   -0.86143E-06   -0.25289E-05  1101   0.719E-03    0.138E-02
RMM:   5    -0.327582330091E+03   -0.77198E-06   -0.72775E-06  1003   0.426E-03
   66 T=   362. E= -.32880416E+03 F= -.32758233E+03 E0= -.32760615E+03  EK= 0.33227E+01 SP= -.46E+01 SK= 0.40E-01
       N       E                     dE             d eps       ncg     rms          rms(c)
DAV:   1    -0.327482537372E+03    0.99792E-01   -0.94027E-03  2928   0.105E+00    0.581E-02
RMM:   2    -0.327482864925E+03   -0.32755E-03   -0.33964E-03  1669   0.837E-02    0.250E-02
RMM:   3    -0.327482891338E+03   -0.26412E-04   -0.29360E-04  1886   0.220E-02    0.235E-02
RMM:   4    -0.327482892150E+03   -0.81224E-06   -0.28025E-05  1113   0.733E-03    0.147E-02
RMM:   5    -0.327482892725E+03   -0.57486E-06   -0.74081E-06  1002   0.429E-03
   67 T=   360. E= -.32880323E+03 F= -.32748289E+03 E0= -.32750664E+03  EK= 0.33045E+01 SP= -.47E+01 SK= 0.26E-01
       N       E                     dE             d eps       ncg     rms          rms(c)
DAV:   1    -0.327375725100E+03    0.10717E+00   -0.89374E-03  2944   0.102E+00    0.591E-02
RMM:   2    -0.327376078974E+03   -0.35387E-03   -0.36681E-03  1665   0.848E-02    0.251E-02
RMM:   3    -0.327376108592E+03   -0.29617E-04   -0.32435E-04  1907   0.226E-02    0.234E-02
RMM:   4    -0.327376109353E+03   -0.76116E-06   -0.28207E-05  1114   0.736E-03    0.143E-02
RMM:   5    -0.327376110091E+03   -0.73838E-06   -0.77579E-06  1004   0.436E-03
   68 T=   355. E= -.32880205E+03 F= -.32737611E+03 E0= -.32739971E+03  EK= 0.32623E+01 SP= -.47E+01 SK= 0.16E-01
       N       E                     dE             d eps       ncg     rms          rms(c)
DAV:   1    -0.327273274737E+03    0.10283E+00   -0.93310E-03  2960   0.978E-01    0.576E-02
RMM:   2    -0.327273630062E+03   -0.35532E-03   -0.36697E-03  1666   0.868E-02    0.248E-02
RMM:   3    -0.327273658518E+03   -0.28456E-04   -0.31172E-04  1906   0.228E-02    0.234E-02
RMM:   4    -0.327273659567E+03   -0.10482E-05   -0.28404E-05  1122   0.744E-03    0.152E-02
RMM:   5    -0.327273660340E+03   -0.77337E-06   -0.76039E-06  1005   0.435E-03
   69 T=   350. E= -.32880067E+03 F= -.32727366E+03 E0= -.32729705E+03  EK= 0.32089E+01 SP= -.47E+01 SK= 0.90E-02
       N       E                     dE             d eps       ncg     rms          rms(c)
DAV:   1    -0.327187806687E+03    0.85853E-01   -0.93846E-03  2896   0.939E-01    0.553E-02
RMM:   2    -0.327188155045E+03   -0.34836E-03   -0.35938E-03  1669   0.856E-02    0.251E-02
RMM:   3    -0.327188183048E+03   -0.28003E-04   -0.30620E-04  1902   0.225E-02    0.236E-02
RMM:   4    -0.327188183912E+03   -0.86446E-06   -0.26853E-05  1112   0.729E-03    0.148E-02
RMM:   5    -0.327188184514E+03   -0.60219E-06   -0.78523E-06  1001   0.440E-03
   70 T=   344. E= -.32879954E+03 F= -.32718818E+03 E0= -.32721126E+03  EK= 0.31585E+01 SP= -.48E+01 SK= 0.44E-02
       N       E                     dE             d eps       ncg     rms          rms(c)
DAV:   1    -0.327131091417E+03    0.57092E-01   -0.84289E-03  2912   0.905E-01    0.570E-02
RMM:   2    -0.327131404105E+03   -0.31269E-03   -0.32397E-03  1666   0.828E-02    0.237E-02
RMM:   3    -0.327131428132E+03   -0.24026E-04   -0.26935E-04  1886   0.215E-02    0.223E-02
RMM:   4    -0.327131428640E+03   -0.50822E-06   -0.25081E-05  1086   0.720E-03    0.138E-02
RMM:   5    -0.327131429230E+03   -0.58991E-06   -0.74374E-06  1003   0.430E-03
   71 T=   340. E= -.32879898E+03 F= -.32713143E+03 E0= -.32715408E+03  EK= 0.31244E+01 SP= -.48E+01 SK= 0.16E-02
       N       E                     dE             d eps       ncg     rms          rms(c)
DAV:   1    -0.327110823951E+03    0.20605E-01   -0.69657E-03  2848   0.879E-01    0.508E-02
RMM:   2    -0.327111075819E+03   -0.25187E-03   -0.26110E-03  1665   0.762E-02    0.249E-02
RMM:   3    -0.327111095624E+03   -0.19805E-04   -0.22324E-04  1847   0.196E-02    0.234E-02
RMM:   4    -0.327111096052E+03   -0.42795E-06   -0.20757E-05  1067   0.672E-03    0.148E-02
RMM:   5    -0.327111096999E+03   -0.94714E-06   -0.75787E-06  1004   0.429E-03
   72 T=   340. E= -.32879848E+03 F= -.32711110E+03 E0= -.32713322E+03  EK= 0.31160E+01 SP= -.48E+01 SK= 0.24E-03
       N       E                     dE             d eps       ncg     rms          rms(c)
DAV:   1    -0.327133328741E+03   -0.22233E-01   -0.61664E-03  2880   0.867E-01    0.545E-02
RMM:   2    -0.327133587769E+03   -0.25903E-03   -0.26950E-03  1666   0.746E-02    0.208E-02
RMM:   3    -0.327133610152E+03   -0.22383E-04   -0.24956E-04  1865   0.197E-02    0.198E-02
RMM:   4    -0.327133610588E+03   -0.43590E-06   -0.21601E-05  1075   0.674E-03    0.120E-02
RMM:   5    -0.327133611285E+03   -0.69768E-06   -0.65829E-06  1003   0.410E-03
   73 T=   342. E= -.32879870E+03 F= -.32713361E+03 E0= -.32715510E+03  EK= 0.31397E+01 SP= -.48E+01 SK= 0.94E-04
       N       E                     dE             d eps       ncg     rms          rms(c)
DAV:   1    -0.327198675966E+03   -0.65065E-01   -0.70373E-03  2832   0.872E-01    0.484E-02
RMM:   2    -0.327198970470E+03   -0.29450E-03   -0.30278E-03  1670   0.768E-02    0.228E-02
RMM:   3    -0.327198995504E+03   -0.25033E-04   -0.27325E-04  1853   0.204E-02    0.217E-02
RMM:   4    -0.327198996289E+03   -0.78541E-06   -0.21745E-05  1075   0.678E-03    0.140E-02
RMM:   5    -0.327198997281E+03   -0.99220E-06   -0.75629E-06  1000   0.432E-03
   74 T=   348. E= -.32879969E+03 F= -.32719900E+03 E0= -.32721978E+03  EK= 0.31944E+01 SP= -.48E+01 SK= 0.14E-02
       N       E                     dE             d eps       ncg     rms          rms(c)
DAV:   1    -0.327300913470E+03   -0.10192E+00   -0.70906E-03  2848   0.893E-01    0.505E-02
RMM:   2    -0.327301190331E+03   -0.27686E-03   -0.28574E-03  1665   0.761E-02    0.198E-02
RMM:   3    -0.327301213822E+03   -0.23491E-04   -0.25071E-04  1843   0.200E-02    0.190E-02
RMM:   4    -0.327301214991E+03   -0.11694E-05   -0.20567E-05  1067   0.669E-03    0.126E-02
RMM:   5    -0.327301216178E+03   -0.11869E-05   -0.67555E-06  1001   0.414E-03
   75 T=   357. E= -.32880112E+03 F= -.32730122E+03 E0= -.32732128E+03  EK= 0.32726E+01 SP= -.48E+01 SK= 0.48E-02
       N       E                     dE             d eps       ncg     rms          rms(c)
DAV:   1    -0.327431250543E+03   -0.13004E+00   -0.53215E-03  2896   0.924E-01    0.488E-02
RMM:   2    -0.327431523752E+03   -0.27321E-03   -0.28189E-03  1675   0.747E-02    0.218E-02
RMM:   3    -0.327431547513E+03   -0.23761E-04   -0.25958E-04  1862   0.199E-02    0.203E-02
RMM:   4    -0.327431548239E+03   -0.72565E-06   -0.21469E-05  1070   0.673E-03    0.130E-02
RMM:   5    -0.327431549001E+03   -0.76257E-06   -0.72584E-06  1002   0.424E-03
   76 T=   366. E= -.32880269E+03 F= -.32743155E+03 E0= -.32745092E+03  EK= 0.33626E+01 SP= -.47E+01 SK= 0.12E-01
       N       E                     dE             d eps       ncg     rms          rms(c)
DAV:   1    -0.327578511197E+03   -0.14696E+00   -0.56397E-03  2848   0.959E-01    0.506E-02
RMM:   2    -0.327578811606E+03   -0.30041E-03   -0.31056E-03  1667   0.780E-02    0.229E-02
RMM:   3    -0.327578836878E+03   -0.25273E-04   -0.27383E-04  1879   0.207E-02    0.213E-02
RMM:   4    -0.327578837593E+03   -0.71459E-06   -0.21893E-05  1073   0.682E-03    0.140E-02
RMM:   5    -0.327578838439E+03   -0.84555E-06   -0.77245E-06  1002   0.434E-03
   77 T=   376. E= -.32880438E+03 F= -.32757884E+03 E0= -.32759761E+03  EK= 0.34499E+01 SP= -.47E+01 SK= 0.23E-01
       N       E                     dE             d eps       ncg     rms          rms(c)
DAV:   1    -0.327729541924E+03   -0.15070E+00   -0.69391E-03  2816   0.993E-01    0.549E-02
RMM:   2    -0.327729872837E+03   -0.33091E-03   -0.34078E-03  1667   0.832E-02    0.239E-02
RMM:   3    -0.327729899309E+03   -0.26472E-04   -0.28809E-04  1899   0.217E-02    0.220E-02
RMM:   4    -0.327729900179E+03   -0.86936E-06   -0.23429E-05  1085   0.701E-03    0.141E-02
RMM:   5    -0.327729901197E+03   -0.10188E-05   -0.79258E-06  1005   0.439E-03
   78 T=   383. E= -.32880570E+03 F= -.32772990E+03 E0= -.32774821E+03  EK= 0.35182E+01 SP= -.46E+01 SK= 0.40E-01
       N       E                     dE             d eps       ncg     rms          rms(c)
DAV:   1    -0.327872941002E+03   -0.14304E+00   -0.63912E-03  2832   0.102E+00    0.523E-02
RMM:   2    -0.327873256000E+03   -0.31500E-03   -0.32567E-03  1676   0.808E-02    0.245E-02
RMM:   3    -0.327873282730E+03   -0.26731E-04   -0.29598E-04  1928   0.214E-02    0.222E-02
RMM:   4    -0.327873282974E+03   -0.24322E-06   -0.22952E-05  1077   0.683E-03    0.139E-02
RMM:   5    -0.327873283613E+03   -0.63897E-06   -0.79504E-06  1005   0.436E-03
   79 T=   387. E= -.32880710E+03 F= -.32787328E+03 E0= -.32789127E+03  EK= 0.35533E+01 SP= -.46E+01 SK= 0.64E-01
       N       E                     dE             d eps       ncg     rms          rms(c)
DAV:   1    -0.327998264545E+03   -0.12498E+00   -0.62958E-03  2880   0.104E+00    0.519E-02
RMM:   2    -0.327998585152E+03   -0.32061E-03   -0.33198E-03  1673   0.803E-02    0.240E-02
RMM:   3    -0.327998612454E+03   -0.27303E-04   -0.29802E-04  1908   0.215E-02    0.218E-02
RMM:   4    -0.327998613047E+03   -0.59262E-06   -0.24238E-05  1082   0.705E-03    0.131E-02
RMM:   5    -0.327998614142E+03   -0.10952E-05   -0.79644E-06  1007   0.439E-03
   80 T=   386. E= -.32880775E+03 F= -.32799861E+03 E0= -.32801642E+03  EK= 0.35454E+01 SP= -.44E+01 SK= 0.94E-01
       N       E                     dE             d eps       ncg     rms          rms(c)
DAV:   1    -0.328099677244E+03   -0.10106E+00   -0.65879E-03  2848   0.105E+00    0.512E-02
RMM:   2    -0.328099989288E+03   -0.31204E-03   -0.32424E-03  1668   0.795E-02    0.227E-02
RMM:   3    -0.328100014757E+03   -0.25469E-04   -0.27921E-04  1899   0.214E-02    0.210E-02
RMM:   4    -0.328100015197E+03   -0.43942E-06   -0.23181E-05  1083   0.699E-03    0.133E-02
RMM:   5    -0.328100016131E+03   -0.93410E-06   -0.82432E-06  1007   0.443E-03
   81 T=   380. E= -.32880808E+03 F= -.32810002E+03 E0= -.32811776E+03  EK= 0.34902E+01 SP= -.43E+01 SK= 0.13E+00
       N       E                     dE             d eps       ncg     rms          rms(c)
DAV:   1    -0.328173718726E+03   -0.73704E-01   -0.61915E-03  2896   0.105E+00    0.484E-02
RMM:   2    -0.328174013276E+03   -0.29455E-03   -0.30628E-03  1674   0.759E-02    0.200E-02
RMM:   3    -0.328174038986E+03   -0.25710E-04   -0.27834E-04  1903   0.208E-02    0.191E-02
RMM:   4    -0.328174039559E+03   -0.57289E-06   -0.21941E-05  1078   0.677E-03    0.126E-02
RMM:   5    -0.328174040060E+03   -0.50159E-06   -0.73356E-06  1008   0.421E-03
   82 T=   369. E= -.32880784E+03 F= -.32817404E+03 E0= -.32819183E+03  EK= 0.33890E+01 SP= -.42E+01 SK= 0.16E+00
       N       E                     dE             d eps       ncg     rms          rms(c)
DAV:   1    -0.328220753375E+03   -0.46714E-01   -0.56277E-03  2896   0.103E+00    0.480E-02
RMM:   2    -0.328221028290E+03   -0.27491E-03   -0.28613E-03  1670   0.729E-02    0.172E-02
RMM:   3    -0.328221053076E+03   -0.24786E-04   -0.26423E-04  1897   0.204E-02    0.168E-02
RMM:   4    -0.328221053982E+03   -0.90573E-06   -0.20393E-05  1069   0.660E-03    0.115E-02
RMM:   5    -0.328221054624E+03   -0.64196E-06   -0.67686E-06  1008   0.407E-03
   83 T=   354. E= -.32880723E+03 F= -.32822105E+03 E0= -.32823894E+03  EK= 0.32486E+01 SP= -.40E+01 SK= 0.19E+00
       N       E                     dE             d eps       ncg     rms          rms(c)
DAV:   1    -0.328244616035E+03   -0.23562E-01   -0.60740E-03  2896   0.101E+00    0.433E-02
RMM:   2    -0.328244883220E+03   -0.26719E-03   -0.27734E-03  1671   0.717E-02    0.181E-02
RMM:   3    -0.328244906919E+03   -0.23698E-04   -0.25236E-04  1877   0.200E-02    0.176E-02
RMM:   4    -0.328244907811E+03   -0.89220E-06   -0.19298E-05  1065   0.655E-03    0.124E-02
RMM:   5    -0.328244908529E+03   -0.71853E-06   -0.73488E-06  1002   0.422E-03
   84 T=   336. E= -.32880624E+03 F= -.32824491E+03 E0= -.32826293E+03  EK= 0.30801E+01 SP= -.39E+01 SK= 0.22E+00
       N       E                     dE             d eps       ncg     rms          rms(c)
DAV:   1    -0.328250751278E+03   -0.58435E-02   -0.61795E-03  2880   0.975E-01    0.451E-02
RMM:   2    -0.328251043557E+03   -0.29228E-03   -0.30319E-03  1681   0.723E-02    0.163E-02
RMM:   3    -0.328251070605E+03   -0.27048E-04   -0.28650E-04  1888   0.204E-02    0.157E-02
RMM:   4    -0.328251071491E+03   -0.88575E-06   -0.20192E-05  1076   0.658E-03    0.105E-02
RMM:   5    -0.328251072012E+03   -0.52131E-06   -0.65876E-06  1007   0.407E-03
   85 T=   316. E= -.32880522E+03 F= -.32825107E+03 E0= -.32826922E+03  EK= 0.28960E+01 SP= -.37E+01 SK= 0.23E+00
       N       E                     dE             d eps       ncg     rms          rms(c)
DAV:   1    -0.328245522987E+03    0.55485E-02   -0.85512E-03  2832   0.940E-01    0.450E-02
RMM:   2    -0.328245836467E+03   -0.31348E-03   -0.32210E-03  1673   0.760E-02    0.171E-02
RMM:   3    -0.328245863059E+03   -0.26592E-04   -0.28164E-04  1868   0.208E-02    0.166E-02
RMM:   4    -0.328245864359E+03   -0.13000E-05   -0.22099E-05  1085   0.677E-03    0.113E-02
RMM:   5    -0.328245865147E+03   -0.78744E-06   -0.68244E-06  1004   0.414E-03
   86 T=   295. E= -.32880440E+03 F= -.32824587E+03 E0= -.32826414E+03  EK= 0.27086E+01 SP= -.35E+01 SK= 0.24E+00
       N       E                     dE             d eps       ncg     rms          rms(c)
DAV:   1    -0.328234394422E+03    0.11470E-01   -0.72746E-03  2864   0.904E-01    0.438E-02
RMM:   2    -0.328234704710E+03   -0.31029E-03   -0.31901E-03  1690   0.732E-02    0.156E-02
RMM:   3    -0.328234731059E+03   -0.26349E-04   -0.28615E-04  1874   0.202E-02    0.148E-02
RMM:   4    -0.328234732277E+03   -0.12178E-05   -0.19337E-05  1065   0.639E-03    0.101E-02
RMM:   5    -0.328234733082E+03   -0.80511E-06   -0.61713E-06  1005   0.396E-03
   87 T=   276. E= -.32880322E+03 F= -.32823473E+03 E0= -.32825311E+03  EK= 0.25286E+01 SP= -.33E+01 SK= 0.23E+00
       N       E                     dE             d eps       ncg     rms          rms(c)
DAV:   1    -0.328223572984E+03    0.11159E-01   -0.62337E-03  2896   0.865E-01    0.409E-02
RMM:   2    -0.328223815931E+03   -0.24295E-03   -0.25092E-03  1672   0.686E-02    0.155E-02
RMM:   3    -0.328223837997E+03   -0.22066E-04   -0.23403E-04  1838   0.189E-02    0.147E-02
RMM:   4    -0.328223838870E+03   -0.87361E-06   -0.17481E-05  1048   0.635E-03    0.930E-03
RMM:   5    -0.328223839454E+03   -0.58363E-06   -0.63377E-06  1002   0.398E-03
   88 T=   258. E= -.32880240E+03 F= -.32822384E+03 E0= -.32824231E+03  EK= 0.23646E+01 SP= -.32E+01 SK= 0.21E+00
       N       E                     dE             d eps       ncg     rms          rms(c)
DAV:   1    -0.328217499305E+03    0.63396E-02   -0.48877E-03  2896   0.831E-01    0.383E-02
RMM:   2    -0.328217701936E+03   -0.20263E-03   -0.20999E-03  1681   0.621E-02    0.138E-02
RMM:   3    -0.328217720738E+03   -0.18802E-04   -0.20005E-04  1812   0.174E-02    0.132E-02
RMM:   4    -0.328217721627E+03   -0.88885E-06   -0.14934E-05  1031   0.595E-03    0.878E-03
RMM:   5    -0.328217722350E+03   -0.72259E-06   -0.57339E-06  1001   0.381E-03
   89 T=   242. E= -.32880143E+03 F= -.32821772E+03 E0= -.32823627E+03  EK= 0.22229E+01 SP= -.30E+01 SK= 0.18E+00
       N       E                     dE             d eps       ncg     rms          rms(c)
DAV:   1    -0.328220191243E+03   -0.24696E-02   -0.49516E-03  2864   0.802E-01    0.366E-02
RMM:   2    -0.328220378409E+03   -0.18717E-03   -0.19354E-03  1671   0.597E-02    0.130E-02
RMM:   3    -0.328220395195E+03   -0.16786E-04   -0.17816E-04  1759   0.167E-02    0.127E-02
RMM:   4    -0.328220396152E+03   -0.95696E-06   -0.14377E-05  1022   0.595E-03    0.902E-03
RMM:   5    -0.328220396804E+03   -0.65150E-06   -0.58293E-06  1001   0.386E-03
   90 T=   230. E= -.32880058E+03 F= -.32822040E+03 E0= -.32823901E+03  EK= 0.21079E+01 SP= -.28E+01 SK= 0.15E+00
       N       E                     dE             d eps       ncg     rms          rms(c)
DAV:   1    -0.328234473477E+03   -0.14077E-01   -0.44810E-03  2832   0.780E-01    0.352E-02
RMM:   2    -0.328234644192E+03   -0.17071E-03   -0.17684E-03  1671   0.559E-02    0.129E-02
RMM:   3    -0.328234659626E+03   -0.15434E-04   -0.16572E-04  1696   0.158E-02    0.124E-02
RMM:   4    -0.328234660459E+03   -0.83279E-06   -0.13895E-05  1027   0.584E-03    0.836E-03
RMM:   5    -0.328234661017E+03   -0.55825E-06   -0.56635E-06   995   0.382E-03
   91 T=   220. E= -.32879996E+03 F= -.32823466E+03 E0= -.32825334E+03  EK= 0.20216E+01 SP= -.27E+01 SK= 0.12E+00
       N       E                     dE             d eps       ncg     rms          rms(c)
DAV:   1    -0.328262323344E+03   -0.27663E-01   -0.48721E-03  2864   0.767E-01    0.340E-02
RMM:   2    -0.328262497709E+03   -0.17436E-03   -0.18025E-03  1676   0.568E-02    0.143E-02
RMM:   3    -0.328262512891E+03   -0.15182E-04   -0.16443E-04  1704   0.159E-02    0.137E-02
RMM:   4    -0.328262513717E+03   -0.82593E-06   -0.13813E-05  1022   0.590E-03    0.932E-03
RMM:   5    -0.328262514455E+03   -0.73836E-06   -0.58153E-06   993   0.387E-03
   92 T=   214. E= -.32879962E+03 F= -.32826251E+03 E0= -.32828126E+03  EK= 0.19652E+01 SP= -.26E+01 SK= 0.84E-01
       N       E                     dE             d eps       ncg     rms          rms(c)
DAV:   1    -0.328304008000E+03   -0.41494E-01   -0.46106E-03  2832   0.763E-01    0.353E-02
RMM:   2    -0.328304174484E+03   -0.16648E-03   -0.17210E-03  1674   0.553E-02    0.130E-02
RMM:   3    -0.328304188158E+03   -0.13674E-04   -0.14786E-04  1634   0.153E-02    0.124E-02
RMM:   4    -0.328304189176E+03   -0.10184E-05   -0.14820E-05  1037   0.597E-03    0.820E-03
RMM:   5    -0.328304189876E+03   -0.69944E-06   -0.55450E-06   996   0.380E-03
   93 T=   211. E= -.32879953E+03 F= -.32830419E+03 E0= -.32832299E+03  EK= 0.19380E+01 SP= -.25E+01 SK= 0.56E-01
       N       E                     dE             d eps       ncg     rms          rms(c)
DAV:   1    -0.328357685011E+03   -0.53496E-01   -0.42612E-03  2784   0.766E-01    0.354E-02
RMM:   2    -0.328357836602E+03   -0.15159E-03   -0.15722E-03  1669   0.545E-02    0.138E-02
RMM:   3    -0.328357848431E+03   -0.11829E-04   -0.13179E-04  1620   0.150E-02    0.134E-02
RMM:   4    -0.328357849183E+03   -0.75126E-06   -0.14203E-05  1025   0.601E-03    0.928E-03
RMM:   5    -0.328357849654E+03   -0.47145E-06   -0.59523E-06   987   0.391E-03
   94 T=   211. E= -.32879949E+03 F= -.32835785E+03 E0= -.32837670E+03  EK= 0.19374E+01 SP= -.24E+01 SK= 0.33E-01
       N       E                     dE             d eps       ncg     rms          rms(c)
DAV:   1    -0.328422096082E+03   -0.64247E-01   -0.39728E-03  2816   0.776E-01    0.349E-02
RMM:   2    -0.328422246015E+03   -0.14993E-03   -0.15562E-03  1666   0.539E-02    0.139E-02
RMM:   3    -0.328422258435E+03   -0.12420E-04   -0.13475E-04  1649   0.152E-02    0.136E-02
RMM:   4    -0.328422259404E+03   -0.96905E-06   -0.14622E-05  1025   0.600E-03    0.975E-03
RMM:   5    -0.328422260040E+03   -0.63583E-06   -0.59660E-06   993   0.388E-03
   95 T=   214. E= -.32879978E+03 F= -.32842226E+03 E0= -.32844114E+03  EK= 0.19612E+01 SP= -.24E+01 SK= 0.16E-01
       N       E                     dE             d eps       ncg     rms          rms(c)
DAV:   1    -0.328493886890E+03   -0.71627E-01   -0.37878E-03  2832   0.792E-01    0.358E-02
RMM:   2    -0.328494035209E+03   -0.14832E-03   -0.15407E-03  1675   0.536E-02    0.132E-02
RMM:   3    -0.328494048016E+03   -0.12808E-04   -0.14000E-04  1682   0.152E-02    0.127E-02
RMM:   4    -0.328494048800E+03   -0.78326E-06   -0.14289E-05  1025   0.592E-03    0.858E-03
RMM:   5    -0.328494049359E+03   -0.55910E-06   -0.55758E-06   992   0.378E-03
   96 T=   219. E= -.32879998E+03 F= -.32849405E+03 E0= -.32851295E+03  EK= 0.20059E+01 SP= -.23E+01 SK= 0.58E-02
       N       E                     dE             d eps       ncg     rms          rms(c)
DAV:   1    -0.328569679008E+03   -0.75630E-01   -0.41311E-03  2880   0.811E-01    0.363E-02
RMM:   2    -0.328569844216E+03   -0.16521E-03   -0.17069E-03  1669   0.566E-02    0.142E-02
RMM:   3    -0.328569857359E+03   -0.13143E-04   -0.14408E-04  1685   0.157E-02    0.138E-02
RMM:   4    -0.328569858182E+03   -0.82327E-06   -0.14779E-05  1028   0.604E-03    0.963E-03
RMM:   5    -0.328569858682E+03   -0.49944E-06   -0.59105E-06   993   0.388E-03
   97 T=   225. E= -.32880053E+03 F= -.32856986E+03 E0= -.32858876E+03  EK= 0.20673E+01 SP= -.23E+01 SK= 0.80E-03
       N       E                     dE             d eps       ncg     rms          rms(c)
DAV:   1    -0.328644995162E+03   -0.75137E-01   -0.46811E-03  2816   0.832E-01    0.377E-02
RMM:   2    -0.328645176730E+03   -0.18157E-03   -0.18752E-03  1667   0.590E-02    0.144E-02
RMM:   3    -0.328645190379E+03   -0.13649E-04   -0.14838E-04  1698   0.162E-02    0.139E-02
RMM:   4    -0.328645191394E+03   -0.10145E-05   -0.15110E-05  1028   0.610E-03    0.973E-03
RMM:   5    -0.328645192156E+03   -0.76177E-06   -0.59774E-06   991   0.390E-03
   98 T=   233. E= -.32880102E+03 F= -.32864519E+03 E0= -.32866409E+03  EK= 0.21408E+01 SP= -.23E+01 SK= 0.23E-03
       N       E                     dE             d eps       ncg     rms          rms(c)
DAV:   1    -0.328715806159E+03   -0.70615E-01   -0.51762E-03  2848   0.854E-01    0.400E-02
RMM:   2    -0.328716008285E+03   -0.20213E-03   -0.20855E-03  1669   0.624E-02    0.151E-02
RMM:   3    -0.328716024086E+03   -0.15801E-04   -0.17310E-04  1780   0.172E-02    0.147E-02
RMM:   4    -0.328716024985E+03   -0.89889E-06   -0.16066E-05  1037   0.613E-03    0.106E-02
RMM:   5    -0.328716025523E+03   -0.53813E-06   -0.61665E-06   992   0.391E-03
   99 T=   242. E= -.32880185E+03 F= -.32871603E+03 E0= -.32873493E+03  EK= 0.22213E+01 SP= -.23E+01 SK= 0.29E-02
       N       E                     dE             d eps       ncg     rms          rms(c)
DAV:   1    -0.328778055182E+03   -0.62030E-01   -0.47918E-03  2864   0.876E-01    0.403E-02
RMM:   2    -0.328778252892E+03   -0.19771E-03   -0.20443E-03  1673   0.608E-02    0.152E-02
RMM:   3    -0.328778269927E+03   -0.17034E-04   -0.18643E-04  1807   0.172E-02    0.146E-02
RMM:   4    -0.328778270687E+03   -0.76061E-06   -0.16332E-05  1041   0.607E-03    0.996E-03
RMM:   5    -0.328778271127E+03   -0.43922E-06   -0.60913E-06   995   0.390E-03
  100 T=   251. E= -.32880279E+03 F= -.32877827E+03 E0= -.32879719E+03  EK= 0.23044E+01 SP= -.23E+01 SK= 0.75E-02
       N       E                     dE             d eps       ncg     rms          rms(c)
DAV:   1    -0.328828762295E+03   -0.50492E-01   -0.54724E-03  2816   0.892E-01    0.413E-02
RMM:   2    -0.328828978014E+03   -0.21572E-03   -0.22294E-03  1669   0.638E-02    0.168E-02
RMM:   3    -0.328828994573E+03   -0.16559E-04   -0.18503E-04  1786   0.177E-02    0.163E-02
RMM:   4    -0.328828995290E+03   -0.71658E-06   -0.17351E-05  1045   0.629E-03    0.116E-02
RMM:   5    -0.328828995672E+03   -0.38176E-06   -0.65997E-06   995   0.404E-03
  101 T=   260. E= -.32880336E+03 F= -.32882900E+03 E0= -.32884798E+03  EK= 0.23864E+01 SP= -.24E+01 SK= 0.13E-01
       N       E                     dE             d eps       ncg     rms          rms(c)
DAV:   1    -0.328866018378E+03   -0.37023E-01   -0.55405E-03  2848   0.905E-01    0.444E-02
RMM:   2    -0.328866214485E+03   -0.19611E-03   -0.20401E-03  1668   0.628E-02    0.164E-02
RMM:   3    -0.328866229826E+03   -0.15341E-04   -0.17175E-04  1751   0.171E-02    0.158E-02
RMM:   4    -0.328866230341E+03   -0.51472E-06   -0.15804E-05  1033   0.618E-03    0.104E-02
RMM:   5    -0.328866230761E+03   -0.42031E-06   -0.62481E-06   996   0.396E-03
  102 T=   268. E= -.32880389E+03 F= -.32886623E+03 E0= -.32888533E+03  EK= 0.24641E+01 SP= -.24E+01 SK= 0.18E-01
       N       E                     dE             d eps       ncg     rms          rms(c)
DAV:   1    -0.328887083589E+03   -0.20853E-01   -0.55635E-03  2944   0.914E-01    0.442E-02
RMM:   2    -0.328887292339E+03   -0.20875E-03   -0.21701E-03  1670   0.650E-02    0.186E-02
RMM:   3    -0.328887308202E+03   -0.15863E-04   -0.18305E-04  1786   0.178E-02    0.178E-02
RMM:   4    -0.328887308518E+03   -0.31569E-06   -0.17631E-05  1049   0.640E-03    0.125E-02
RMM:   5    -0.328887308735E+03   -0.21727E-06   -0.69282E-06  1001   0.408E-03
  103 T=   276. E= -.32880393E+03 F= -.32888731E+03 E0= -.32890658E+03  EK= 0.25338E+01 SP= -.25E+01 SK= 0.23E-01
       N       E                     dE             d eps       ncg     rms          rms(c)
DAV:   1    -0.328892117509E+03   -0.48090E-02   -0.59957E-03  2896   0.918E-01    0.455E-02
RMM:   2    -0.328892344146E+03   -0.22664E-03   -0.23546E-03  1667   0.672E-02    0.183E-02
RMM:   3    -0.328892361988E+03   -0.17842E-04   -0.19721E-04  1824   0.184E-02    0.174E-02
RMM:   4    -0.328892362723E+03   -0.73446E-06   -0.18140E-05  1048   0.638E-03    0.116E-02
RMM:   5    -0.328892363289E+03   -0.56586E-06   -0.65089E-06  1001   0.399E-03
  104 T=   283. E= -.32880405E+03 F= -.32889236E+03 E0= -.32891188E+03  EK= 0.25937E+01 SP= -.25E+01 SK= 0.27E-01
       N       E                     dE             d eps       ncg     rms          rms(c)
DAV:   1    -0.328882186583E+03    0.10176E-01   -0.64696E-03  2848   0.917E-01    0.463E-02
RMM:   2    -0.328882429184E+03   -0.24260E-03   -0.25190E-03  1672   0.695E-02    0.191E-02
RMM:   3    -0.328882448410E+03   -0.19226E-04   -0.21822E-04  1856   0.191E-02    0.182E-02
RMM:   4    -0.328882448590E+03   -0.18077E-06   -0.18097E-05  1047   0.643E-03    0.123E-02
RMM:   5    -0.328882448846E+03   -0.25559E-06   -0.70089E-06   998   0.413E-03
  105 T=   288. E= -.32880413E+03 F= -.32888245E+03 E0= -.32890228E+03  EK= 0.26436E+01 SP= -.26E+01 SK= 0.30E-01
       N       E                     dE             d eps       ncg     rms          rms(c)
DAV:   1    -0.328859773787E+03    0.22675E-01   -0.66204E-03  2896   0.913E-01    0.461E-02
RMM:   2    -0.328860047853E+03   -0.27407E-03   -0.28349E-03  1685   0.721E-02    0.195E-02
RMM:   3    -0.328860069470E+03   -0.21617E-04   -0.24018E-04  1866   0.198E-02    0.187E-02
RMM:   4    -0.328860070118E+03   -0.64824E-06   -0.19617E-05  1057   0.655E-03    0.136E-02
RMM:   5    -0.328860070279E+03   -0.16144E-06   -0.70130E-06  1001   0.418E-03
  106 T=   293. E= -.32880394E+03 F= -.32886007E+03 E0= -.32888028E+03  EK= 0.26849E+01 SP= -.27E+01 SK= 0.33E-01
       N       E                     dE             d eps       ncg     rms          rms(c)
DAV:   1    -0.328829682835E+03    0.30387E-01   -0.75980E-03  2832   0.905E-01    0.490E-02
RMM:   2    -0.328829983246E+03   -0.30041E-03   -0.31023E-03  1672   0.758E-02    0.196E-02
RMM:   3    -0.328830006710E+03   -0.23464E-04   -0.25599E-04  1875   0.207E-02    0.188E-02
RMM:   4    -0.328830007659E+03   -0.94903E-06   -0.22704E-05  1086   0.683E-03    0.121E-02
RMM:   5    -0.328830008159E+03   -0.50047E-06   -0.71875E-06  1003   0.419E-03
  107 T=   297. E= -.32880370E+03 F= -.32883001E+03 E0= -.32885067E+03  EK= 0.27212E+01 SP= -.27E+01 SK= 0.34E-01
       N       E                     dE             d eps       ncg     rms          rms(c)
DAV:   1    -0.328797012500E+03    0.32995E-01   -0.83854E-03  2896   0.896E-01    0.506E-02
RMM:   2    -0.328797326250E+03   -0.31375E-03   -0.32333E-03  1669   0.788E-02    0.200E-02
RMM:   3    -0.328797350755E+03   -0.24505E-04   -0.27120E-04  1883   0.212E-02    0.195E-02
RMM:   4    -0.328797351442E+03   -0.68738E-06   -0.22635E-05  1089   0.693E-03    0.132E-02
RMM:   5    -0.328797351686E+03   -0.24372E-06   -0.69666E-06  1001   0.418E-03
  108 T=   300. E= -.32880342E+03 F= -.32879735E+03 E0= -.32881851E+03  EK= 0.27566E+01 SP= -.28E+01 SK= 0.34E-01
       N       E                     dE             d eps       ncg     rms          rms(c)
DAV:   1    -0.328766990274E+03    0.30361E-01   -0.77235E-03  2816   0.889E-01    0.488E-02
RMM:   2    -0.328767293674E+03   -0.30340E-03   -0.31282E-03  1678   0.768E-02    0.214E-02
RMM:   3    -0.328767319623E+03   -0.25950E-04   -0.28203E-04  1910   0.210E-02    0.203E-02
RMM:   4    -0.328767320573E+03   -0.94931E-06   -0.22617E-05  1085   0.678E-03    0.133E-02
RMM:   5    -0.328767321035E+03   -0.46274E-06   -0.68561E-06  1003   0.416E-03
  109 T=   305. E= -.32880343E+03 F= -.32876732E+03 E0= -.32878903E+03  EK= 0.27951E+01 SP= -.29E+01 SK= 0.34E-01
       N       E                     dE             d eps       ncg     rms          rms(c)
DAV:   1    -0.328743600914E+03    0.23720E-01   -0.79403E-03  2880   0.883E-01    0.527E-02
RMM:   2    -0.328743926255E+03   -0.32534E-03   -0.33546E-03  1670   0.793E-02    0.213E-02
RMM:   3    -0.328743953041E+03   -0.26785E-04   -0.29175E-04  1913   0.216E-02    0.202E-02
RMM:   4    -0.328743954017E+03   -0.97595E-06   -0.24414E-05  1094   0.696E-03    0.129E-02
RMM:   5    -0.328743954565E+03   -0.54842E-06   -0.68794E-06  1003   0.418E-03
  110 T=   310. E= -.32880317E+03 F= -.32874395E+03 E0= -.32876624E+03  EK= 0.28406E+01 SP= -.29E+01 SK= 0.32E-01
       N       E                     dE             d eps       ncg     rms          rms(c)
DAV:   1    -0.328730940945E+03    0.13013E-01   -0.91041E-03  2800   0.881E-01    0.540E-02
RMM:   2    -0.328731267847E+03   -0.32690E-03   -0.33589E-03  1666   0.813E-02    0.241E-02
RMM:   3    -0.328731293399E+03   -0.25552E-04   -0.28586E-04  1889   0.216E-02    0.226E-02
RMM:   4    -0.328731294268E+03   -0.86937E-06   -0.26209E-05  1102   0.720E-03    0.140E-02
RMM:   5    -0.328731294760E+03   -0.49141E-06   -0.75841E-06  1003   0.431E-03
  111 T=   315. E= -.32880316E+03 F= -.32873129E+03 E0= -.32875417E+03  EK= 0.28955E+01 SP= -.30E+01 SK= 0.29E-01
       N       E                     dE             d eps       ncg     rms          rms(c)
DAV:   1    -0.328731251143E+03    0.43126E-04   -0.84678E-03  2800   0.885E-01    0.551E-02
RMM:   2    -0.328731595957E+03   -0.34481E-03   -0.35498E-03  1672   0.813E-02    0.233E-02
RMM:   3    -0.328731624237E+03   -0.28280E-04   -0.31150E-04  1921   0.220E-02    0.217E-02
RMM:   4    -0.328731625117E+03   -0.88058E-06   -0.26211E-05  1097   0.716E-03    0.132E-02
RMM:   5    -0.328731625643E+03   -0.52609E-06   -0.73363E-06  1003   0.429E-03
  112 T=   323. E= -.32880361E+03 F= -.32873163E+03 E0= -.32875508E+03  EK= 0.29606E+01 SP= -.31E+01 SK= 0.25E-01
       N       E                     dE             d eps       ncg     rms          rms(c)
DAV:   1    -0.328744437879E+03   -0.12813E-01   -0.96252E-03  2816   0.895E-01    0.536E-02
RMM:   2    -0.328744804214E+03   -0.36633E-03   -0.37558E-03  1672   0.848E-02    0.245E-02
RMM:   3    -0.328744832847E+03   -0.28633E-04   -0.31530E-04  1905   0.227E-02    0.230E-02
RMM:   4    -0.328744834127E+03   -0.12795E-05   -0.28636E-05  1117   0.743E-03    0.151E-02
RMM:   5    -0.328744834673E+03   -0.54629E-06   -0.78971E-06  1005   0.443E-03
  113 T=   331. E= -.32880411E+03 F= -.32874483E+03 E0= -.32876886E+03  EK= 0.30344E+01 SP= -.31E+01 SK= 0.21E-01
       N       E                     dE             d eps       ncg     rms          rms(c)
DAV:   1    -0.328768721275E+03   -0.23887E-01   -0.11308E-02  2768   0.911E-01    0.563E-02
RMM:   2    -0.328769137582E+03   -0.41631E-03   -0.42609E-03  1675   0.895E-02    0.232E-02
RMM:   3    -0.328769172457E+03   -0.34876E-04   -0.37577E-04  1927   0.241E-02    0.221E-02
RMM:   4    -0.328769174453E+03   -0.19951E-05   -0.32623E-05  1143   0.768E-03    0.149E-02
RMM:   5    -0.328769175006E+03   -0.55303E-06   -0.72932E-06  1004   0.437E-03
  114 T=   339. E= -.32880483E+03 F= -.32876918E+03 E0= -.32879373E+03  EK= 0.31130E+01 SP= -.32E+01 SK= 0.15E-01
       N       E                     dE             d eps       ncg     rms          rms(c)
DAV:   1    -0.328800715201E+03   -0.31541E-01   -0.10652E-02  2784   0.931E-01    0.550E-02
RMM:   2    -0.328801138475E+03   -0.42327E-03   -0.43243E-03  1674   0.882E-02    0.228E-02
RMM:   3    -0.328801171934E+03   -0.33459E-04   -0.36305E-04  1924   0.239E-02    0.217E-02
RMM:   4    -0.328801173724E+03   -0.17901E-05   -0.30766E-05  1132   0.757E-03    0.149E-02
RMM:   5    -0.328801174347E+03   -0.62311E-06   -0.79245E-06  1005   0.448E-03
  115 T=   348. E= -.32880578E+03 F= -.32880117E+03 E0= -.32882623E+03  EK= 0.31903E+01 SP= -.32E+01 SK= 0.90E-02
       N       E                     dE             d eps       ncg     rms          rms(c)
DAV:   1    -0.328835683881E+03   -0.34510E-01   -0.96393E-03  2816   0.951E-01    0.529E-02
RMM:   2    -0.328836062628E+03   -0.37875E-03   -0.38845E-03  1668   0.844E-02    0.218E-02
RMM:   3    -0.328836093510E+03   -0.30883E-04   -0.33141E-04  1909   0.230E-02    0.209E-02
RMM:   4    -0.328836095165E+03   -0.16546E-05   -0.28150E-05  1112   0.742E-03    0.142E-02
RMM:   5    -0.328836095904E+03   -0.73874E-06   -0.78921E-06  1004   0.444E-03
  116 T=   355. E= -.32880666E+03 F= -.32883610E+03 E0= -.32886160E+03  EK= 0.32590E+01 SP= -.32E+01 SK= 0.40E-02
       N       E                     dE             d eps       ncg     rms          rms(c)
DAV:   1    -0.328868157433E+03   -0.32062E-01   -0.87048E-03  2848   0.971E-01    0.533E-02
RMM:   2    -0.328868493653E+03   -0.33622E-03   -0.34578E-03  1670   0.820E-02    0.216E-02
RMM:   3    -0.328868519896E+03   -0.26243E-04   -0.28838E-04  1899   0.222E-02    0.208E-02
RMM:   4    -0.328868521004E+03   -0.11085E-05   -0.25585E-05  1095   0.725E-03    0.140E-02
RMM:   5    -0.328868521524E+03   -0.51990E-06   -0.77200E-06  1004   0.435E-03
  117 T=   361. E= -.32880761E+03 F= -.32886852E+03 E0= -.32889443E+03  EK= 0.33109E+01 SP= -.33E+01 SK= 0.78E-03
       N       E                     dE             d eps       ncg     rms          rms(c)
DAV:   1    -0.328892245566E+03   -0.23725E-01   -0.81598E-03  2832   0.988E-01    0.538E-02
RMM:   2    -0.328892570055E+03   -0.32449E-03   -0.33401E-03  1674   0.798E-02    0.217E-02
RMM:   3    -0.328892596819E+03   -0.26764E-04   -0.29261E-04  1925   0.216E-02    0.208E-02
RMM:   4    -0.328892597944E+03   -0.11253E-05   -0.24758E-05  1098   0.691E-03    0.140E-02
RMM:   5    -0.328892598468E+03   -0.52320E-06   -0.72858E-06  1001   0.423E-03
  118 T=   364. E= -.32880843E+03 F= -.32889260E+03 E0= -.32891889E+03  EK= 0.33382E+01 SP= -.33E+01 SK= 0.11E-03
       N       E                     dE             d eps       ncg     rms          rms(c)
DAV:   1    -0.328902476560E+03   -0.98786E-02   -0.78909E-03  2816   0.100E+00    0.522E-02
RMM:   2    -0.328902842468E+03   -0.36591E-03   -0.37636E-03  1676   0.814E-02    0.233E-02
RMM:   3    -0.328902873085E+03   -0.30617E-04   -0.33313E-04  1944   0.226E-02    0.220E-02
RMM:   4    -0.328902874195E+03   -0.11103E-05   -0.27668E-05  1111   0.719E-03    0.143E-02
RMM:   5    -0.328902874798E+03   -0.60333E-06   -0.80891E-06  1002   0.444E-03
  119 T=   363. E= -.32880895E+03 F= -.32890287E+03 E0= -.32892952E+03  EK= 0.33346E+01 SP= -.32E+01 SK= 0.24E-02
       N       E                     dE             d eps       ncg     rms          rms(c)
DAV:   1    -0.328895336080E+03    0.75381E-02   -0.77126E-03  2864   0.100E+00    0.512E-02
RMM:   2    -0.328895671216E+03   -0.33514E-03   -0.34549E-03  1676   0.801E-02    0.225E-02
RMM:   3    -0.328895698788E+03   -0.27573E-04   -0.29999E-04  1932   0.218E-02    0.212E-02
RMM:   4    -0.328895699593E+03   -0.80474E-06   -0.23966E-05  1086   0.693E-03    0.134E-02
RMM:   5    -0.328895700275E+03   -0.68207E-06   -0.77160E-06  1003   0.430E-03
  120 T=   359. E= -.32880855E+03 F= -.32889570E+03 E0= -.32892268E+03  EK= 0.32974E+01 SP= -.32E+01 SK= 0.76E-02
       N       E                     dE             d eps       ncg     rms          rms(c)
DAV:   1    -0.328870820598E+03    0.24879E-01   -0.69872E-03  2864   0.999E-01    0.477E-02
RMM:   2    -0.328871092726E+03   -0.27213E-03   -0.28216E-03  1674   0.740E-02    0.213E-02
RMM:   3    -0.328871114150E+03   -0.21424E-04   -0.23820E-04  1895   0.199E-02    0.199E-02
RMM:   4    -0.328871114674E+03   -0.52420E-06   -0.21228E-05  1068   0.671E-03    0.123E-02
RMM:   5    -0.328871115271E+03   -0.59634E-06   -0.71601E-06  1001   0.418E-03
  121 T=   352. E= -.32880780E+03 F= -.32887112E+03 E0= -.32889842E+03  EK= 0.32277E+01 SP= -.32E+01 SK= 0.15E-01
       N       E                     dE             d eps       ncg     rms          rms(c)
DAV:   1    -0.328829448989E+03    0.41666E-01   -0.68978E-03  2832   0.988E-01    0.483E-02
RMM:   2    -0.328829736331E+03   -0.28734E-03   -0.29728E-03  1668   0.749E-02    0.190E-02
RMM:   3    -0.328829760018E+03   -0.23686E-04   -0.25474E-04  1888   0.205E-02    0.182E-02
RMM:   4    -0.328829761043E+03   -0.10254E-05   -0.21752E-05  1071   0.674E-03    0.118E-02
RMM:   5    -0.328829761724E+03   -0.68115E-06   -0.72084E-06  1000   0.419E-03
  122 T=   341. E= -.32880684E+03 F= -.32882976E+03 E0= -.32885739E+03  EK= 0.31291E+01 SP= -.31E+01 SK= 0.22E-01
       N       E                     dE             d eps       ncg     rms          rms(c)
DAV:   1    -0.328773170486E+03    0.56591E-01   -0.74074E-03  2848   0.969E-01    0.459E-02
RMM:   2    -0.328773444176E+03   -0.27369E-03   -0.28276E-03  1670   0.749E-02    0.189E-02
RMM:   3    -0.328773466796E+03   -0.22620E-04   -0.24130E-04  1863   0.202E-02    0.182E-02
RMM:   4    -0.328773467784E+03   -0.98829E-06   -0.20078E-05  1059   0.675E-03    0.119E-02
RMM:   5    -0.328773468472E+03   -0.68791E-06   -0.72267E-06  1001   0.420E-03
  123 T=   328. E= -.32880575E+03 F= -.32877347E+03 E0= -.32880142E+03  EK= 0.30074E+01 SP= -.31E+01 SK= 0.29E-01
       N       E                     dE             d eps       ncg     rms          rms(c)
DAV:   1    -0.328704774171E+03    0.68694E-01   -0.56490E-03  2832   0.944E-01    0.460E-02
RMM:   2    -0.328705011122E+03   -0.23695E-03   -0.24605E-03  1685   0.683E-02    0.157E-02
RMM:   3    -0.328705031912E+03   -0.20790E-04   -0.22511E-04  1860   0.188E-02    0.154E-02
RMM:   4    -0.328705032694E+03   -0.78203E-06   -0.17048E-05  1041   0.629E-03    0.106E-02
RMM:   5    -0.328705033188E+03   -0.49388E-06   -0.63320E-06  1003   0.397E-03
  124 T=   313. E= -.32880469E+03 F= -.32870503E+03 E0= -.32873329E+03  EK= 0.28697E+01 SP= -.30E+01 SK= 0.33E-01
       N       E                     dE             d eps       ncg     rms          rms(c)
DAV:   1    -0.328628748693E+03    0.76284E-01   -0.55978E-03  2816   0.912E-01    0.425E-02
RMM:   2    -0.328629005450E+03   -0.25676E-03   -0.26457E-03  1670   0.692E-02    0.170E-02
RMM:   3    -0.328629027425E+03   -0.21975E-04   -0.23397E-04  1864   0.194E-02    0.168E-02
RMM:   4    -0.328629028464E+03   -0.10385E-05   -0.18605E-05  1045   0.642E-03    0.123E-02
RMM:   5    -0.328629028950E+03   -0.48657E-06   -0.70131E-06  1002   0.413E-03
  125 T=   297. E= -.32880363E+03 F= -.32862903E+03 E0= -.32865758E+03  EK= 0.27248E+01 SP= -.29E+01 SK= 0.35E-01
       N       E                     dE             d eps       ncg     rms          rms(c)
DAV:   1    -0.328550575604E+03    0.78453E-01   -0.57019E-03  2816   0.878E-01    0.443E-02
RMM:   2    -0.328550812927E+03   -0.23732E-03   -0.24573E-03  1666   0.693E-02    0.163E-02
RMM:   3    -0.328550831961E+03   -0.19034E-04   -0.20334E-04  1820   0.189E-02    0.158E-02
RMM:   4    -0.328550832957E+03   -0.99525E-06   -0.18078E-05  1043   0.649E-03    0.103E-02
RMM:   5    -0.328550833606E+03   -0.64959E-06   -0.65670E-06   999   0.404E-03
  126 T=   281. E= -.32880255E+03 F= -.32855083E+03 E0= -.32857965E+03  EK= 0.25820E+01 SP= -.29E+01 SK= 0.32E-01
       N       E                     dE             d eps       ncg     rms          rms(c)
DAV:   1    -0.328474692841E+03    0.76140E-01   -0.41667E-03  2896   0.842E-01    0.418E-02
RMM:   2    -0.328474891281E+03   -0.19844E-03   -0.20640E-03  1670   0.636E-02    0.165E-02
RMM:   3    -0.328474906628E+03   -0.15347E-04   -0.17026E-04  1788   0.173E-02    0.158E-02
RMM:   4    -0.328474907162E+03   -0.53407E-06   -0.16370E-05  1031   0.625E-03    0.105E-02
RMM:   5    -0.328474907673E+03   -0.51097E-06   -0.66091E-06  1001   0.400E-03
  127 T=   267. E= -.32880152E+03 F= -.32847491E+03 E0= -.32850395E+03  EK= 0.24486E+01 SP= -.28E+01 SK= 0.27E-01
       N       E                     dE             d eps       ncg     rms          rms(c)
DAV:   1    -0.328406033464E+03    0.68874E-01   -0.37599E-03  2896   0.808E-01    0.391E-02
RMM:   2    -0.328406229467E+03   -0.19600E-03   -0.20345E-03  1670   0.621E-02    0.158E-02
RMM:   3    -0.328406245508E+03   -0.16041E-04   -0.17314E-04  1813   0.171E-02    0.152E-02
RMM:   4    -0.328406246245E+03   -0.73743E-06   -0.15560E-05  1034   0.602E-03    0.108E-02
RMM:   5    -0.328406246703E+03   -0.45819E-06   -0.60944E-06  1001   0.387E-03
  128 T=   254. E= -.32880056E+03 F= -.32840625E+03 E0= -.32843546E+03  EK= 0.23318E+01 SP= -.27E+01 SK= 0.19E-01
       N       E                     dE             d eps       ncg     rms          rms(c)
DAV:   1    -0.328349744850E+03    0.56501E-01   -0.39544E-03  2864   0.777E-01    0.405E-02
RMM:   2    -0.328349942122E+03   -0.19727E-03   -0.20451E-03  1665   0.627E-02    0.154E-02
RMM:   3    -0.328349957173E+03   -0.15050E-04   -0.16391E-04  1762   0.171E-02    0.145E-02
RMM:   4    -0.328349957885E+03   -0.71279E-06   -0.16203E-05  1028   0.620E-03    0.930E-03
RMM:   5    -0.328349958404E+03   -0.51819E-06   -0.63424E-06   998   0.392E-03
  129 T=   244. E= -.32879970E+03 F= -.32834996E+03 E0= -.32837927E+03  EK= 0.22381E+01 SP= -.27E+01 SK= 0.12E-01
       N       E                     dE             d eps       ncg     rms          rms(c)
DAV:   1    -0.328310263277E+03    0.39695E-01   -0.34846E-03  2928   0.752E-01    0.374E-02
RMM:   2    -0.328310430642E+03   -0.16737E-03   -0.17393E-03  1666   0.593E-02    0.155E-02
RMM:   3    -0.328310443565E+03   -0.12923E-04   -0.14205E-04  1717   0.161E-02    0.147E-02
RMM:   4    -0.328310444114E+03   -0.54900E-06   -0.14791E-05  1019   0.610E-03    0.984E-03
RMM:   5    -0.328310444511E+03   -0.39711E-06   -0.60319E-06   999   0.384E-03
  130 T=   237. E= -.32879887E+03 F= -.32831044E+03 E0= -.32833978E+03  EK= 0.21727E+01 SP= -.27E+01 SK= 0.50E-02
       N       E                     dE             d eps       ncg     rms          rms(c)
DAV:   1    -0.328290361514E+03    0.20083E-01   -0.34554E-03  2880   0.735E-01    0.372E-02
RMM:   2    -0.328290533695E+03   -0.17218E-03   -0.17852E-03  1668   0.584E-02    0.141E-02
RMM:   3    -0.328290547927E+03   -0.14232E-04   -0.15126E-04  1738   0.161E-02    0.135E-02
RMM:   4    -0.328290548904E+03   -0.97744E-06   -0.15415E-05  1029   0.602E-03    0.952E-03
RMM:   5    -0.328290549405E+03   -0.50016E-06   -0.58807E-06   998   0.382E-03
  131 T=   233. E= -.32879843E+03 F= -.32829055E+03 E0= -.32831981E+03  EK= 0.21383E+01 SP= -.26E+01 SK= 0.95E-03
       N       E                     dE             d eps       ncg     rms          rms(c)
DAV:   1    -0.328291141300E+03   -0.59240E-03   -0.32849E-03  2864   0.728E-01    0.366E-02
RMM:   2    -0.328291311684E+03   -0.17038E-03   -0.17649E-03  1667   0.575E-02    0.143E-02
RMM:   3    -0.328291325801E+03   -0.14117E-04   -0.15139E-04  1730   0.160E-02    0.134E-02
RMM:   4    -0.328291326638E+03   -0.83712E-06   -0.15235E-05  1026   0.595E-03    0.882E-03
RMM:   5    -0.328291327199E+03   -0.56117E-06   -0.59163E-06   998   0.380E-03
  132 T=   233. E= -.32879834E+03 F= -.32829133E+03 E0= -.32832041E+03  EK= 0.21362E+01 SP= -.26E+01 SK= 0.11E-03
       N       E                     dE             d eps       ncg     rms          rms(c)
DAV:   1    -0.328313495465E+03   -0.22169E-01   -0.32795E-03  2896   0.730E-01    0.351E-02
RMM:   2    -0.328313649415E+03   -0.15395E-03   -0.15991E-03  1665   0.555E-02    0.141E-02
RMM:   3    -0.328313661479E+03   -0.12064E-04   -0.13130E-04  1664   0.153E-02    0.133E-02
RMM:   4    -0.328313662319E+03   -0.83999E-06   -0.14680E-05  1023   0.598E-03    0.945E-03
RMM:   5    -0.328313662754E+03   -0.43586E-06   -0.58383E-06  1000   0.381E-03
  133 T=   236. E= -.32879879E+03 F= -.32831366E+03 E0= -.32834245E+03  EK= 0.21671E+01 SP= -.27E+01 SK= 0.26E-02
       N       E                     dE             d eps       ncg     rms          rms(c)
DAV:   1    -0.328355379148E+03   -0.41717E-01   -0.34802E-03  2912   0.743E-01    0.350E-02
RMM:   2    -0.328355529587E+03   -0.15044E-03   -0.15605E-03  1665   0.552E-02    0.136E-02
RMM:   3    -0.328355541705E+03   -0.12117E-04   -0.12951E-04  1651   0.152E-02    0.129E-02
RMM:   4    -0.328355542640E+03   -0.93509E-06   -0.14403E-05  1019   0.603E-03    0.898E-03
RMM:   5    -0.328355543207E+03   -0.56764E-06   -0.57365E-06   998   0.382E-03
  134 T=   243. E= -.32879923E+03 F= -.32835554E+03 E0= -.32838394E+03  EK= 0.22293E+01 SP= -.27E+01 SK= 0.77E-02
       N       E                     dE             d eps       ncg     rms          rms(c)
DAV:   1    -0.328413672882E+03   -0.58130E-01   -0.37208E-03  2848   0.766E-01    0.356E-02
RMM:   2    -0.328413837128E+03   -0.16425E-03   -0.16996E-03  1675   0.565E-02    0.140E-02
RMM:   3    -0.328413850903E+03   -0.13775E-04   -0.14940E-04  1726   0.158E-02    0.134E-02
RMM:   4    -0.328413851620E+03   -0.71725E-06   -0.14097E-05  1021   0.586E-03    0.911E-03
RMM:   5    -0.328413852121E+03   -0.50168E-06   -0.58170E-06   999   0.381E-03
  135 T=   253. E= -.32880006E+03 F= -.32841385E+03 E0= -.32844176E+03  EK= 0.23190E+01 SP= -.27E+01 SK= 0.14E-01
       N       E                     dE             d eps       ncg     rms          rms(c)
DAV:   1    -0.328483892596E+03   -0.70041E-01   -0.41421E-03  2848   0.795E-01    0.365E-02
RMM:   2    -0.328484077807E+03   -0.18521E-03   -0.19110E-03  1672   0.588E-02    0.146E-02
RMM:   3    -0.328484093390E+03   -0.15583E-04   -0.16737E-04  1737   0.165E-02    0.141E-02
RMM:   4    -0.328484094274E+03   -0.88403E-06   -0.15165E-05  1027   0.597E-03    0.101E-02
RMM:   5    -0.328484094708E+03   -0.43349E-06   -0.61153E-06   994   0.389E-03
  136 T=   265. E= -.32880120E+03 F= -.32848409E+03 E0= -.32851144E+03  EK= 0.24310E+01 SP= -.28E+01 SK= 0.21E-01
       N       E                     dE             d eps       ncg     rms          rms(c)
DAV:   1    -0.328561309741E+03   -0.77215E-01   -0.52558E-03  2816   0.829E-01    0.398E-02
RMM:   2    -0.328561512829E+03   -0.20309E-03   -0.20915E-03  1665   0.619E-02    0.146E-02
RMM:   3    -0.328561529506E+03   -0.16677E-04   -0.17942E-04  1757   0.171E-02    0.143E-02
RMM:   4    -0.328561530425E+03   -0.91859E-06   -0.16265E-05  1037   0.615E-03    0.101E-02
RMM:   5    -0.328561530827E+03   -0.40177E-06   -0.59822E-06   998   0.388E-03
  137 T=   279. E= -.32880252E+03 F= -.32856153E+03 E0= -.32858826E+03  EK= 0.25593E+01 SP= -.28E+01 SK= 0.26E-01
       N       E                     dE             d eps       ncg     rms          rms(c)
DAV:   1    -0.328639940163E+03   -0.78410E-01   -0.50673E-03  2832   0.866E-01    0.390E-02
RMM:   2    -0.328640148034E+03   -0.20787E-03   -0.21378E-03  1682   0.622E-02    0.153E-02
RMM:   3    -0.328640164997E+03   -0.16963E-04   -0.18396E-04  1779   0.172E-02    0.147E-02
RMM:   4    -0.328640165846E+03   -0.84858E-06   -0.15673E-05  1028   0.606E-03    0.104E-02
RMM:   5    -0.328640166337E+03   -0.49075E-06   -0.63127E-06   999   0.395E-03
  138 T=   294. E= -.32880376E+03 F= -.32864017E+03 E0= -.32866625E+03  EK= 0.26962E+01 SP= -.29E+01 SK= 0.29E-01
       N       E                     dE             d eps       ncg     rms          rms(c)
DAV:   1    -0.328713500347E+03   -0.73335E-01   -0.54422E-03  2848   0.902E-01    0.431E-02
RMM:   2    -0.328713732950E+03   -0.23260E-03   -0.23947E-03  1677   0.658E-02    0.153E-02
RMM:   3    -0.328713752240E+03   -0.19290E-04   -0.20794E-04  1807   0.182E-02    0.148E-02
RMM:   4    -0.328713753208E+03   -0.96824E-06   -0.17859E-05  1044   0.625E-03    0.101E-02
RMM:   5    -0.328713753659E+03   -0.45057E-06   -0.61364E-06   997   0.390E-03
  139 T=   309. E= -.32880494E+03 F= -.32871375E+03 E0= -.32873920E+03  EK= 0.28326E+01 SP= -.30E+01 SK= 0.29E-01
       N       E                     dE             d eps       ncg     rms          rms(c)
DAV:   1    -0.328776329657E+03   -0.62576E-01   -0.55957E-03  2880   0.935E-01    0.409E-02
RMM:   2    -0.328776564928E+03   -0.23527E-03   -0.24220E-03  1671   0.664E-02    0.168E-02
RMM:   3    -0.328776584840E+03   -0.19912E-04   -0.21373E-04  1831   0.184E-02    0.161E-02
RMM:   4    -0.328776585739E+03   -0.89941E-06   -0.17697E-05  1046   0.623E-03    0.112E-02
RMM:   5    -0.328776586265E+03   -0.52571E-06   -0.67868E-06   998   0.405E-03
  140 T=   322. E= -.32880604E+03 F= -.32877659E+03 E0= -.32880142E+03  EK= 0.29592E+01 SP= -.30E+01 SK= 0.26E-01
       N       E                     dE             d eps       ncg     rms          rms(c)
DAV:   1    -0.328822511892E+03   -0.45926E-01   -0.57466E-03  2880   0.962E-01    0.446E-02
RMM:   2    -0.328822766503E+03   -0.25461E-03   -0.26246E-03  1672   0.696E-02    0.165E-02
RMM:   3    -0.328822788732E+03   -0.22229E-04   -0.23668E-04  1877   0.194E-02    0.160E-02
RMM:   4    -0.328822789597E+03   -0.86475E-06   -0.17962E-05  1050   0.632E-03    0.109E-02
RMM:   5    -0.328822790099E+03   -0.50170E-06   -0.66132E-06   999   0.400E-03
  141 T=   334. E= -.32880693E+03 F= -.32882279E+03 E0= -.32884706E+03  EK= 0.30665E+01 SP= -.31E+01 SK= 0.21E-01
       N       E                     dE             d eps       ncg     rms          rms(c)
DAV:   1    -0.328848494958E+03   -0.25705E-01   -0.59149E-03  2832   0.982E-01    0.454E-02
RMM:   2    -0.328848767018E+03   -0.27206E-03   -0.27966E-03  1672   0.715E-02    0.165E-02
RMM:   3    -0.328848790642E+03   -0.23624E-04   -0.25105E-04  1892   0.199E-02    0.164E-02
RMM:   4    -0.328848791442E+03   -0.79985E-06   -0.18113E-05  1055   0.632E-03    0.116E-02
RMM:   5    -0.328848791717E+03   -0.27447E-06   -0.66615E-06  1001   0.405E-03
  142 T=   343. E= -.32880777E+03 F= -.32884879E+03 E0= -.32887255E+03  EK= 0.31468E+01 SP= -.31E+01 SK= 0.14E-01
       N       E                     dE             d eps       ncg     rms          rms(c)
DAV:   1    -0.328851621100E+03   -0.28297E-02   -0.69492E-03  2832   0.994E-01    0.472E-02
RMM:   2    -0.328851940951E+03   -0.31985E-03   -0.32801E-03  1674   0.766E-02    0.173E-02
RMM:   3    -0.328851968590E+03   -0.27639E-04   -0.29411E-04  1922   0.213E-02    0.174E-02
RMM:   4    -0.328851969506E+03   -0.91638E-06   -0.20456E-05  1070   0.658E-03    0.126E-02
RMM:   5    -0.328851969722E+03   -0.21551E-06   -0.68744E-06  1001   0.413E-03
  143 T=   348. E= -.32880808E+03 F= -.32885197E+03 E0= -.32887528E+03  EK= 0.31949E+01 SP= -.32E+01 SK= 0.84E-02
       N       E                     dE             d eps       ncg     rms          rms(c)
DAV:   1    -0.328831510188E+03    0.20459E-01   -0.63550E-03  2832   0.997E-01    0.477E-02
RMM:   2    -0.328831845559E+03   -0.33537E-03   -0.34437E-03  1681   0.763E-02    0.171E-02
RMM:   3    -0.328831873469E+03   -0.27910E-04   -0.29801E-04  1903   0.213E-02    0.169E-02
RMM:   4    -0.328831874457E+03   -0.98801E-06   -0.22663E-05  1083   0.678E-03    0.117E-02
RMM:   5    -0.328831874812E+03   -0.35547E-06   -0.70464E-06  1002   0.420E-03
  144 T=   350. E= -.32880812E+03 F= -.32883187E+03 E0= -.32885478E+03  EK= 0.32077E+01 SP= -.32E+01 SK= 0.38E-02
       N       E                     dE             d eps       ncg     rms          rms(c)
DAV:   1    -0.328790324967E+03    0.41549E-01   -0.64765E-03  2848   0.989E-01    0.471E-02
RMM:   2    -0.328790637376E+03   -0.31241E-03   -0.32210E-03  1667   0.773E-02    0.192E-02
RMM:   3    -0.328790662232E+03   -0.24856E-04   -0.27127E-04  1900   0.212E-02    0.190E-02
RMM:   4    -0.328790662897E+03   -0.66532E-06   -0.21904E-05  1079   0.684E-03    0.134E-02
RMM:   5    -0.328790663006E+03   -0.10874E-06   -0.73435E-06  1002   0.424E-03
  145 T=   347. E= -.32880783E+03 F= -.32879066E+03 E0= -.32881322E+03  EK= 0.31867E+01 SP= -.32E+01 SK= 0.10E-02
       N       E                     dE             d eps       ncg     rms          rms(c)
DAV:   1    -0.328733180826E+03    0.57482E-01   -0.57756E-03  2816   0.972E-01    0.476E-02
RMM:   2    -0.328733476489E+03   -0.29566E-03   -0.30585E-03  1669   0.757E-02    0.201E-02
RMM:   3    -0.328733501054E+03   -0.24565E-04   -0.26863E-04  1897   0.208E-02    0.195E-02
RMM:   4    -0.328733501496E+03   -0.44151E-06   -0.20289E-05  1070   0.668E-03    0.133E-02
RMM:   5    -0.328733501718E+03   -0.22219E-06   -0.76011E-06  1005   0.426E-03
  146 T=   342. E= -.32880717E+03 F= -.32873350E+03 E0= -.32875574E+03  EK= 0.31377E+01 SP= -.32E+01 SK= 0.22E-04
       N       E                     dE             d eps       ncg     rms          rms(c)
DAV:   1    -0.328668367237E+03    0.65134E-01   -0.60550E-03  2816   0.950E-01    0.502E-02
RMM:   2    -0.328668675236E+03   -0.30800E-03   -0.31853E-03  1667   0.778E-02    0.203E-02
RMM:   3    -0.328668700519E+03   -0.25283E-04   -0.27918E-04  1890   0.212E-02    0.197E-02
RMM:   4    -0.328668700846E+03   -0.32737E-06   -0.21537E-05  1079   0.686E-03    0.130E-02
RMM:   5    -0.328668701006E+03   -0.16015E-06   -0.76642E-06  1005   0.432E-03
  147 T=   335. E= -.32880668E+03 F= -.32866870E+03 E0= -.32869065E+03  EK= 0.30701E+01 SP= -.32E+01 SK= 0.35E-03
       N       E                     dE             d eps       ncg     rms          rms(c)
DAV:   1    -0.328603944950E+03    0.64756E-01   -0.60916E-03  2816   0.922E-01    0.484E-02
RMM:   2    -0.328604249019E+03   -0.30407E-03   -0.31318E-03  1670   0.771E-02    0.205E-02
RMM:   3    -0.328604273575E+03   -0.24556E-04   -0.27214E-04  1890   0.210E-02    0.195E-02
RMM:   4    -0.328604274097E+03   -0.52213E-06   -0.21902E-05  1084   0.686E-03    0.128E-02
RMM:   5    -0.328604274296E+03   -0.19939E-06   -0.71906E-06  1006   0.422E-03
  148 T=   326. E= -.32880582E+03 F= -.32860427E+03 E0= -.32862597E+03  EK= 0.29946E+01 SP= -.32E+01 SK= 0.14E-02
       N       E                     dE             d eps       ncg     rms          rms(c)
DAV:   1    -0.328549175657E+03    0.55098E-01   -0.62993E-03  2816   0.894E-01    0.497E-02
RMM:   2    -0.328549489099E+03   -0.31344E-03   -0.32193E-03  1672   0.784E-02    0.208E-02
RMM:   3    -0.328549513188E+03   -0.24090E-04   -0.26955E-04  1893   0.212E-02    0.197E-02
RMM:   4    -0.328549513994E+03   -0.80538E-06   -0.23211E-05  1084   0.693E-03    0.128E-02
RMM:   5    -0.328549514299E+03   -0.30531E-06   -0.73065E-06  1004   0.424E-03
  149 T=   318. E= -.32880469E+03 F= -.32854951E+03 E0= -.32857098E+03  EK= 0.29230E+01 SP= -.32E+01 SK= 0.26E-02
       N       E                     dE             d eps       ncg     rms          rms(c)
DAV:   1    -0.328512923074E+03    0.36591E-01   -0.64556E-03  2816   0.868E-01    0.475E-02
RMM:   2    -0.328513233849E+03   -0.31077E-03   -0.31872E-03  1671   0.783E-02    0.200E-02
RMM:   3    -0.328513258961E+03   -0.25112E-04   -0.27736E-04  1904   0.212E-02    0.191E-02
RMM:   4    -0.328513259921E+03   -0.95939E-06   -0.22740E-05  1088   0.691E-03    0.128E-02
RMM:   5    -0.328513260227E+03   -0.30584E-06   -0.68738E-06  1005   0.418E-03
  150 T=   312. E= -.32880387E+03 F= -.32851326E+03 E0= -.32853453E+03  EK= 0.28655E+01 SP= -.32E+01 SK= 0.37E-02
       N       E                     dE             d eps       ncg     rms          rms(c)
DAV:   1    -0.328501539593E+03    0.11720E-01   -0.58747E-03  2816   0.849E-01    0.474E-02
RMM:   2    -0.328501825720E+03   -0.28613E-03   -0.29395E-03  1667   0.746E-02    0.179E-02
RMM:   3    -0.328501848405E+03   -0.22685E-04   -0.24777E-04  1873   0.204E-02    0.174E-02
RMM:   4    -0.328501849428E+03   -0.10232E-05   -0.21827E-05  1086   0.677E-03    0.115E-02
RMM:   5    -0.328501849737E+03   -0.30839E-06   -0.66609E-06  1001   0.412E-03
  151 T=   308. E= -.32880375E+03 F= -.32850185E+03 E0= -.32852295E+03  EK= 0.28297E+01 SP= -.31E+01 SK= 0.45E-02
       N       E                     dE             d eps       ncg     rms          rms(c)
DAV:   1    -0.328518396694E+03   -0.16547E-01   -0.56600E-03  2816   0.838E-01    0.454E-02
RMM:   2    -0.328518669585E+03   -0.27289E-03   -0.28022E-03  1672   0.732E-02    0.187E-02
RMM:   3    -0.328518692395E+03   -0.22810E-04   -0.25009E-04  1888   0.201E-02    0.181E-02
RMM:   4    -0.328518693116E+03   -0.72173E-06   -0.20134E-05  1074   0.663E-03    0.122E-02
RMM:   5    -0.328518693434E+03   -0.31798E-06   -0.65855E-06  1002   0.411E-03
  152 T=   307. E= -.32880414E+03 F= -.32851869E+03 E0= -.32853966E+03  EK= 0.28199E+01 SP= -.31E+01 SK= 0.51E-02
       N       E                     dE             d eps       ncg     rms          rms(c)
DAV:   1    -0.328562920642E+03   -0.44228E-01   -0.54082E-03  2880   0.837E-01    0.465E-02
RMM:   2    -0.328563201310E+03   -0.28067E-03   -0.28809E-03  1678   0.736E-02    0.199E-02
RMM:   3    -0.328563224268E+03   -0.22958E-04   -0.25213E-04  1884   0.201E-02    0.190E-02
RMM:   4    -0.328563224915E+03   -0.64746E-06   -0.19922E-05  1067   0.662E-03    0.127E-02
RMM:   5    -0.328563225248E+03   -0.33241E-06   -0.68691E-06  1000   0.417E-03
  153 T=   309. E= -.32880450E+03 F= -.32856323E+03 E0= -.32858407E+03  EK= 0.28360E+01 SP= -.31E+01 SK= 0.59E-02
       N       E                     dE             d eps       ncg     rms          rms(c)
DAV:   1    -0.328632990817E+03   -0.69766E-01   -0.64293E-03  2832   0.845E-01    0.486E-02
RMM:   2    -0.328633289885E+03   -0.29907E-03   -0.30728E-03  1675   0.768E-02    0.216E-02
RMM:   3    -0.328633311904E+03   -0.22019E-04   -0.24888E-04  1876   0.205E-02    0.205E-02
RMM:   4    -0.328633312410E+03   -0.50660E-06   -0.22254E-05  1076   0.690E-03    0.132E-02
RMM:   5    -0.328633312705E+03   -0.29415E-06   -0.74598E-06   998   0.429E-03
  154 T=   313. E= -.32880531E+03 F= -.32863331E+03 E0= -.32865407E+03  EK= 0.28749E+01 SP= -.31E+01 SK= 0.70E-02
       N       E                     dE             d eps       ncg     rms          rms(c)
DAV:   1    -0.328724064584E+03   -0.90752E-01   -0.55944E-03  2816   0.859E-01    0.485E-02
RMM:   2    -0.328724349878E+03   -0.28529E-03   -0.29384E-03  1668   0.757E-02    0.228E-02
RMM:   3    -0.328724371275E+03   -0.21398E-04   -0.24246E-04  1865   0.203E-02    0.214E-02
RMM:   4    -0.328724371701E+03   -0.42560E-06   -0.23396E-05  1083   0.697E-03    0.135E-02
RMM:   5    -0.328724372075E+03   -0.37414E-06   -0.76215E-06  1002   0.435E-03
  155 T=   319. E= -.32880602E+03 F= -.32872437E+03 E0= -.32874506E+03  EK= 0.29311E+01 SP= -.30E+01 SK= 0.88E-02
       N       E                     dE             d eps       ncg     rms          rms(c)
DAV:   1    -0.328830969568E+03   -0.10660E+00   -0.55464E-03  2816   0.878E-01    0.500E-02
RMM:   2    -0.328831264698E+03   -0.29513E-03   -0.30463E-03  1674   0.762E-02    0.221E-02
RMM:   3    -0.328831288285E+03   -0.23587E-04   -0.26413E-04  1904   0.207E-02    0.209E-02
RMM:   4    -0.328831288555E+03   -0.27020E-06   -0.21685E-05  1078   0.677E-03    0.135E-02
RMM:   5    -0.328831288867E+03   -0.31177E-06   -0.77627E-06  1002   0.436E-03
  156 T=   327. E= -.32880695E+03 F= -.32883129E+03 E0= -.32885193E+03  EK= 0.29976E+01 SP= -.30E+01 SK= 0.12E-01
       N       E                     dE             d eps       ncg     rms          rms(c)
DAV:   1    -0.328947166312E+03   -0.11588E+00   -0.65543E-03  2816   0.900E-01    0.481E-02
RMM:   2    -0.328947477604E+03   -0.31129E-03   -0.32078E-03  1671   0.785E-02    0.224E-02
RMM:   3    -0.328947501490E+03   -0.23887E-04   -0.26790E-04  1905   0.213E-02    0.213E-02
RMM:   4    -0.328947501979E+03   -0.48873E-06   -0.23709E-05  1101   0.692E-03    0.142E-02
RMM:   5    -0.328947502172E+03   -0.19326E-06   -0.78453E-06  1002   0.433E-03
  157 T=   334. E= -.32880798E+03 F= -.32894750E+03 E0= -.32896812E+03  EK= 0.30657E+01 SP= -.29E+01 SK= 0.16E-01
       N       E                     dE             d eps       ncg     rms          rms(c)
DAV:   1    -0.329066153893E+03   -0.11865E+00   -0.66130E-03  2816   0.921E-01    0.497E-02
RMM:   2    -0.329066454446E+03   -0.30055E-03   -0.30988E-03  1666   0.781E-02    0.202E-02
RMM:   3    -0.329066477627E+03   -0.23181E-04   -0.25715E-04  1895   0.211E-02    0.194E-02
RMM:   4    -0.329066478272E+03   -0.64466E-06   -0.22797E-05  1089   0.693E-03    0.124E-02
RMM:   5    -0.329066478711E+03   -0.43923E-06   -0.72217E-06  1003   0.425E-03
  158 T=   341. E= -.32880905E+03 F= -.32906648E+03 E0= -.32908710E+03  EK= 0.31268E+01 SP= -.29E+01 SK= 0.22E-01
       N       E                     dE             d eps       ncg     rms          rms(c)
DAV:   1    -0.329181076030E+03   -0.11460E+00   -0.63426E-03  2800   0.940E-01    0.474E-02
RMM:   2    -0.329181378698E+03   -0.30267E-03   -0.31213E-03  1671   0.767E-02    0.212E-02
RMM:   3    -0.329181403218E+03   -0.24520E-04   -0.27156E-04  1914   0.212E-02    0.203E-02
RMM:   4    -0.329181403783E+03   -0.56476E-06   -0.23011E-05  1091   0.687E-03    0.136E-02
RMM:   5    -0.329181404147E+03   -0.36408E-06   -0.76698E-06  1005   0.432E-03
  159 T=   346. E= -.32880986E+03 F= -.32918140E+03 E0= -.32920208E+03  EK= 0.31726E+01 SP= -.28E+01 SK= 0.31E-01
       N       E                     dE             d eps       ncg     rms          rms(c)
DAV:   1    -0.329286023186E+03   -0.10462E+00   -0.72741E-03  2816   0.955E-01    0.502E-02
RMM:   2    -0.329286350765E+03   -0.32758E-03   -0.33734E-03  1666   0.798E-02    0.199E-02
RMM:   3    -0.329286376997E+03   -0.26233E-04   -0.28544E-04  1915   0.218E-02    0.192E-02
RMM:   4    -0.329286377981E+03   -0.98372E-06   -0.24412E-05  1094   0.702E-03    0.125E-02
RMM:   5    -0.329286378409E+03   -0.42842E-06   -0.71532E-06  1004   0.422E-03
  160 T=   348. E= -.32881040E+03 F= -.32928638E+03 E0= -.32930716E+03  EK= 0.31961E+01 SP= -.28E+01 SK= 0.42E-01
       N       E                     dE             d eps       ncg     rms          rms(c)
DAV:   1    -0.329377176867E+03   -0.90799E-01   -0.71748E-03  2816   0.964E-01    0.470E-02
RMM:   2    -0.329377503034E+03   -0.32617E-03   -0.33503E-03  1673   0.794E-02    0.215E-02
RMM:   3    -0.329377528987E+03   -0.25953E-04   -0.28407E-04  1923   0.218E-02    0.206E-02
RMM:   4    -0.329377529727E+03   -0.74070E-06   -0.24294E-05  1104   0.699E-03    0.131E-02
RMM:   5    -0.329377530160E+03   -0.43248E-06   -0.75560E-06  1005   0.431E-03
  161 T=   348. E= -.32881061E+03 F= -.32937753E+03 E0= -.32939845E+03  EK= 0.31931E+01 SP= -.27E+01 SK= 0.55E-01
       N       E                     dE             d eps       ncg     rms          rms(c)
DAV:   1    -0.329451507748E+03   -0.73978E-01   -0.70272E-03  2848   0.967E-01    0.485E-02
RMM:   2    -0.329451820161E+03   -0.31241E-03   -0.32214E-03  1669   0.776E-02    0.196E-02
RMM:   3    -0.329451845614E+03   -0.25453E-04   -0.27537E-04  1910   0.214E-02    0.186E-02
RMM:   4    -0.329451846564E+03   -0.94980E-06   -0.24008E-05  1101   0.701E-03    0.113E-02
RMM:   5    -0.329451847125E+03   -0.56105E-06   -0.70668E-06  1005   0.422E-03
  162 T=   344. E= -.32881093E+03 F= -.32945185E+03 E0= -.32947294E+03  EK= 0.31612E+01 SP= -.26E+01 SK= 0.69E-01
       N       E                     dE             d eps       ncg     rms          rms(c)
DAV:   1    -0.329506007204E+03   -0.54161E-01   -0.67168E-03  2880   0.962E-01    0.455E-02
RMM:   2    -0.329506319320E+03   -0.31212E-03   -0.32111E-03  1670   0.757E-02    0.192E-02
RMM:   3    -0.329506345591E+03   -0.26270E-04   -0.28353E-04  1920   0.213E-02    0.184E-02
RMM:   4    -0.329506346443E+03   -0.85220E-06   -0.23636E-05  1093   0.686E-03    0.117E-02
RMM:   5    -0.329506346923E+03   -0.48008E-06   -0.72134E-06  1005   0.422E-03
  163 T=   338. E= -.32881079E+03 F= -.32950635E+03 E0= -.32952763E+03  EK= 0.31001E+01 SP= -.25E+01 SK= 0.83E-01
       N       E                     dE             d eps       ncg     rms          rms(c)
DAV:   1    -0.329540938432E+03   -0.34592E-01   -0.68693E-03  2816   0.951E-01    0.456E-02
RMM:   2    -0.329541228871E+03   -0.29044E-03   -0.29969E-03  1665   0.742E-02    0.176E-02
RMM:   3    -0.329541251691E+03   -0.22821E-04   -0.24549E-04  1881   0.205E-02    0.169E-02
RMM:   4    -0.329541252675E+03   -0.98359E-06   -0.21666E-05  1078   0.678E-03    0.104E-02
RMM:   5    -0.329541253285E+03   -0.61042E-06   -0.67710E-06  1004   0.413E-03
  164 T=   328. E= -.32881046E+03 F= -.32954125E+03 E0= -.32956273E+03  EK= 0.30129E+01 SP= -.24E+01 SK= 0.95E-01
       N       E                     dE             d eps       ncg     rms          rms(c)
DAV:   1    -0.329557218296E+03   -0.15966E-01   -0.70550E-03  2832   0.935E-01    0.434E-02
RMM:   2    -0.329557499750E+03   -0.28145E-03   -0.29020E-03  1673   0.728E-02    0.174E-02
RMM:   3    -0.329557522237E+03   -0.22486E-04   -0.24433E-04  1879   0.201E-02    0.167E-02
RMM:   4    -0.329557523038E+03   -0.80197E-06   -0.20860E-05  1073   0.670E-03    0.109E-02
RMM:   5    -0.329557523504E+03   -0.46556E-06   -0.69508E-06  1004   0.417E-03
  165 T=   316. E= -.32880994E+03 F= -.32955752E+03 E0= -.32957918E+03  EK= 0.29043E+01 SP= -.23E+01 SK= 0.10E+00
       N       E                     dE             d eps       ncg     rms          rms(c)
DAV:   1    -0.329555238915E+03    0.22841E-02   -0.72339E-03  2832   0.914E-01    0.418E-02
RMM:   2    -0.329555524036E+03   -0.28512E-03   -0.29379E-03  1678   0.721E-02    0.170E-02
RMM:   3    -0.329555548210E+03   -0.24174E-04   -0.25820E-04  1877   0.201E-02    0.164E-02
RMM:   4    -0.329555549380E+03   -0.11699E-05   -0.21501E-05  1076   0.659E-03    0.107E-02
RMM:   5    -0.329555549911E+03   -0.53125E-06   -0.63868E-06  1005   0.404E-03
  166 T=   303. E= -.32880914E+03 F= -.32955555E+03 E0= -.32957738E+03  EK= 0.27788E+01 SP= -.21E+01 SK= 0.11E+00
       N       E                     dE             d eps       ncg     rms          rms(c)
DAV:   1    -0.329537379608E+03    0.18170E-01   -0.58422E-03  2864   0.888E-01    0.410E-02
RMM:   2    -0.329537627633E+03   -0.24803E-03   -0.25661E-03  1673   0.670E-02    0.161E-02
RMM:   3    -0.329537648920E+03   -0.21287E-04   -0.22944E-04  1859   0.191E-02    0.153E-02
RMM:   4    -0.329537649728E+03   -0.80765E-06   -0.19134E-05  1061   0.643E-03    0.972E-03
RMM:   5    -0.329537650269E+03   -0.54091E-06   -0.64865E-06  1003   0.404E-03
  167 T=   288. E= -.32880827E+03 F= -.32953765E+03 E0= -.32955965E+03  EK= 0.26426E+01 SP= -.20E+01 SK= 0.11E+00
       N       E                     dE             d eps       ncg     rms          rms(c)
DAV:   1    -0.329507239250E+03    0.30410E-01   -0.57886E-03  2832   0.858E-01    0.388E-02
RMM:   2    -0.329507466710E+03   -0.22746E-03   -0.23574E-03  1678   0.645E-02    0.168E-02
RMM:   3    -0.329507485312E+03   -0.18602E-04   -0.20389E-04  1832   0.182E-02    0.158E-02
RMM:   4    -0.329507486093E+03   -0.78041E-06   -0.18651E-05  1055   0.637E-03    0.105E-02
RMM:   5    -0.329507486540E+03   -0.44717E-06   -0.64961E-06  1000   0.402E-03
  168 T=   273. E= -.32880719E+03 F= -.32950749E+03 E0= -.32952964E+03  EK= 0.25028E+01 SP= -.19E+01 SK= 0.98E-01
       N       E                     dE             d eps       ncg     rms          rms(c)
DAV:   1    -0.329468255099E+03    0.39231E-01   -0.56300E-03  2896   0.827E-01    0.376E-02
RMM:   2    -0.329468464931E+03   -0.20983E-03   -0.21746E-03  1677   0.632E-02    0.161E-02
RMM:   3    -0.329468482158E+03   -0.17226E-04   -0.18652E-04  1793   0.176E-02    0.150E-02
RMM:   4    -0.329468483101E+03   -0.94305E-06   -0.18291E-05  1056   0.635E-03    0.957E-03
RMM:   5    -0.329468483624E+03   -0.52339E-06   -0.61253E-06   997   0.394E-03
  169 T=   258. E= -.32880627E+03 F= -.32946848E+03 E0= -.32949078E+03  EK= 0.23655E+01 SP= -.18E+01 SK= 0.85E-01
       N       E                     dE             d eps       ncg     rms          rms(c)
DAV:   1    -0.329424739720E+03    0.43743E-01   -0.56875E-03  2880   0.797E-01    0.371E-02
RMM:   2    -0.329424942622E+03   -0.20290E-03   -0.21024E-03  1676   0.623E-02    0.155E-02
RMM:   3    -0.329424958726E+03   -0.16103E-04   -0.17690E-04  1787   0.173E-02    0.145E-02
RMM:   4    -0.329424959435E+03   -0.70914E-06   -0.17290E-05  1045   0.629E-03    0.877E-03
RMM:   5    -0.329424959976E+03   -0.54137E-06   -0.60266E-06   998   0.392E-03
  170 T=   244. E= -.32880568E+03 F= -.32942496E+03 E0= -.32944741E+03  EK= 0.22366E+01 SP= -.17E+01 SK= 0.68E-01
       N       E                     dE             d eps       ncg     rms          rms(c)
DAV:   1    -0.329380484741E+03    0.44475E-01   -0.49618E-03  2848   0.769E-01    0.349E-02
RMM:   2    -0.329380682266E+03   -0.19752E-03   -0.20423E-03  1682   0.602E-02    0.147E-02
RMM:   3    -0.329380698577E+03   -0.16312E-04   -0.17727E-04  1782   0.169E-02    0.136E-02
RMM:   4    -0.329380699395E+03   -0.81749E-06   -0.16727E-05  1043   0.617E-03    0.840E-03
RMM:   5    -0.329380699944E+03   -0.54942E-06   -0.60076E-06   994   0.390E-03
  171 T=   231. E= -.32880472E+03 F= -.32938070E+03 E0= -.32940329E+03  EK= 0.21220E+01 SP= -.16E+01 SK= 0.49E-01
       N       E                     dE             d eps       ncg     rms          rms(c)
DAV:   1    -0.329339148292E+03    0.41551E-01   -0.48904E-03  2896   0.744E-01    0.331E-02
RMM:   2    -0.329339334274E+03   -0.18598E-03   -0.19236E-03  1677   0.592E-02    0.135E-02
RMM:   3    -0.329339349607E+03   -0.15333E-04   -0.16502E-04  1750   0.167E-02    0.126E-02
RMM:   4    -0.329339350611E+03   -0.10038E-05   -0.16832E-05  1040   0.620E-03    0.823E-03
RMM:   5    -0.329339351106E+03   -0.49456E-06   -0.58982E-06   995   0.386E-03
  172 T=   221. E= -.32880370E+03 F= -.32933935E+03 E0= -.32936209E+03  EK= 0.20256E+01 SP= -.15E+01 SK= 0.31E-01
       N       E                     dE             d eps       ncg     rms          rms(c)
DAV:   1    -0.329303812952E+03    0.35538E-01   -0.48496E-03  2896   0.725E-01    0.318E-02
RMM:   2    -0.329304005895E+03   -0.19294E-03   -0.19870E-03  1685   0.586E-02    0.136E-02
RMM:   3    -0.329304021926E+03   -0.16031E-04   -0.17158E-04  1758   0.166E-02    0.126E-02
RMM:   4    -0.329304023009E+03   -0.10830E-05   -0.16660E-05  1041   0.613E-03    0.815E-03
RMM:   5    -0.329304023606E+03   -0.59657E-06   -0.59020E-06   996   0.387E-03
  173 T=   212. E= -.32880301E+03 F= -.32930402E+03 E0= -.32932692E+03  EK= 0.19501E+01 SP= -.15E+01 SK= 0.16E-01
       N       E                     dE             d eps       ncg     rms          rms(c)
DAV:   1    -0.329276316625E+03    0.27706E-01   -0.52069E-03  2816   0.712E-01    0.326E-02
RMM:   2    -0.329276512658E+03   -0.19603E-03   -0.20153E-03  1681   0.588E-02    0.122E-02
RMM:   3    -0.329276529418E+03   -0.16760E-04   -0.17885E-04  1740   0.166E-02    0.114E-02
RMM:   4    -0.329276530545E+03   -0.11266E-05   -0.16116E-05  1037   0.608E-03    0.735E-03
RMM:   5    -0.329276531121E+03   -0.57591E-06   -0.55945E-06   999   0.380E-03
  174 T=   207. E= -.32880260E+03 F= -.32927653E+03 E0= -.32929958E+03  EK= 0.18974E+01 SP= -.14E+01 SK= 0.49E-02
       N       E                     dE             d eps       ncg     rms          rms(c)
DAV:   1    -0.329257336599E+03    0.19194E-01   -0.49482E-03  2832   0.707E-01    0.307E-02
RMM:   2    -0.329257524220E+03   -0.18762E-03   -0.19221E-03  1683   0.572E-02    0.118E-02
RMM:   3    -0.329257540091E+03   -0.15871E-04   -0.16879E-04  1737   0.163E-02    0.111E-02
RMM:   4    -0.329257541263E+03   -0.11715E-05   -0.16148E-05  1040   0.604E-03    0.737E-03
RMM:   5    -0.329257541812E+03   -0.54920E-06   -0.56869E-06   997   0.380E-03
  175 T=   204. E= -.32880231E+03 F= -.32925754E+03 E0= -.32928076E+03  EK= 0.18681E+01 SP= -.14E+01 SK= 0.14E-03
       N       E                     dE             d eps       ncg     rms          rms(c)
DAV:   1    -0.329246415401E+03    0.11126E-01   -0.40588E-03  2880   0.709E-01    0.290E-02
RMM:   2    -0.329246584506E+03   -0.16910E-03   -0.17376E-03  1695   0.537E-02    0.107E-02
RMM:   3    -0.329246599137E+03   -0.14631E-04   -0.15579E-04  1714   0.155E-02    0.999E-03
RMM:   4    -0.329246600269E+03   -0.11326E-05   -0.15051E-05  1026   0.586E-03    0.664E-03
RMM:   5    -0.329246600885E+03   -0.61519E-06   -0.55381E-06   992   0.371E-03
  176 T=   203. E= -.32880238E+03 F= -.32924660E+03 E0= -.32926999E+03  EK= 0.18615E+01 SP= -.14E+01 SK= 0.22E-02
       N       E                     dE             d eps       ncg     rms          rms(c)
DAV:   1    -0.329241752735E+03    0.48475E-02   -0.38359E-03  2880   0.717E-01    0.284E-02
RMM:   2    -0.329241904198E+03   -0.15146E-03   -0.15584E-03  1682   0.523E-02    0.104E-02
RMM:   3    -0.329241916985E+03   -0.12787E-04   -0.13551E-04  1645   0.148E-02    0.979E-03
RMM:   4    -0.329241918060E+03   -0.10744E-05   -0.14305E-05  1021   0.588E-03    0.657E-03
RMM:   5    -0.329241918625E+03   -0.56541E-06   -0.54202E-06   986   0.372E-03
  177 T=   204. E= -.32880266E+03 F= -.32924192E+03 E0= -.32926549E+03  EK= 0.18759E+01 SP= -.14E+01 SK= 0.11E-01
       N       E                     dE             d eps       ncg     rms          rms(c)
DAV:   1    -0.329241233654E+03    0.68441E-03   -0.37222E-03  2880   0.730E-01    0.283E-02
RMM:   2    -0.329241370163E+03   -0.13651E-03   -0.14085E-03  1679   0.507E-02    0.109E-02
RMM:   3    -0.329241381463E+03   -0.11300E-04   -0.12123E-04  1627   0.144E-02    0.101E-02
RMM:   4    -0.329241382556E+03   -0.10933E-05   -0.14844E-05  1025   0.595E-03    0.689E-03
RMM:   5    -0.329241383103E+03   -0.54640E-06   -0.56570E-06   995   0.378E-03
  178 T=   208. E= -.32880310E+03 F= -.32924138E+03 E0= -.32926515E+03  EK= 0.19096E+01 SP= -.15E+01 SK= 0.27E-01
       N       E                     dE             d eps       ncg     rms          rms(c)
DAV:   1    -0.329241304969E+03    0.77587E-04   -0.36463E-03  2864   0.748E-01    0.303E-02
RMM:   2    -0.329241446157E+03   -0.14119E-03   -0.14569E-03  1674   0.518E-02    0.115E-02
RMM:   3    -0.329241457917E+03   -0.11760E-04   -0.12597E-04  1672   0.148E-02    0.109E-02
RMM:   4    -0.329241458855E+03   -0.93767E-06   -0.13825E-05  1011   0.590E-03    0.768E-03
RMM:   5    -0.329241459398E+03   -0.54349E-06   -0.56062E-06   993   0.378E-03
  179 T=   213. E= -.32880357E+03 F= -.32924146E+03 E0= -.32926541E+03  EK= 0.19592E+01 SP= -.16E+01 SK= 0.48E-01
       N       E                     dE             d eps       ncg     rms          rms(c)
DAV:   1    -0.329238547998E+03    0.29109E-02   -0.37247E-03  2880   0.768E-01    0.319E-02
RMM:   2    -0.329238709597E+03   -0.16160E-03   -0.16622E-03  1683   0.546E-02    0.118E-02
RMM:   3    -0.329238724063E+03   -0.14466E-04   -0.15327E-04  1743   0.156E-02    0.112E-02
RMM:   4    -0.329238725013E+03   -0.95021E-06   -0.14324E-05  1024   0.588E-03    0.791E-03
RMM:   5    -0.329238725495E+03   -0.48265E-06   -0.53035E-06   996   0.370E-03
  180 T=   220. E= -.32880413E+03 F= -.32923873E+03 E0= -.32926285E+03  EK= 0.20216E+01 SP= -.17E+01 SK= 0.73E-01
       N       E                     dE             d eps       ncg     rms          rms(c)
DAV:   1    -0.329230462080E+03    0.82629E-02   -0.40621E-03  2816   0.788E-01    0.347E-02
RMM:   2    -0.329230633259E+03   -0.17118E-03   -0.17633E-03  1673   0.560E-02    0.129E-02
RMM:   3    -0.329230647256E+03   -0.13997E-04   -0.15137E-04  1737   0.158E-02    0.122E-02
RMM:   4    -0.329230648088E+03   -0.83192E-06   -0.14559E-05  1025   0.593E-03    0.829E-03
RMM:   5    -0.329230648538E+03   -0.44985E-06   -0.56346E-06   994   0.378E-03
  181 T=   228. E= -.32880485E+03 F= -.32923065E+03 E0= -.32925492E+03  EK= 0.20942E+01 SP= -.18E+01 SK= 0.10E+00
       N       E                     dE             d eps       ncg     rms          rms(c)
DAV:   1    -0.329213568570E+03    0.17080E-01   -0.42305E-03  2816   0.807E-01    0.362E-02
RMM:   2    -0.329213742176E+03   -0.17361E-03   -0.17933E-03  1671   0.570E-02    0.134E-02
RMM:   3    -0.329213755986E+03   -0.13810E-04   -0.15023E-04  1728   0.160E-02    0.127E-02
RMM:   4    -0.329213756839E+03   -0.85309E-06   -0.15107E-05  1027   0.605E-03    0.846E-03
RMM:   5    -0.329213757377E+03   -0.53773E-06   -0.58817E-06   994   0.386E-03
  182 T=   237. E= -.32880527E+03 F= -.32921376E+03 E0= -.32923815E+03  EK= 0.21738E+01 SP= -.19E+01 SK= 0.13E+00
       N       E                     dE             d eps       ncg     rms          rms(c)
DAV:   1    -0.329185691215E+03    0.28066E-01   -0.42228E-03  2832   0.825E-01    0.354E-02
RMM:   2    -0.329185875800E+03   -0.18459E-03   -0.19075E-03  1674   0.579E-02    0.149E-02
RMM:   3    -0.329185891686E+03   -0.15885E-04   -0.17345E-04  1773   0.166E-02    0.143E-02
RMM:   4    -0.329185892334E+03   -0.64818E-06   -0.15057E-05  1028   0.601E-03    0.104E-02
RMM:   5    -0.329185892623E+03   -0.28929E-06   -0.63191E-06   995   0.395E-03
  183 T=   246. E= -.32880569E+03 F= -.32918589E+03 E0= -.32921037E+03  EK= 0.22577E+01 SP= -.20E+01 SK= 0.16E+00
       N       E                     dE             d eps       ncg     rms          rms(c)
DAV:   1    -0.329145359015E+03    0.40533E-01   -0.48095E-03  2848   0.840E-01    0.375E-02
RMM:   2    -0.329145556114E+03   -0.19710E-03   -0.20348E-03  1672   0.611E-02    0.148E-02
RMM:   3    -0.329145572118E+03   -0.16003E-04   -0.17288E-04  1759   0.170E-02    0.145E-02
RMM:   4    -0.329145572961E+03   -0.84373E-06   -0.16124E-05  1035   0.618E-03    0.104E-02
RMM:   5    -0.329145573275E+03   -0.31314E-06   -0.60103E-06   995   0.391E-03
  184 T=   255. E= -.32880602E+03 F= -.32914557E+03 E0= -.32917011E+03  EK= 0.23438E+01 SP= -.22E+01 SK= 0.18E+00
       N       E                     dE             d eps       ncg     rms          rms(c)
DAV:   1    -0.329093027834E+03    0.52545E-01   -0.53735E-03  2848   0.852E-01    0.416E-02
RMM:   2    -0.329093249359E+03   -0.22152E-03   -0.22854E-03  1675   0.642E-02    0.146E-02
RMM:   3    -0.329093267447E+03   -0.18088E-04   -0.19863E-04  1804   0.179E-02    0.145E-02
RMM:   4    -0.329093268098E+03   -0.65147E-06   -0.16712E-05  1043   0.621E-03    0.101E-02
RMM:   5    -0.329093268354E+03   -0.25549E-06   -0.60239E-06   995   0.390E-03
  185 T=   265. E= -.32880644E+03 F= -.32909327E+03 E0= -.32911785E+03  EK= 0.24312E+01 SP= -.23E+01 SK= 0.20E+00
       N       E                     dE             d eps       ncg     rms          rms(c)
DAV:   1    -0.329030789544E+03    0.62479E-01   -0.55457E-03  2848   0.863E-01    0.387E-02
RMM:   2    -0.329031013342E+03   -0.22380E-03   -0.23073E-03  1676   0.640E-02    0.168E-02
RMM:   3    -0.329031031490E+03   -0.18148E-04   -0.20105E-04  1805   0.179E-02    0.163E-02
RMM:   4    -0.329031032091E+03   -0.60128E-06   -0.17115E-05  1038   0.628E-03    0.114E-02
RMM:   5    -0.329031032301E+03   -0.20923E-06   -0.70071E-06   995   0.414E-03
  186 T=   275. E= -.32880668E+03 F= -.32903103E+03 E0= -.32905566E+03  EK= 0.25212E+01 SP= -.25E+01 SK= 0.22E+00
       N       E                     dE             d eps       ncg     rms          rms(c)
DAV:   1    -0.328961158940E+03    0.69873E-01   -0.55261E-03  2848   0.871E-01    0.414E-02
RMM:   2    -0.328961398969E+03   -0.24003E-03   -0.24805E-03  1676   0.661E-02    0.153E-02
RMM:   3    -0.328961419140E+03   -0.20170E-04   -0.21876E-04  1850   0.186E-02    0.152E-02
RMM:   4    -0.328961419863E+03   -0.72296E-06   -0.17403E-05  1046   0.622E-03    0.107E-02
RMM:   5    -0.328961420106E+03   -0.24304E-06   -0.63207E-06  1000   0.394E-03
  187 T=   285. E= -.32880676E+03 F= -.32896142E+03 E0= -.32898611E+03  EK= 0.26150E+01 SP= -.27E+01 SK= 0.23E+00
       N       E                     dE             d eps       ncg     rms          rms(c)
DAV:   1    -0.328887246687E+03    0.74173E-01   -0.56736E-03  2848   0.876E-01    0.403E-02
RMM:   2    -0.328887471555E+03   -0.22487E-03   -0.23176E-03  1675   0.664E-02    0.164E-02
RMM:   3    -0.328887490248E+03   -0.18693E-04   -0.20439E-04  1828   0.183E-02    0.160E-02
RMM:   4    -0.328887490894E+03   -0.64590E-06   -0.16672E-05  1038   0.623E-03    0.111E-02
RMM:   5    -0.328887491207E+03   -0.31378E-06   -0.63766E-06  1000   0.397E-03
  188 T=   296. E= -.32880676E+03 F= -.32888749E+03 E0= -.32891226E+03  EK= 0.27140E+01 SP= -.29E+01 SK= 0.24E+00
       N       E                     dE             d eps       ncg     rms          rms(c)
DAV:   1    -0.328813102478E+03    0.74388E-01   -0.53846E-03  2880   0.883E-01    0.433E-02
RMM:   2    -0.328813322003E+03   -0.21952E-03   -0.22762E-03  1687   0.657E-02    0.157E-02
RMM:   3    -0.328813340645E+03   -0.18642E-04   -0.20586E-04  1853   0.182E-02    0.155E-02
RMM:   4    -0.328813341109E+03   -0.46405E-06   -0.15741E-05  1040   0.608E-03    0.107E-02
RMM:   5    -0.328813341317E+03   -0.20752E-06   -0.59684E-06  1000   0.389E-03
  189 T=   307. E= -.32880674E+03 F= -.32881334E+03 E0= -.32883822E+03  EK= 0.28204E+01 SP= -.30E+01 SK= 0.24E+00
       N       E                     dE             d eps       ncg     rms          rms(c)
DAV:   1    -0.328743240879E+03    0.70100E-01   -0.59888E-03  2912   0.890E-01    0.413E-02
RMM:   2    -0.328743475936E+03   -0.23506E-03   -0.24255E-03  1672   0.667E-02    0.162E-02
RMM:   3    -0.328743495500E+03   -0.19564E-04   -0.21344E-04  1840   0.185E-02    0.159E-02
RMM:   4    -0.328743496173E+03   -0.67355E-06   -0.17559E-05  1049   0.625E-03    0.110E-02
RMM:   5    -0.328743496364E+03   -0.19082E-06   -0.62997E-06  1002   0.396E-03
  190 T=   320. E= -.32880704E+03 F= -.32874350E+03 E0= -.32876850E+03  EK= 0.29362E+01 SP= -.32E+01 SK= 0.23E+00
       N       E                     dE             d eps       ncg     rms          rms(c)
DAV:   1    -0.328680477744E+03    0.63018E-01   -0.74280E-03  2864   0.900E-01    0.451E-02
RMM:   2    -0.328680750525E+03   -0.27278E-03   -0.28075E-03  1673   0.725E-02    0.167E-02
RMM:   3    -0.328680773382E+03   -0.22857E-04   -0.24686E-04  1872   0.199E-02    0.165E-02
RMM:   4    -0.328680774140E+03   -0.75726E-06   -0.18199E-05  1052   0.639E-03    0.113E-02
RMM:   5    -0.328680774436E+03   -0.29629E-06   -0.61752E-06  1001   0.398E-03
  191 T=   334. E= -.32880722E+03 F= -.32868077E+03 E0= -.32870590E+03  EK= 0.30622E+01 SP= -.34E+01 SK= 0.21E+00
       N       E                     dE             d eps       ncg     rms          rms(c)
DAV:   1    -0.328627721221E+03    0.53053E-01   -0.67042E-03  2864   0.914E-01    0.430E-02
RMM:   2    -0.328627964536E+03   -0.24332E-03   -0.25147E-03  1676   0.690E-02    0.174E-02
RMM:   3    -0.328627985292E+03   -0.20756E-04   -0.22752E-04  1871   0.191E-02    0.170E-02
RMM:   4    -0.328627985949E+03   -0.65620E-06   -0.17918E-05  1054   0.629E-03    0.122E-02
RMM:   5    -0.328627986098E+03   -0.14972E-06   -0.66228E-06  1001   0.404E-03
  192 T=   348. E= -.32880776E+03 F= -.32862799E+03 E0= -.32865321E+03  EK= 0.31972E+01 SP= -.36E+01 SK= 0.19E+00
       N       E                     dE             d eps       ncg     rms          rms(c)
DAV:   1    -0.328585648093E+03    0.42338E-01   -0.69120E-03  2928   0.929E-01    0.478E-02
RMM:   2    -0.328585904831E+03   -0.25674E-03   -0.26650E-03  1674   0.714E-02    0.179E-02
RMM:   3    -0.328585926475E+03   -0.21644E-04   -0.23783E-04  1896   0.195E-02    0.173E-02
RMM:   4    -0.328585926883E+03   -0.40779E-06   -0.17704E-05  1052   0.631E-03    0.115E-02
RMM:   5    -0.328585927124E+03   -0.24127E-06   -0.65670E-06  1000   0.402E-03
  193 T=   364. E= -.32880872E+03 F= -.32858593E+03 E0= -.32861121E+03  EK= 0.33379E+01 SP= -.37E+01 SK= 0.16E+00
       N       E                     dE             d eps       ncg     rms          rms(c)
DAV:   1    -0.328552994057E+03    0.32933E-01   -0.83504E-03  2944   0.947E-01    0.480E-02
RMM:   2    -0.328553291385E+03   -0.29733E-03   -0.30632E-03  1670   0.787E-02    0.219E-02
RMM:   3    -0.328553314302E+03   -0.22917E-04   -0.25607E-04  1905   0.208E-02    0.210E-02
RMM:   4    -0.328553314553E+03   -0.25108E-06   -0.20805E-05  1072   0.672E-03    0.143E-02
RMM:   5    -0.328553314686E+03   -0.13316E-06   -0.77155E-06  1002   0.428E-03
  194 T=   379. E= -.32880987E+03 F= -.32855331E+03 E0= -.32857860E+03  EK= 0.34779E+01 SP= -.39E+01 SK= 0.13E+00
       N       E                     dE             d eps       ncg     rms          rms(c)
DAV:   1    -0.328527524856E+03    0.25790E-01   -0.73086E-03  2896   0.968E-01    0.532E-02
RMM:   2    -0.328527843750E+03   -0.31889E-03   -0.32924E-03  1675   0.797E-02    0.221E-02
RMM:   3    -0.328527870192E+03   -0.26442E-04   -0.29155E-04  1936   0.216E-02    0.211E-02
RMM:   4    -0.328527870620E+03   -0.42768E-06   -0.22427E-05  1080   0.679E-03    0.139E-02
RMM:   5    -0.328527870829E+03   -0.20924E-06   -0.77242E-06  1004   0.431E-03
  195 T=   393. E= -.32881058E+03 F= -.32852787E+03 E0= -.32855310E+03  EK= 0.36094E+01 SP= -.40E+01 SK= 0.93E-01
       N       E                     dE             d eps       ncg     rms          rms(c)
DAV:   1    -0.328507945002E+03    0.19926E-01   -0.78537E-03  2848   0.985E-01    0.540E-02
RMM:   2    -0.328508277977E+03   -0.33298E-03   -0.34364E-03  1677   0.812E-02    0.247E-02
RMM:   3    -0.328508303864E+03   -0.25887E-04   -0.29678E-04  1929   0.218E-02    0.230E-02
RMM:   4    -0.328508303762E+03    0.10215E-06   -0.23823E-05  1091   0.693E-03    0.146E-02
RMM:   5    -0.328508303855E+03   -0.92921E-07   -0.81605E-06  1003   0.442E-03
  196 T=   406. E= -.32881086E+03 F= -.32850830E+03 E0= -.32853343E+03  EK= 0.37247E+01 SP= -.41E+01 SK= 0.59E-01
       N       E                     dE             d eps       ncg     rms          rms(c)
DAV:   1    -0.328493715915E+03    0.14588E-01   -0.80347E-03  2912   0.100E+00    0.547E-02
RMM:   2    -0.328494041001E+03   -0.32509E-03   -0.33666E-03  1670   0.824E-02    0.255E-02
RMM:   3    -0.328494066031E+03   -0.25030E-04   -0.28452E-04  1906   0.217E-02    0.237E-02
RMM:   4    -0.328494065917E+03    0.11400E-06   -0.23156E-05  1079   0.704E-03    0.147E-02
RMM:   5    -0.328494066203E+03   -0.28661E-06   -0.80757E-06  1003   0.441E-03
  197 T=   416. E= -.32881134E+03 F= -.32849407E+03 E0= -.32851907E+03  EK= 0.38161E+01 SP= -.42E+01 SK= 0.31E-01
       N       E                     dE             d eps       ncg     rms          rms(c)
DAV:   1    -0.328482561734E+03    0.11504E-01   -0.82725E-03  2896   0.102E+00    0.551E-02
RMM:   2    -0.328482917500E+03   -0.35577E-03   -0.36765E-03  1672   0.856E-02    0.250E-02
RMM:   3    -0.328482945692E+03   -0.28192E-04   -0.31747E-04  1938   0.229E-02    0.238E-02
RMM:   4    -0.328482945923E+03   -0.23106E-06   -0.26171E-05  1109   0.729E-03    0.159E-02
RMM:   5    -0.328482946017E+03   -0.93285E-07   -0.87336E-06  1004   0.454E-03
  198 T=   422. E= -.32881193E+03 F= -.32848295E+03 E0= -.32850782E+03  EK= 0.38761E+01 SP= -.42E+01 SK= 0.10E-01
       N       E                     dE             d eps       ncg     rms          rms(c)
DAV:   1    -0.328472593227E+03    0.10353E-01   -0.82853E-03  2912   0.102E+00    0.542E-02
RMM:   2    -0.328472953033E+03   -0.35981E-03   -0.37136E-03  1670   0.849E-02    0.223E-02
RMM:   3    -0.328472981372E+03   -0.28339E-04   -0.31212E-04  1916   0.228E-02    0.213E-02
RMM:   4    -0.328472982386E+03   -0.10144E-05   -0.28224E-05  1122   0.733E-03    0.144E-02
RMM:   5    -0.328472982595E+03   -0.20933E-06   -0.77048E-06  1003   0.436E-03
  199 T=   425. E= -.32881226E+03 F= -.32847298E+03 E0= -.32849775E+03  EK= 0.38993E+01 SP= -.42E+01 SK= 0.68E-03
       N       E                     dE             d eps       ncg     rms          rms(c)
DAV:   1    -0.328462722959E+03    0.10259E-01   -0.76472E-03  2928   0.103E+00    0.555E-02
RMM:   2    -0.328463075781E+03   -0.35282E-03   -0.36379E-03  1668   0.845E-02    0.214E-02
RMM:   3    -0.328463104999E+03   -0.29217E-04   -0.32083E-04  1941   0.229E-02    0.209E-02
RMM:   4    -0.328463105745E+03   -0.74588E-06   -0.25691E-05  1109   0.714E-03    0.147E-02
RMM:   5    -0.328463105860E+03   -0.11556E-06   -0.76110E-06  1004   0.429E-03
  200 T=   423. E= -.32881211E+03 F= -.32846311E+03 E0= -.32848781E+03  EK= 0.38833E+01 SP= -.42E+01 SK= 0.25E-02
       N       E                     dE             d eps       ncg     rms          rms(c)
DAV:   1    -0.328452774394E+03    0.10331E-01   -0.73873E-03  2944   0.103E+00    0.566E-02
RMM:   2    -0.328453127125E+03   -0.35273E-03   -0.36372E-03  1670   0.851E-02    0.229E-02
RMM:   3    -0.328453154348E+03   -0.27223E-04   -0.30087E-04  1918   0.226E-02    0.220E-02
RMM:   4    -0.328453155120E+03   -0.77199E-06   -0.25955E-05  1105   0.725E-03    0.151E-02
RMM:   5    -0.328453155214E+03   -0.93991E-07   -0.77320E-06  1003   0.436E-03
  201 T=   417. E= -.32881222E+03 F= -.32845316E+03 E0= -.32847787E+03  EK= 0.38280E+01 SP= -.42E+01 SK= 0.15E-01
       N       E                     dE             d eps       ncg     rms          rms(c)
DAV:   1    -0.328440614810E+03    0.12540E-01   -0.68991E-03  2880   0.102E+00    0.565E-02
RMM:   2    -0.328440963306E+03   -0.34850E-03   -0.36016E-03  1671   0.837E-02    0.241E-02
RMM:   3    -0.328440990833E+03   -0.27527E-04   -0.30810E-04  1911   0.224E-02    0.228E-02
RMM:   4    -0.328440991422E+03   -0.58925E-06   -0.26753E-05  1108   0.722E-03    0.156E-02
RMM:   5    -0.328440991519E+03   -0.96596E-07   -0.80837E-06  1002   0.439E-03
  202 T=   407. E= -.32881140E+03 F= -.32844099E+03 E0= -.32846581E+03  EK= 0.37360E+01 SP= -.41E+01 SK= 0.37E-01
       N       E                     dE             d eps       ncg     rms          rms(c)
DAV:   1    -0.328427406116E+03    0.13585E-01   -0.63329E-03  2928   0.101E+00    0.577E-02
RMM:   2    -0.328427737502E+03   -0.33139E-03   -0.34316E-03  1665   0.826E-02    0.248E-02
RMM:   3    -0.328427762227E+03   -0.24725E-04   -0.28086E-04  1904   0.218E-02    0.232E-02
RMM:   4    -0.328427762590E+03   -0.36294E-06   -0.25481E-05  1098   0.714E-03    0.148E-02
RMM:   5    -0.328427762824E+03   -0.23428E-06   -0.78458E-06  1002   0.434E-03
  203 T=   394. E= -.32881067E+03 F= -.32842776E+03 E0= -.32845280E+03  EK= 0.36128E+01 SP= -.41E+01 SK= 0.65E-01
       N       E                     dE             d eps       ncg     rms          rms(c)
DAV:   1    -0.328414151881E+03    0.13611E-01   -0.57244E-03  2944   0.990E-01    0.560E-02
RMM:   2    -0.328414451581E+03   -0.29970E-03   -0.31137E-03  1667   0.805E-02    0.255E-02
RMM:   3    -0.328414472434E+03   -0.20853E-04   -0.24445E-04  1893   0.211E-02    0.239E-02
RMM:   4    -0.328414472501E+03   -0.67066E-07   -0.24224E-05  1093   0.707E-03    0.157E-02
RMM:   5    -0.328414472607E+03   -0.10574E-06   -0.81638E-06  1002   0.436E-03
  204 T=   378. E= -.32880991E+03 F= -.32841447E+03 E0= -.32843984E+03  EK= 0.34664E+01 SP= -.40E+01 SK= 0.94E-01
       N       E                     dE             d eps       ncg     rms          rms(c)
DAV:   1    -0.328402752599E+03    0.11720E-01   -0.49663E-03  2960   0.968E-01    0.516E-02
RMM:   2    -0.328403014967E+03   -0.26237E-03   -0.27388E-03  1665   0.758E-02    0.247E-02
RMM:   3    -0.328403033917E+03   -0.18950E-04   -0.21834E-04  1876   0.200E-02    0.230E-02
RMM:   4    -0.328403033943E+03   -0.25975E-07   -0.21405E-05  1067   0.684E-03    0.141E-02
RMM:   5    -0.328403034320E+03   -0.37653E-06   -0.76582E-06  1002   0.428E-03
  205 T=   360. E= -.32880910E+03 F= -.32840303E+03 E0= -.32842884E+03  EK= 0.33062E+01 SP= -.38E+01 SK= 0.12E+00
       N       E                     dE             d eps       ncg     rms          rms(c)
DAV:   1    -0.328395568963E+03    0.74650E-02   -0.43765E-03  2864   0.942E-01    0.506E-02
RMM:   2    -0.328395806863E+03   -0.23790E-03   -0.24921E-03  1668   0.707E-02    0.217E-02
RMM:   3    -0.328395823418E+03   -0.16555E-04   -0.19477E-04  1846   0.189E-02    0.201E-02
RMM:   4    -0.328395823420E+03   -0.22774E-08   -0.20171E-05  1062   0.666E-03    0.127E-02
RMM:   5    -0.328395823741E+03   -0.32123E-06   -0.70792E-06  1001   0.415E-03
  206 T=   342. E= -.32880800E+03 F= -.32839582E+03 E0= -.32842215E+03  EK= 0.31416E+01 SP= -.37E+01 SK= 0.15E+00
       N       E                     dE             d eps       ncg     rms          rms(c)
DAV:   1    -0.328396087656E+03   -0.26424E-03   -0.46528E-03  2912   0.916E-01    0.476E-02
RMM:   2    -0.328396319727E+03   -0.23207E-03   -0.24148E-03  1668   0.694E-02    0.209E-02
RMM:   3    -0.328396336129E+03   -0.16402E-04   -0.18839E-04  1835   0.186E-02    0.197E-02
RMM:   4    -0.328396336379E+03   -0.24981E-06   -0.19189E-05  1051   0.657E-03    0.126E-02
RMM:   5    -0.328396336656E+03   -0.27681E-06   -0.71430E-06  1002   0.414E-03
  207 T=   325. E= -.32880770E+03 F= -.32839634E+03 E0= -.32842326E+03  EK= 0.29813E+01 SP= -.36E+01 SK= 0.16E+00
       N       E                     dE             d eps       ncg     rms          rms(c)
DAV:   1    -0.328404550658E+03   -0.82143E-02   -0.47023E-03  2912   0.892E-01    0.468E-02
RMM:   2    -0.328404780713E+03   -0.23006E-03   -0.24000E-03  1666   0.685E-02    0.196E-02
RMM:   3    -0.328404797514E+03   -0.16800E-04   -0.18920E-04  1823   0.185E-02    0.184E-02
RMM:   4    -0.328404797915E+03   -0.40114E-06   -0.18862E-05  1046   0.656E-03    0.117E-02
RMM:   5    -0.328404798307E+03   -0.39236E-06   -0.67434E-06  1000   0.408E-03
  208 T=   309. E= -.32880685E+03 F= -.32840480E+03 E0= -.32843235E+03  EK= 0.28317E+01 SP= -.34E+01 SK= 0.17E+00
       N       E                     dE             d eps       ncg     rms          rms(c)
DAV:   1    -0.328421964835E+03   -0.17167E-01   -0.47060E-03  2864   0.870E-01    0.446E-02
RMM:   2    -0.328422190915E+03   -0.22608E-03   -0.23455E-03  1667   0.670E-02    0.191E-02
RMM:   3    -0.328422207048E+03   -0.16133E-04   -0.18193E-04  1799   0.181E-02    0.176E-02
RMM:   4    -0.328422207636E+03   -0.58821E-06   -0.19126E-05  1049   0.652E-03    0.112E-02
RMM:   5    -0.328422208106E+03   -0.46939E-06   -0.67754E-06   999   0.408E-03
  209 T=   294. E= -.32880616E+03 F= -.32842221E+03 E0= -.32845040E+03  EK= 0.26967E+01 SP= -.33E+01 SK= 0.17E+00
       N       E                     dE             d eps       ncg     rms          rms(c)
DAV:   1    -0.328448432886E+03   -0.26225E-01   -0.48136E-03  2896   0.850E-01    0.442E-02
RMM:   2    -0.328448663222E+03   -0.23034E-03   -0.23888E-03  1669   0.679E-02    0.198E-02
RMM:   3    -0.328448679643E+03   -0.16421E-04   -0.18695E-04  1808   0.183E-02    0.182E-02
RMM:   4    -0.328448680070E+03   -0.42722E-06   -0.19141E-05  1049   0.656E-03    0.117E-02
RMM:   5    -0.328448680440E+03   -0.36968E-06   -0.67480E-06   997   0.408E-03
  210 T=   281. E= -.32880556E+03 F= -.32844868E+03 E0= -.32847748E+03  EK= 0.25789E+01 SP= -.31E+01 SK= 0.16E+00
       N       E                     dE             d eps       ncg     rms          rms(c)
DAV:   1    -0.328484177149E+03   -0.35497E-01   -0.50073E-03  2896   0.834E-01    0.450E-02
RMM:   2    -0.328484410839E+03   -0.23369E-03   -0.24199E-03  1673   0.690E-02    0.197E-02
RMM:   3    -0.328484428309E+03   -0.17469E-04   -0.19651E-04  1834   0.186E-02    0.181E-02
RMM:   4    -0.328484428857E+03   -0.54853E-06   -0.19784E-05  1057   0.651E-03    0.112E-02
RMM:   5    -0.328484429275E+03   -0.41785E-06   -0.65249E-06   999   0.398E-03
  211 T=   270. E= -.32880516E+03 F= -.32848443E+03 E0= -.32851379E+03  EK= 0.24801E+01 SP= -.30E+01 SK= 0.15E+00
       N       E                     dE             d eps       ncg     rms          rms(c)
DAV:   1    -0.328528195294E+03   -0.43766E-01   -0.47578E-03  2912   0.821E-01    0.424E-02
RMM:   2    -0.328528432890E+03   -0.23760E-03   -0.24605E-03  1674   0.681E-02    0.203E-02
RMM:   3    -0.328528450691E+03   -0.17802E-04   -0.19938E-04  1839   0.184E-02    0.184E-02
RMM:   4    -0.328528450935E+03   -0.24406E-06   -0.19034E-05  1052   0.649E-03    0.106E-02
RMM:   5    -0.328528451498E+03   -0.56268E-06   -0.68399E-06   997   0.406E-03
  212 T=   262. E= -.32880490E+03 F= -.32852845E+03 E0= -.32855831E+03  EK= 0.24001E+01 SP= -.28E+01 SK= 0.14E+00
       N       E                     dE             d eps       ncg     rms          rms(c)
DAV:   1    -0.328579431706E+03   -0.50981E-01   -0.46985E-03  2896   0.811E-01    0.424E-02
RMM:   2    -0.328579670584E+03   -0.23888E-03   -0.24723E-03  1676   0.676E-02    0.191E-02
RMM:   3    -0.328579689169E+03   -0.18585E-04   -0.20585E-04  1842   0.185E-02    0.173E-02
RMM:   4    -0.328579689603E+03   -0.43370E-06   -0.18822E-05  1056   0.642E-03    0.103E-02
RMM:   5    -0.328579690061E+03   -0.45882E-06   -0.64347E-06  1001   0.399E-03
  213 T=   255. E= -.32880468E+03 F= -.32857969E+03 E0= -.32860998E+03  EK= 0.23384E+01 SP= -.27E+01 SK= 0.12E+00
       N       E                     dE             d eps       ncg     rms          rms(c)
DAV:   1    -0.328637079080E+03   -0.57389E-01   -0.49859E-03  2880   0.804E-01    0.409E-02
RMM:   2    -0.328637309223E+03   -0.23014E-03   -0.23749E-03  1672   0.665E-02    0.173E-02
RMM:   3    -0.328637326437E+03   -0.17214E-04   -0.18971E-04  1812   0.182E-02    0.159E-02
RMM:   4    -0.328637327221E+03   -0.78450E-06   -0.18875E-05  1048   0.636E-03    0.102E-02
RMM:   5    -0.328637327649E+03   -0.42710E-06   -0.63559E-06   999   0.392E-03
  214 T=   250. E= -.32880418E+03 F= -.32863733E+03 E0= -.32866797E+03  EK= 0.22945E+01 SP= -.26E+01 SK= 0.98E-01
       N       E                     dE             d eps       ncg     rms          rms(c)
DAV:   1    -0.328700921189E+03   -0.63594E-01   -0.44439E-03  2864   0.802E-01    0.386E-02
RMM:   2    -0.328701114280E+03   -0.19309E-03   -0.20041E-03  1674   0.612E-02    0.157E-02
RMM:   3    -0.328701129644E+03   -0.15364E-04   -0.16845E-04  1766   0.169E-02    0.145E-02
RMM:   4    -0.328701130377E+03   -0.73229E-06   -0.16834E-05  1032   0.623E-03    0.917E-03
RMM:   5    -0.328701130880E+03   -0.50281E-06   -0.60533E-06   997   0.391E-03
  215 T=   247. E= -.32880405E+03 F= -.32870113E+03 E0= -.32873207E+03  EK= 0.22674E+01 SP= -.24E+01 SK= 0.79E-01
       N       E                     dE             d eps       ncg     rms          rms(c)
DAV:   1    -0.328769133189E+03   -0.68003E-01   -0.41647E-03  2864   0.802E-01    0.359E-02
RMM:   2    -0.328769324433E+03   -0.19124E-03   -0.19844E-03  1677   0.599E-02    0.154E-02
RMM:   3    -0.328769340164E+03   -0.15730E-04   -0.17241E-04  1795   0.168E-02    0.143E-02
RMM:   4    -0.328769340753E+03   -0.58969E-06   -0.15865E-05  1034   0.603E-03    0.953E-03
RMM:   5    -0.328769341140E+03   -0.38634E-06   -0.59718E-06   994   0.384E-03
  216 T=   246. E= -.32880391E+03 F= -.32876934E+03 E0= -.32880051E+03  EK= 0.22553E+01 SP= -.24E+01 SK= 0.62E-01
       N       E                     dE             d eps       ncg     rms          rms(c)
DAV:   1    -0.328840541055E+03   -0.71200E-01   -0.45546E-03  2864   0.806E-01    0.356E-02
RMM:   2    -0.328840733707E+03   -0.19265E-03   -0.19946E-03  1675   0.599E-02    0.145E-02
RMM:   3    -0.328840750057E+03   -0.16350E-04   -0.17531E-04  1775   0.168E-02    0.135E-02
RMM:   4    -0.328840750881E+03   -0.82405E-06   -0.15997E-05  1040   0.606E-03    0.891E-03
RMM:   5    -0.328840751318E+03   -0.43641E-06   -0.57477E-06   997   0.380E-03
  217 T=   246. E= -.32880403E+03 F= -.32884075E+03 E0= -.32887211E+03  EK= 0.22564E+01 SP= -.23E+01 SK= 0.46E-01
       N       E                     dE             d eps       ncg     rms          rms(c)
DAV:   1    -0.328912967233E+03   -0.72216E-01   -0.55165E-03  2848   0.812E-01    0.360E-02
RMM:   2    -0.328913173521E+03   -0.20629E-03   -0.21268E-03  1670   0.628E-02    0.142E-02
RMM:   3    -0.328913190440E+03   -0.16919E-04   -0.18191E-04  1788   0.175E-02    0.135E-02
RMM:   4    -0.328913191317E+03   -0.87624E-06   -0.16751E-05  1039   0.621E-03    0.905E-03
RMM:   5    -0.328913191779E+03   -0.46212E-06   -0.61402E-06   995   0.391E-03
  218 T=   247. E= -.32880405E+03 F= -.32891319E+03 E0= -.32894470E+03  EK= 0.22685E+01 SP= -.22E+01 SK= 0.33E-01
       N       E                     dE             d eps       ncg     rms          rms(c)
DAV:   1    -0.328985202342E+03   -0.72011E-01   -0.50022E-03  2864   0.821E-01    0.360E-02
RMM:   2    -0.328985405743E+03   -0.20340E-03   -0.20977E-03  1693   0.607E-02    0.135E-02
RMM:   3    -0.328985422889E+03   -0.17145E-04   -0.18545E-04  1795   0.171E-02    0.127E-02
RMM:   4    -0.328985423675E+03   -0.78617E-06   -0.15748E-05  1037   0.601E-03    0.832E-03
RMM:   5    -0.328985424061E+03   -0.38654E-06   -0.57790E-06   997   0.382E-03
  219 T=   249. E= -.32880430E+03 F= -.32898542E+03 E0= -.32901704E+03  EK= 0.22897E+01 SP= -.21E+01 SK= 0.23E-01
       N       E                     dE             d eps       ncg     rms          rms(c)
DAV:   1    -0.329054093430E+03   -0.68670E-01   -0.57600E-03  2816   0.830E-01    0.358E-02
RMM:   2    -0.329054311054E+03   -0.21762E-03   -0.22392E-03  1679   0.628E-02    0.138E-02
RMM:   3    -0.329054329701E+03   -0.18647E-04   -0.19789E-04  1798   0.178E-02    0.131E-02
RMM:   4    -0.329054330703E+03   -0.10020E-05   -0.16975E-05  1039   0.622E-03    0.897E-03
RMM:   5    -0.329054331179E+03   -0.47577E-06   -0.62168E-06   997   0.395E-03
  220 T=   252. E= -.32880459E+03 F= -.32905433E+03 E0= -.32908603E+03  EK= 0.23166E+01 SP= -.21E+01 SK= 0.15E-01
       N       E                     dE             d eps       ncg     rms          rms(c)
DAV:   1    -0.329116401208E+03   -0.62071E-01   -0.52381E-03  2848   0.840E-01    0.342E-02
RMM:   2    -0.329116606055E+03   -0.20485E-03   -0.21109E-03  1684   0.603E-02    0.136E-02
RMM:   3    -0.329116624392E+03   -0.18337E-04   -0.19422E-04  1782   0.172E-02    0.128E-02
RMM:   4    -0.329116625373E+03   -0.98059E-06   -0.16513E-05  1045   0.609E-03    0.847E-03
RMM:   5    -0.329116625918E+03   -0.54529E-06   -0.58084E-06   999   0.385E-03
  221 T=   256. E= -.32880476E+03 F= -.32911663E+03 E0= -.32914838E+03  EK= 0.23456E+01 SP= -.20E+01 SK= 0.86E-02
       N       E                     dE             d eps       ncg     rms          rms(c)
DAV:   1    -0.329170444616E+03   -0.53819E-01   -0.55009E-03  2816   0.849E-01    0.362E-02
RMM:   2    -0.329170651805E+03   -0.20719E-03   -0.21347E-03  1684   0.613E-02    0.134E-02
RMM:   3    -0.329170670286E+03   -0.18481E-04   -0.19725E-04  1801   0.175E-02    0.128E-02
RMM:   4    -0.329170671193E+03   -0.90738E-06   -0.16425E-05  1037   0.614E-03    0.850E-03
RMM:   5    -0.329170671626E+03   -0.43261E-06   -0.59709E-06   998   0.390E-03
  222 T=   259. E= -.32880522E+03 F= -.32917067E+03 E0= -.32920244E+03  EK= 0.23743E+01 SP= -.20E+01 SK= 0.44E-02
       N       E                     dE             d eps       ncg     rms          rms(c)
DAV:   1    -0.329213214675E+03   -0.42543E-01   -0.46112E-03  2880   0.858E-01    0.351E-02
RMM:   2    -0.329213408141E+03   -0.19347E-03   -0.19994E-03  1687   0.586E-02    0.138E-02
RMM:   3    -0.329213426074E+03   -0.17932E-04   -0.19136E-04  1803   0.170E-02    0.131E-02
RMM:   4    -0.329213426866E+03   -0.79266E-06   -0.15730E-05  1040   0.596E-03    0.886E-03
RMM:   5    -0.329213427266E+03   -0.39939E-06   -0.57008E-06   996   0.381E-03
  223 T=   261. E= -.32880557E+03 F= -.32921343E+03 E0= -.32924517E+03  EK= 0.23996E+01 SP= -.20E+01 SK= 0.17E-02
       N       E                     dE             d eps       ncg     rms          rms(c)
DAV:   1    -0.329242801616E+03   -0.29375E-01   -0.51117E-03  2960   0.863E-01    0.366E-02
RMM:   2    -0.329243000048E+03   -0.19843E-03   -0.20522E-03  1675   0.613E-02    0.147E-02
RMM:   3    -0.329243017149E+03   -0.17101E-04   -0.18276E-04  1791   0.172E-02    0.140E-02
RMM:   4    -0.329243017944E+03   -0.79498E-06   -0.15628E-05  1032   0.609E-03    0.966E-03
RMM:   5    -0.329243018345E+03   -0.40105E-06   -0.59768E-06   999   0.383E-03
  224 T=   264. E= -.32880542E+03 F= -.32924302E+03 E0= -.32927467E+03  EK= 0.24197E+01 SP= -.20E+01 SK= 0.35E-03
       N       E                     dE             d eps       ncg     rms          rms(c)
DAV:   1    -0.329258877580E+03   -0.15860E-01   -0.57391E-03  2848   0.866E-01    0.376E-02
RMM:   2    -0.329259082835E+03   -0.20526E-03   -0.21248E-03  1673   0.621E-02    0.152E-02
RMM:   3    -0.329259099203E+03   -0.16368E-04   -0.17826E-04  1780   0.173E-02    0.142E-02
RMM:   4    -0.329259099810E+03   -0.60756E-06   -0.16401E-05  1029   0.625E-03    0.896E-03
RMM:   5    -0.329259100185E+03   -0.37436E-06   -0.61621E-06   999   0.393E-03
  225 T=   265. E= -.32880538E+03 F= -.32925910E+03 E0= -.32929057E+03  EK= 0.24334E+01 SP= -.20E+01 SK= 0.10E-04
       N       E                     dE             d eps       ncg     rms          rms(c)
DAV:   1    -0.329260771751E+03   -0.16719E-02   -0.57812E-03  2880   0.867E-01    0.389E-02
RMM:   2    -0.329260992778E+03   -0.22103E-03   -0.22796E-03  1691   0.644E-02    0.158E-02
RMM:   3    -0.329261012128E+03   -0.19350E-04   -0.21078E-04  1833   0.180E-02    0.150E-02
RMM:   4    -0.329261012838E+03   -0.70974E-06   -0.16999E-05  1041   0.619E-03    0.104E-02
RMM:   5    -0.329261013139E+03   -0.30117E-06   -0.63330E-06  1002   0.396E-03
  226 T=   266. E= -.32880509E+03 F= -.32926101E+03 E0= -.32929220E+03  EK= 0.24401E+01 SP= -.20E+01 SK= 0.59E-03
       N       E                     dE             d eps       ncg     rms          rms(c)
DAV:   1    -0.329249688472E+03    0.11324E-01   -0.61703E-03  2848   0.865E-01    0.393E-02
RMM:   2    -0.329249919507E+03   -0.23103E-03   -0.23838E-03  1682   0.654E-02    0.157E-02
RMM:   3    -0.329249939997E+03   -0.20490E-04   -0.22063E-04  1858   0.183E-02    0.149E-02
RMM:   4    -0.329249940713E+03   -0.71604E-06   -0.17110E-05  1045   0.616E-03    0.976E-03
RMM:   5    -0.329249941075E+03   -0.36215E-06   -0.59923E-06  1001   0.387E-03
  227 T=   266. E= -.32880495E+03 F= -.32924994E+03 E0= -.32928074E+03  EK= 0.24406E+01 SP= -.20E+01 SK= 0.21E-02
       N       E                     dE             d eps       ncg     rms          rms(c)
DAV:   1    -0.329226833557E+03    0.23107E-01   -0.65830E-03  2816   0.860E-01    0.383E-02
RMM:   2    -0.329227061917E+03   -0.22836E-03   -0.23569E-03  1675   0.655E-02    0.164E-02
RMM:   3    -0.329227080314E+03   -0.18397E-04   -0.19987E-04  1833   0.182E-02    0.156E-02
RMM:   4    -0.329227081027E+03   -0.71230E-06   -0.17636E-05  1043   0.624E-03    0.108E-02
RMM:   5    -0.329227081284E+03   -0.25756E-06   -0.66060E-06  1001   0.396E-03
  228 T=   265. E= -.32880465E+03 F= -.32922708E+03 E0= -.32925741E+03  EK= 0.24363E+01 SP= -.20E+01 SK= 0.44E-02
       N       E                     dE             d eps       ncg     rms          rms(c)
DAV:   1    -0.329195205665E+03    0.31875E-01   -0.64359E-03  2832   0.854E-01    0.401E-02
RMM:   2    -0.329195454223E+03   -0.24856E-03   -0.25628E-03  1684   0.663E-02    0.158E-02
RMM:   3    -0.329195475320E+03   -0.21097E-04   -0.22680E-04  1849   0.186E-02    0.149E-02
RMM:   4    -0.329195476115E+03   -0.79527E-06   -0.17969E-05  1053   0.632E-03    0.992E-03
RMM:   5    -0.329195476413E+03   -0.29859E-06   -0.62453E-06   999   0.398E-03
  229 T=   265. E= -.32880459E+03 F= -.32919548E+03 E0= -.32922525E+03  EK= 0.24298E+01 SP= -.20E+01 SK= 0.77E-02
       N       E                     dE             d eps       ncg     rms          rms(c)
DAV:   1    -0.329156999346E+03    0.38477E-01   -0.71258E-03  2848   0.847E-01    0.412E-02
RMM:   2    -0.329157269588E+03   -0.27024E-03   -0.27746E-03  1676   0.689E-02    0.151E-02
RMM:   3    -0.329157292230E+03   -0.22642E-04   -0.24210E-04  1896   0.195E-02    0.148E-02
RMM:   4    -0.329157293111E+03   -0.88096E-06   -0.18420E-05  1051   0.627E-03    0.995E-03
RMM:   5    -0.329157293427E+03   -0.31611E-06   -0.63615E-06  1001   0.395E-03
  230 T=   264. E= -.32880435E+03 F= -.32915729E+03 E0= -.32918647E+03  EK= 0.24239E+01 SP= -.21E+01 SK= 0.12E-01
       N       E                     dE             d eps       ncg     rms          rms(c)
DAV:   1    -0.329115544007E+03    0.41749E-01   -0.78259E-03  2800   0.840E-01    0.410E-02
RMM:   2    -0.329115821415E+03   -0.27741E-03   -0.28499E-03  1679   0.707E-02    0.147E-02
RMM:   3    -0.329115844234E+03   -0.22818E-04   -0.24287E-04  1869   0.197E-02    0.145E-02
RMM:   4    -0.329115845354E+03   -0.11206E-05   -0.19930E-05  1060   0.646E-03    0.101E-02
RMM:   5    -0.329115845591E+03   -0.23664E-06   -0.60969E-06   999   0.392E-03
  231 T=   264. E= -.32880441E+03 F= -.32911585E+03 E0= -.32914440E+03  EK= 0.24216E+01 SP= -.21E+01 SK= 0.17E-01
       N       E                     dE             d eps       ncg     rms          rms(c)
DAV:   1    -0.329072911142E+03    0.42934E-01   -0.75933E-03  2816   0.835E-01    0.409E-02
RMM:   2    -0.329073194040E+03   -0.28290E-03   -0.29040E-03  1687   0.698E-02    0.153E-02
RMM:   3    -0.329073218362E+03   -0.24322E-04   -0.25780E-04  1864   0.196E-02    0.150E-02
RMM:   4    -0.329073219389E+03   -0.10272E-05   -0.19259E-05  1067   0.644E-03    0.103E-02
RMM:   5    -0.329073219699E+03   -0.30954E-06   -0.61620E-06   999   0.397E-03
  232 T=   264. E= -.32880459E+03 F= -.32907322E+03 E0= -.32910115E+03  EK= 0.24252E+01 SP= -.22E+01 SK= 0.24E-01
       N       E                     dE             d eps       ncg     rms          rms(c)
DAV:   1    -0.329030858409E+03    0.42361E-01   -0.75041E-03  2928   0.831E-01    0.397E-02
RMM:   2    -0.329031146635E+03   -0.28823E-03   -0.29603E-03  1689   0.708E-02    0.158E-02
RMM:   3    -0.329031172603E+03   -0.25968E-04   -0.27429E-04  1905   0.201E-02    0.156E-02
RMM:   4    -0.329031173507E+03   -0.90343E-06   -0.18685E-05  1061   0.639E-03    0.108E-02
RMM:   5    -0.329031173800E+03   -0.29347E-06   -0.63572E-06   999   0.399E-03
  233 T=   265. E= -.32880482E+03 F= -.32903117E+03 E0= -.32905852E+03  EK= 0.24366E+01 SP= -.22E+01 SK= 0.31E-01
       N       E                     dE             d eps       ncg     rms          rms(c)
DAV:   1    -0.328990597671E+03    0.40576E-01   -0.87977E-03  2864   0.830E-01    0.439E-02
RMM:   2    -0.328990915946E+03   -0.31827E-03   -0.32622E-03  1683   0.750E-02    0.165E-02
RMM:   3    -0.328990943071E+03   -0.27125E-04   -0.28806E-04  1902   0.211E-02    0.163E-02
RMM:   4    -0.328990944381E+03   -0.13097E-05   -0.23190E-05  1096   0.678E-03    0.114E-02
RMM:   5    -0.328990944587E+03   -0.20605E-06   -0.63306E-06  1003   0.402E-03
  234 T=   268. E= -.32880497E+03 F= -.32899094E+03 E0= -.32901773E+03  EK= 0.24572E+01 SP= -.23E+01 SK= 0.38E-01
       N       E                     dE             d eps       ncg     rms          rms(c)
DAV:   1    -0.328952705663E+03    0.38239E-01   -0.83440E-03  2816   0.830E-01    0.433E-02
RMM:   2    -0.328953009274E+03   -0.30361E-03   -0.31153E-03  1679   0.743E-02    0.181E-02
RMM:   3    -0.328953034680E+03   -0.25406E-04   -0.27298E-04  1903   0.206E-02    0.177E-02
RMM:   4    -0.328953035443E+03   -0.76268E-06   -0.19333E-05  1064   0.651E-03    0.124E-02
RMM:   5    -0.328953035584E+03   -0.14152E-06   -0.66759E-06  1005   0.408E-03
  235 T=   271. E= -.32880513E+03 F= -.32895304E+03 E0= -.32897930E+03  EK= 0.24873E+01 SP= -.24E+01 SK= 0.46E-01
       N       E                     dE             d eps       ncg     rms          rms(c)
DAV:   1    -0.328918288968E+03    0.34746E-01   -0.77483E-03  2816   0.833E-01    0.453E-02
RMM:   2    -0.328918568285E+03   -0.27932E-03   -0.28811E-03  1674   0.727E-02    0.184E-02
RMM:   3    -0.328918591918E+03   -0.23633E-04   -0.25770E-04  1903   0.202E-02    0.177E-02
RMM:   4    -0.328918592761E+03   -0.84319E-06   -0.22537E-05  1093   0.658E-03    0.114E-02
RMM:   5    -0.328918592966E+03   -0.20573E-06   -0.64066E-06  1006   0.399E-03
  236 T=   275. E= -.32880551E+03 F= -.32891859E+03 E0= -.32894437E+03  EK= 0.25276E+01 SP= -.25E+01 SK= 0.53E-01
       N       E                     dE             d eps       ncg     rms          rms(c)
DAV:   1    -0.328887731922E+03    0.30861E-01   -0.73077E-03  2832   0.837E-01    0.449E-02
RMM:   2    -0.328888019656E+03   -0.28773E-03   -0.29656E-03  1680   0.742E-02    0.197E-02
RMM:   3    -0.328888043922E+03   -0.24266E-04   -0.26654E-04  1893   0.205E-02    0.190E-02
RMM:   4    -0.328888044630E+03   -0.70853E-06   -0.22491E-05  1083   0.670E-03    0.131E-02
RMM:   5    -0.328888044675E+03   -0.44885E-07   -0.71056E-06  1002   0.417E-03
  237 T=   281. E= -.32880581E+03 F= -.32888804E+03 E0= -.32891335E+03  EK= 0.25785E+01 SP= -.26E+01 SK= 0.60E-01
       N       E                     dE             d eps       ncg     rms          rms(c)
DAV:   1    -0.328861908300E+03    0.26136E-01   -0.77541E-03  2816   0.844E-01    0.454E-02
RMM:   2    -0.328862195907E+03   -0.28761E-03   -0.29647E-03  1670   0.742E-02    0.202E-02
RMM:   3    -0.328862219830E+03   -0.23923E-04   -0.25964E-04  1892   0.205E-02    0.192E-02
RMM:   4    -0.328862220616E+03   -0.78650E-06   -0.21761E-05  1080   0.673E-03    0.122E-02
RMM:   5    -0.328862220906E+03   -0.28924E-06   -0.71915E-06  1006   0.422E-03
  238 T=   288. E= -.32880627E+03 F= -.32886222E+03 E0= -.32888705E+03  EK= 0.26397E+01 SP= -.26E+01 SK= 0.65E-01
       N       E                     dE             d eps       ncg     rms          rms(c)
DAV:   1    -0.328841651087E+03    0.20570E-01   -0.71286E-03  2848   0.854E-01    0.471E-02
RMM:   2    -0.328841935723E+03   -0.28464E-03   -0.29389E-03  1674   0.745E-02    0.195E-02
RMM:   3    -0.328841959920E+03   -0.24198E-04   -0.26637E-04  1909   0.207E-02    0.189E-02
RMM:   4    -0.328841960393E+03   -0.47212E-06   -0.20900E-05  1071   0.668E-03    0.130E-02
RMM:   5    -0.328841960467E+03   -0.74910E-07   -0.70438E-06  1006   0.419E-03
  239 T=   295. E= -.32880678E+03 F= -.32884196E+03 E0= -.32886628E+03  EK= 0.27114E+01 SP= -.27E+01 SK= 0.67E-01
       N       E                     dE             d eps       ncg     rms          rms(c)
DAV:   1    -0.328826765702E+03    0.15195E-01   -0.71400E-03  2864   0.866E-01    0.438E-02
RMM:   2    -0.328827023199E+03   -0.25750E-03   -0.26537E-03  1671   0.730E-02    0.197E-02
RMM:   3    -0.328827044509E+03   -0.21310E-04   -0.23083E-04  1867   0.198E-02    0.189E-02
RMM:   4    -0.328827045303E+03   -0.79470E-06   -0.19981E-05  1067   0.662E-03    0.127E-02
RMM:   5    -0.328827045507E+03   -0.20424E-06   -0.64851E-06  1005   0.407E-03
  240 T=   304. E= -.32880704E+03 F= -.32882705E+03 E0= -.32885081E+03  EK= 0.27924E+01 SP= -.28E+01 SK= 0.67E-01
       N       E                     dE             d eps       ncg     rms          rms(c)
DAV:   1    -0.328817700668E+03    0.93446E-02   -0.70022E-03  2864   0.882E-01    0.487E-02
RMM:   2    -0.328817957048E+03   -0.25638E-03   -0.26592E-03  1666   0.729E-02    0.176E-02
RMM:   3    -0.328817978975E+03   -0.21927E-04   -0.24039E-04  1896   0.201E-02    0.171E-02
RMM:   4    -0.328817979660E+03   -0.68438E-06   -0.21110E-05  1083   0.659E-03    0.119E-02
RMM:   5    -0.328817979743E+03   -0.83306E-07   -0.62228E-06  1006   0.396E-03
  241 T=   314. E= -.32880777E+03 F= -.32881798E+03 E0= -.32884113E+03  EK= 0.28806E+01 SP= -.29E+01 SK= 0.65E-01
       N       E                     dE             d eps       ncg     rms          rms(c)
DAV:   1    -0.328813386956E+03    0.45927E-02   -0.66678E-03  2912   0.899E-01    0.455E-02
RMM:   2    -0.328813652418E+03   -0.26546E-03   -0.27300E-03  1670   0.731E-02    0.189E-02
RMM:   3    -0.328813676472E+03   -0.24054E-04   -0.25735E-04  1896   0.202E-02    0.181E-02
RMM:   4    -0.328813677406E+03   -0.93394E-06   -0.21671E-05  1084   0.664E-03    0.119E-02
RMM:   5    -0.328813677711E+03   -0.30502E-06   -0.64560E-06  1006   0.403E-03
  242 T=   324. E= -.32880855E+03 F= -.32881368E+03 E0= -.32883617E+03  EK= 0.29734E+01 SP= -.30E+01 SK= 0.59E-01
       N       E                     dE             d eps       ncg     rms          rms(c)
DAV:   1    -0.328811206582E+03    0.24708E-02   -0.71743E-03  2848   0.917E-01    0.508E-02
RMM:   2    -0.328811512360E+03   -0.30578E-03   -0.31513E-03  1669   0.780E-02    0.187E-02
RMM:   3    -0.328811538403E+03   -0.26043E-04   -0.28089E-04  1909   0.215E-02    0.184E-02
RMM:   4    -0.328811539301E+03   -0.89775E-06   -0.23272E-05  1091   0.689E-03    0.126E-02
RMM:   5    -0.328811539455E+03   -0.15452E-06   -0.67551E-06  1004   0.413E-03
  243 T=   334. E= -.32880882E+03 F= -.32881154E+03 E0= -.32883334E+03  EK= 0.30660E+01 SP= -.31E+01 SK= 0.51E-01
       N       E                     dE             d eps       ncg     rms          rms(c)
DAV:   1    -0.328809215359E+03    0.23239E-02   -0.67641E-03  2848   0.935E-01    0.487E-02
RMM:   2    -0.328809503684E+03   -0.28832E-03   -0.29699E-03  1670   0.773E-02    0.207E-02
RMM:   3    -0.328809527765E+03   -0.24081E-04   -0.26281E-04  1903   0.208E-02    0.202E-02
RMM:   4    -0.328809528585E+03   -0.82003E-06   -0.21222E-05  1081   0.668E-03    0.144E-02
RMM:   5    -0.328809528696E+03   -0.11066E-06   -0.72896E-06  1006   0.421E-03
  244 T=   344. E= -.32880904E+03 F= -.32880953E+03 E0= -.32883065E+03  EK= 0.31528E+01 SP= -.32E+01 SK= 0.40E-01
       N       E                     dE             d eps       ncg     rms          rms(c)
DAV:   1    -0.328805434366E+03    0.40942E-02   -0.64113E-03  2816   0.952E-01    0.556E-02
RMM:   2    -0.328805751993E+03   -0.31763E-03   -0.32793E-03  1678   0.787E-02    0.197E-02
RMM:   3    -0.328805779563E+03   -0.27570E-04   -0.30097E-04  1907   0.216E-02    0.193E-02
RMM:   4    -0.328805780520E+03   -0.95702E-06   -0.24263E-05  1096   0.701E-03    0.133E-02
RMM:   5    -0.328805780726E+03   -0.20614E-06   -0.69852E-06  1006   0.422E-03
  245 T=   352. E= -.32880961E+03 F= -.32880578E+03 E0= -.32882625E+03  EK= 0.32285E+01 SP= -.33E+01 SK= 0.29E-01
       N       E                     dE             d eps       ncg     rms          rms(c)
DAV:   1    -0.328797262440E+03    0.85181E-02   -0.65737E-03  2832   0.965E-01    0.523E-02
RMM:   2    -0.328797628905E+03   -0.36646E-03   -0.37541E-03  1680   0.815E-02    0.241E-02
RMM:   3    -0.328797659722E+03   -0.30818E-04   -0.33829E-04  1919   0.226E-02    0.229E-02
RMM:   4    -0.328797660684E+03   -0.96113E-06   -0.28857E-05  1120   0.722E-03    0.150E-02
RMM:   5    -0.328797660917E+03   -0.23303E-06   -0.81877E-06  1005   0.446E-03
  246 T=   358. E= -.32880984E+03 F= -.32879766E+03 E0= -.32881756E+03  EK= 0.32880E+01 SP= -.33E+01 SK= 0.19E-01
       N       E                     dE             d eps       ncg     rms          rms(c)
DAV:   1    -0.328783990506E+03    0.13670E-01   -0.85046E-03  2816   0.975E-01    0.591E-02
RMM:   2    -0.328784376351E+03   -0.38584E-03   -0.39674E-03  1669   0.856E-02    0.230E-02
RMM:   3    -0.328784406645E+03   -0.30294E-04   -0.33731E-04  1910   0.231E-02    0.221E-02
RMM:   4    -0.328784407644E+03   -0.99816E-06   -0.29767E-05  1131   0.744E-03    0.143E-02
RMM:   5    -0.328784407864E+03   -0.22060E-06   -0.75533E-06  1007   0.433E-03
  247 T=   363. E= -.32881036E+03 F= -.32878441E+03 E0= -.32880383E+03  EK= 0.33273E+01 SP= -.34E+01 SK= 0.10E-01
       N       E                     dE             d eps       ncg     rms          rms(c)
DAV:   1    -0.328765755384E+03    0.18652E-01   -0.68803E-03  2880   0.980E-01    0.550E-02
RMM:   2    -0.328766094767E+03   -0.33938E-03   -0.34929E-03  1669   0.825E-02    0.247E-02
RMM:   3    -0.328766121335E+03   -0.26568E-04   -0.29831E-04  1897   0.222E-02    0.234E-02
RMM:   4    -0.328766122075E+03   -0.74014E-06   -0.28439E-05  1126   0.736E-03    0.146E-02
RMM:   5    -0.328766122360E+03   -0.28410E-06   -0.78272E-06  1004   0.440E-03
  248 T=   364. E= -.32881078E+03 F= -.32876612E+03 E0= -.32878518E+03  EK= 0.33449E+01 SP= -.34E+01 SK= 0.38E-02
       N       E                     dE             d eps       ncg     rms          rms(c)
DAV:   1    -0.328743242232E+03    0.22880E-01   -0.66126E-03  2848   0.981E-01    0.548E-02
RMM:   2    -0.328743582979E+03   -0.34075E-03   -0.35161E-03  1672   0.815E-02    0.236E-02
RMM:   3    -0.328743610624E+03   -0.27644E-04   -0.31007E-04  1916   0.221E-02    0.222E-02
RMM:   4    -0.328743611182E+03   -0.55812E-06   -0.26513E-05  1118   0.719E-03    0.136E-02
RMM:   5    -0.328743611473E+03   -0.29135E-06   -0.74536E-06  1004   0.428E-03
  249 T=   364. E= -.32881070E+03 F= -.32874361E+03 E0= -.32876243E+03  EK= 0.33413E+01 SP= -.34E+01 SK= 0.49E-03
       N       E                     dE             d eps       ncg     rms          rms(c)
DAV:   1    -0.328718804590E+03    0.24807E-01   -0.68988E-03  2816   0.977E-01    0.547E-02
RMM:   2    -0.328719151422E+03   -0.34683E-03   -0.35688E-03  1669   0.821E-02    0.227E-02
RMM:   3    -0.328719177995E+03   -0.26574E-04   -0.29557E-04  1890   0.222E-02    0.217E-02
RMM:   4    -0.328719178995E+03   -0.99975E-06   -0.27329E-05  1121   0.731E-03    0.143E-02
RMM:   5    -0.328719179246E+03   -0.25033E-06   -0.75068E-06  1003   0.430E-03
  250 T=   362. E= -.32881033E+03 F= -.32871918E+03 E0= -.32873788E+03  EK= 0.33184E+01 SP= -.34E+01 SK= 0.27E-03
       N       E                     dE             d eps       ncg     rms          rms(c)
DAV:   1    -0.328695258264E+03    0.23921E-01   -0.68673E-03  2848   0.972E-01    0.537E-02
RMM:   2    -0.328695590568E+03   -0.33230E-03   -0.34216E-03  1666   0.806E-02    0.203E-02
RMM:   3    -0.328695615990E+03   -0.25422E-04   -0.27759E-04  1884   0.217E-02    0.196E-02
RMM:   4    -0.328695617344E+03   -0.13542E-05   -0.25688E-05  1113   0.712E-03    0.135E-02
RMM:   5    -0.328695617678E+03   -0.33421E-06   -0.68221E-06  1004   0.415E-03
  251 T=   357. E= -.32880994E+03 F= -.32869562E+03 E0= -.32871430E+03  EK= 0.32797E+01 SP= -.34E+01 SK= 0.28E-02
       N       E                     dE             d eps       ncg     rms          rms(c)
DAV:   1    -0.328673316176E+03    0.22301E-01   -0.67680E-03  2864   0.965E-01    0.521E-02
RMM:   2    -0.328673681656E+03   -0.36548E-03   -0.37520E-03  1683   0.812E-02    0.207E-02
RMM:   3    -0.328673712234E+03   -0.30578E-04   -0.33389E-04  1927   0.225E-02    0.197E-02
RMM:   4    -0.328673713467E+03   -0.12332E-05   -0.26211E-05  1116   0.704E-03    0.137E-02
RMM:   5    -0.328673713693E+03   -0.22581E-06   -0.67146E-06  1003   0.418E-03
  252 T=   352. E= -.32880957E+03 F= -.32867371E+03 E0= -.32869248E+03  EK= 0.32275E+01 SP= -.34E+01 SK= 0.75E-02
       N       E                     dE             d eps       ncg     rms          rms(c)
DAV:   1    -0.328654006632E+03    0.19707E-01   -0.76796E-03  2848   0.956E-01    0.527E-02
RMM:   2    -0.328654365644E+03   -0.35901E-03   -0.36849E-03  1677   0.820E-02    0.210E-02
RMM:   3    -0.328654394587E+03   -0.28943E-04   -0.31518E-04  1911   0.222E-02    0.199E-02
RMM:   4    -0.328654395834E+03   -0.12471E-05   -0.24611E-05  1108   0.701E-03    0.130E-02
RMM:   5    -0.328654396257E+03   -0.42261E-06   -0.67701E-06  1002   0.414E-03
  253 T=   345. E= -.32880899E+03 F= -.32865440E+03 E0= -.32867334E+03  EK= 0.31651E+01 SP= -.33E+01 SK= 0.13E-01
       N       E                     dE             d eps       ncg     rms          rms(c)
DAV:   1    -0.328639043753E+03    0.15352E-01   -0.72384E-03  2864   0.945E-01    0.528E-02
RMM:   2    -0.328639386335E+03   -0.34258E-03   -0.35262E-03  1670   0.815E-02    0.210E-02
RMM:   3    -0.328639412139E+03   -0.25804E-04   -0.28727E-04  1903   0.219E-02    0.199E-02
RMM:   4    -0.328639413257E+03   -0.11175E-05   -0.25339E-05  1106   0.705E-03    0.136E-02
RMM:   5    -0.328639413515E+03   -0.25803E-06   -0.71336E-06  1005   0.422E-03
  254 T=   337. E= -.32880868E+03 F= -.32863941E+03 E0= -.32865861E+03  EK= 0.30961E+01 SP= -.33E+01 SK= 0.20E-01
       N       E                     dE             d eps       ncg     rms          rms(c)
DAV:   1    -0.328628183826E+03    0.11229E-01   -0.66167E-03  2864   0.934E-01    0.496E-02
RMM:   2    -0.328628506340E+03   -0.32251E-03   -0.33216E-03  1667   0.797E-02    0.216E-02
RMM:   3    -0.328628530708E+03   -0.24368E-04   -0.26614E-04  1871   0.213E-02    0.200E-02
RMM:   4    -0.328628531912E+03   -0.12033E-05   -0.24814E-05  1104   0.709E-03    0.129E-02
RMM:   5    -0.328628532346E+03   -0.43443E-06   -0.69794E-06  1002   0.422E-03
  255 T=   329. E= -.32880809E+03 F= -.32862853E+03 E0= -.32864804E+03  EK= 0.30233E+01 SP= -.32E+01 SK= 0.26E-01
       N       E                     dE             d eps       ncg     rms          rms(c)
DAV:   1    -0.328622162422E+03    0.63695E-02   -0.63317E-03  2832   0.923E-01    0.496E-02
RMM:   2    -0.328622470044E+03   -0.30762E-03   -0.31771E-03  1672   0.777E-02    0.210E-02
RMM:   3    -0.328622493600E+03   -0.23556E-04   -0.26296E-04  1891   0.210E-02    0.194E-02
RMM:   4    -0.328622494417E+03   -0.81676E-06   -0.24783E-05  1106   0.699E-03    0.121E-02
RMM:   5    -0.328622494835E+03   -0.41812E-06   -0.70489E-06  1005   0.418E-03
  256 T=   321. E= -.32880775E+03 F= -.32862249E+03 E0= -.32864237E+03  EK= 0.29493E+01 SP= -.32E+01 SK= 0.31E-01
       N       E                     dE             d eps       ncg     rms          rms(c)
DAV:   1    -0.328621288668E+03    0.12057E-02   -0.62985E-03  2832   0.912E-01    0.476E-02
RMM:   2    -0.328621613290E+03   -0.32462E-03   -0.33370E-03  1674   0.775E-02    0.202E-02
RMM:   3    -0.328621639283E+03   -0.25994E-04   -0.28504E-04  1904   0.213E-02    0.189E-02
RMM:   4    -0.328621640271E+03   -0.98722E-06   -0.24163E-05  1103   0.694E-03    0.124E-02
RMM:   5    -0.328621640659E+03   -0.38841E-06   -0.68555E-06  1004   0.418E-03
  257 T=   314. E= -.32880740E+03 F= -.32862164E+03 E0= -.32864193E+03  EK= 0.28772E+01 SP= -.31E+01 SK= 0.35E-01
       N       E                     dE             d eps       ncg     rms          rms(c)
DAV:   1    -0.328625597198E+03   -0.39569E-02   -0.67972E-03  2864   0.901E-01    0.483E-02
RMM:   2    -0.328625907557E+03   -0.31036E-03   -0.31924E-03  1670   0.773E-02    0.180E-02
RMM:   3    -0.328625931313E+03   -0.23756E-04   -0.25841E-04  1871   0.208E-02    0.170E-02
RMM:   4    -0.328625932393E+03   -0.10794E-05   -0.22491E-05  1088   0.688E-03    0.112E-02
RMM:   5    -0.328625932788E+03   -0.39491E-06   -0.67728E-06  1004   0.413E-03
  258 T=   306. E= -.32880711E+03 F= -.32862593E+03 E0= -.32864666E+03  EK= 0.28086E+01 SP= -.30E+01 SK= 0.38E-01
       N       E                     dE             d eps       ncg     rms          rms(c)
DAV:   1    -0.328634333105E+03   -0.84007E-02   -0.55629E-03  2912   0.892E-01    0.416E-02
RMM:   2    -0.328634616733E+03   -0.28363E-03   -0.29254E-03  1674   0.725E-02    0.197E-02
RMM:   3    -0.328634639201E+03   -0.22468E-04   -0.24381E-04  1867   0.199E-02    0.181E-02
RMM:   4    -0.328634639825E+03   -0.62451E-06   -0.20930E-05  1071   0.668E-03    0.108E-02
RMM:   5    -0.328634640382E+03   -0.55700E-06   -0.70817E-06  1002   0.420E-03
  259 T=   299. E= -.32880668E+03 F= -.32863464E+03 E0= -.32865583E+03  EK= 0.27449E+01 SP= -.30E+01 SK= 0.38E-01
       N       E                     dE             d eps       ncg     rms          rms(c)
DAV:   1    -0.328648293971E+03   -0.13654E-01   -0.60763E-03  2832   0.884E-01    0.437E-02
RMM:   2    -0.328648563788E+03   -0.26982E-03   -0.27909E-03  1671   0.724E-02    0.177E-02
RMM:   3    -0.328648584834E+03   -0.21046E-04   -0.23093E-04  1872   0.197E-02    0.169E-02
RMM:   4    -0.328648585514E+03   -0.67934E-06   -0.18863E-05  1061   0.651E-03    0.117E-02
RMM:   5    -0.328648585745E+03   -0.23118E-06   -0.66739E-06   997   0.410E-03
  260 T=   293. E= -.32880636E+03 F= -.32864859E+03 E0= -.32867024E+03  EK= 0.26882E+01 SP= -.29E+01 SK= 0.37E-01
       N       E                     dE             d eps       ncg     rms          rms(c)
DAV:   1    -0.328666867277E+03   -0.18282E-01   -0.54778E-03  2832   0.878E-01    0.423E-02
RMM:   2    -0.328667113378E+03   -0.24610E-03   -0.25394E-03  1687   0.684E-02    0.157E-02
RMM:   3    -0.328667134488E+03   -0.21111E-04   -0.22583E-04  1855   0.189E-02    0.148E-02
RMM:   4    -0.328667135320E+03   -0.83167E-06   -0.17436E-05  1050   0.634E-03    0.938E-03
RMM:   5    -0.328667135739E+03   -0.41942E-06   -0.57810E-06   998   0.391E-03
  261 T=   288. E= -.32880636E+03 F= -.32866714E+03 E0= -.32868923E+03  EK= 0.26386E+01 SP= -.28E+01 SK= 0.35E-01
       N       E                     dE             d eps       ncg     rms          rms(c)
DAV:   1    -0.328687770898E+03   -0.20636E-01   -0.55061E-03  2816   0.874E-01    0.404E-02
RMM:   2    -0.328688021570E+03   -0.25067E-03   -0.25879E-03  1686   0.685E-02    0.170E-02
RMM:   3    -0.328688042193E+03   -0.20623E-04   -0.22369E-04  1834   0.189E-02    0.160E-02
RMM:   4    -0.328688042936E+03   -0.74286E-06   -0.18433E-05  1059   0.647E-03    0.108E-02
RMM:   5    -0.328688043308E+03   -0.37242E-06   -0.63962E-06   997   0.405E-03
  262 T=   283. E= -.32880647E+03 F= -.32868804E+03 E0= -.32871052E+03  EK= 0.25952E+01 SP= -.27E+01 SK= 0.32E-01
       N       E                     dE             d eps       ncg     rms          rms(c)
DAV:   1    -0.328708810676E+03   -0.20768E-01   -0.57265E-03  2864   0.871E-01    0.406E-02
RMM:   2    -0.328709052243E+03   -0.24157E-03   -0.24889E-03  1673   0.679E-02    0.153E-02
RMM:   3    -0.328709072647E+03   -0.20404E-04   -0.21431E-04  1831   0.188E-02    0.147E-02
RMM:   4    -0.328709073878E+03   -0.12309E-05   -0.18250E-05  1050   0.646E-03    0.973E-03
RMM:   5    -0.328709074461E+03   -0.58327E-06   -0.60356E-06  1001   0.397E-03
  263 T=   279. E= -.32880608E+03 F= -.32870907E+03 E0= -.32873187E+03  EK= 0.25570E+01 SP= -.27E+01 SK= 0.28E-01
       N       E                     dE             d eps       ncg     rms          rms(c)
DAV:   1    -0.328729545694E+03   -0.20472E-01   -0.55247E-03  2832   0.868E-01    0.431E-02
RMM:   2    -0.328729785133E+03   -0.23944E-03   -0.24707E-03  1680   0.672E-02    0.144E-02
RMM:   3    -0.328729805397E+03   -0.20264E-04   -0.21769E-04  1845   0.187E-02    0.139E-02
RMM:   4    -0.328729806256E+03   -0.85897E-06   -0.17844E-05  1055   0.634E-03    0.889E-03
RMM:   5    -0.328729806620E+03   -0.36356E-06   -0.57970E-06   997   0.390E-03
  264 T=   275. E= -.32880634E+03 F= -.32872981E+03 E0= -.32875281E+03  EK= 0.25232E+01 SP= -.26E+01 SK= 0.23E-01
       N       E                     dE             d eps       ncg     rms          rms(c)
DAV:   1    -0.328747410914E+03   -0.17605E-01   -0.56978E-03  2864   0.867E-01    0.388E-02
RMM:   2    -0.328747643166E+03   -0.23225E-03   -0.23894E-03  1675   0.663E-02    0.156E-02
RMM:   3    -0.328747663923E+03   -0.20757E-04   -0.21941E-04  1831   0.185E-02    0.151E-02
RMM:   4    -0.328747664930E+03   -0.10072E-05   -0.17521E-05  1052   0.631E-03    0.102E-02
RMM:   5    -0.328747665388E+03   -0.45799E-06   -0.59102E-06   997   0.393E-03
  265 T=   272. E= -.32880628E+03 F= -.32874767E+03 E0= -.32877079E+03  EK= 0.24927E+01 SP= -.26E+01 SK= 0.18E-01
       N       E                     dE             d eps       ncg     rms          rms(c)
DAV:   1    -0.328760543783E+03   -0.12879E-01   -0.62203E-03  2864   0.865E-01    0.428E-02
RMM:   2    -0.328760809012E+03   -0.26523E-03   -0.27267E-03  1684   0.686E-02    0.143E-02
RMM:   3    -0.328760833218E+03   -0.24205E-04   -0.25342E-04  1883   0.194E-02    0.141E-02
RMM:   4    -0.328760834385E+03   -0.11670E-05   -0.18746E-05  1060   0.629E-03    0.950E-03
RMM:   5    -0.328760834831E+03   -0.44682E-06   -0.58301E-06   998   0.389E-03
  266 T=   268. E= -.32880614E+03 F= -.32876083E+03 E0= -.32878397E+03  EK= 0.24640E+01 SP= -.25E+01 SK= 0.14E-01
       N       E                     dE             d eps       ncg     rms          rms(c)
DAV:   1    -0.328768231080E+03   -0.73967E-02   -0.66750E-03  2848   0.863E-01    0.409E-02
RMM:   2    -0.328768494770E+03   -0.26369E-03   -0.27042E-03  1675   0.695E-02    0.159E-02
RMM:   3    -0.328768516350E+03   -0.21581E-04   -0.22782E-04  1834   0.192E-02    0.155E-02
RMM:   4    -0.328768517471E+03   -0.11202E-05   -0.18804E-05  1052   0.647E-03    0.104E-02
RMM:   5    -0.328768517848E+03   -0.37747E-06   -0.62988E-06   996   0.401E-03
  267 T=   265. E= -.32880620E+03 F= -.32876852E+03 E0= -.32879158E+03  EK= 0.24363E+01 SP= -.25E+01 SK= 0.93E-02
       N       E                     dE             d eps       ncg     rms          rms(c)
DAV:   1    -0.328768949863E+03   -0.43239E-03   -0.48949E-03  2832   0.860E-01    0.396E-02
RMM:   2    -0.328769155177E+03   -0.20531E-03   -0.21252E-03  1674   0.624E-02    0.151E-02
RMM:   3    -0.328769172943E+03   -0.17766E-04   -0.18933E-04  1789   0.176E-02    0.144E-02
RMM:   4    -0.328769173881E+03   -0.93820E-06   -0.17030E-05  1042   0.622E-03    0.970E-03
RMM:   5    -0.328769174326E+03   -0.44408E-06   -0.60061E-06   997   0.392E-03
  268 T=   262. E= -.32880624E+03 F= -.32876917E+03 E0= -.32879211E+03  EK= 0.24090E+01 SP= -.25E+01 SK= 0.56E-02
       N       E                     dE             d eps       ncg     rms          rms(c)
DAV:   1    -0.328762035418E+03    0.71385E-02   -0.44646E-03  2848   0.855E-01    0.388E-02
RMM:   2    -0.328762239646E+03   -0.20423E-03   -0.21168E-03  1684   0.610E-02    0.158E-02
RMM:   3    -0.328762257189E+03   -0.17543E-04   -0.19038E-04  1803   0.173E-02    0.149E-02
RMM:   4    -0.328762257930E+03   -0.74106E-06   -0.16322E-05  1037   0.611E-03    0.103E-02
RMM:   5    -0.328762258266E+03   -0.33629E-06   -0.60146E-06   998   0.390E-03
  269 T=   260. E= -.32880623E+03 F= -.32876226E+03 E0= -.32878505E+03  EK= 0.23818E+01 SP= -.24E+01 SK= 0.26E-02
       N       E                     dE             d eps       ncg     rms          rms(c)
DAV:   1    -0.328748148769E+03    0.14109E-01   -0.47364E-03  2880   0.849E-01    0.393E-02
RMM:   2    -0.328748337428E+03   -0.18866E-03   -0.19598E-03  1672   0.604E-02    0.156E-02
RMM:   3    -0.328748353327E+03   -0.15899E-04   -0.17238E-04  1744   0.168E-02    0.148E-02
RMM:   4    -0.328748354034E+03   -0.70699E-06   -0.16093E-05  1030   0.623E-03    0.986E-03
RMM:   5    -0.328748354380E+03   -0.34595E-06   -0.61587E-06   994   0.395E-03
  270 T=   257. E= -.32880567E+03 F= -.32874835E+03 E0= -.32877100E+03  EK= 0.23564E+01 SP= -.24E+01 SK= 0.62E-03
       N       E                     dE             d eps       ncg     rms          rms(c)
DAV:   1    -0.328729115638E+03    0.19238E-01   -0.48345E-03  2864   0.843E-01    0.401E-02
RMM:   2    -0.328729300984E+03   -0.18535E-03   -0.19274E-03  1673   0.604E-02    0.151E-02
RMM:   3    -0.328729317194E+03   -0.16210E-04   -0.17648E-04  1741   0.169E-02    0.144E-02
RMM:   4    -0.328729317795E+03   -0.60014E-06   -0.15815E-05  1027   0.626E-03    0.978E-03
RMM:   5    -0.328729318112E+03   -0.31705E-06   -0.61817E-06   992   0.398E-03
  271 T=   254. E= -.32880549E+03 F= -.32872932E+03 E0= -.32875185E+03  EK= 0.23338E+01 SP= -.24E+01 SK= 0.58E-05
       N       E                     dE             d eps       ncg     rms          rms(c)
DAV:   1    -0.328705732213E+03    0.23586E-01   -0.45334E-03  2848   0.837E-01    0.381E-02
RMM:   2    -0.328705927441E+03   -0.19523E-03   -0.20237E-03  1673   0.598E-02    0.158E-02
RMM:   3    -0.328705944582E+03   -0.17141E-04   -0.18510E-04  1759   0.171E-02    0.151E-02
RMM:   4    -0.328705945420E+03   -0.83754E-06   -0.16792E-05  1033   0.623E-03    0.107E-02
RMM:   5    -0.328705945749E+03   -0.32930E-06   -0.64998E-06   998   0.401E-03
  272 T=   252. E= -.32880490E+03 F= -.32870595E+03 E0= -.32872842E+03  EK= 0.23161E+01 SP= -.24E+01 SK= 0.96E-03
       N       E                     dE             d eps       ncg     rms          rms(c)
DAV:   1    -0.328680890759E+03    0.25055E-01   -0.47331E-03  2880   0.829E-01    0.396E-02
RMM:   2    -0.328681080025E+03   -0.18927E-03   -0.19684E-03  1674   0.600E-02    0.145E-02
RMM:   3    -0.328681096161E+03   -0.16135E-04   -0.17533E-04  1733   0.169E-02    0.137E-02
RMM:   4    -0.328681096995E+03   -0.83424E-06   -0.17067E-05  1040   0.630E-03    0.925E-03
RMM:   5    -0.328681097339E+03   -0.34393E-06   -0.60501E-06   994   0.394E-03
  273 T=   251. E= -.32880458E+03 F= -.32868110E+03 E0= -.32870356E+03  EK= 0.23058E+01 SP= -.24E+01 SK= 0.37E-02
       N       E                     dE             d eps       ncg     rms          rms(c)
DAV:   1    -0.328656654823E+03    0.24442E-01   -0.47246E-03  2928   0.823E-01    0.367E-02
RMM:   2    -0.328656840512E+03   -0.18569E-03   -0.19270E-03  1671   0.596E-02    0.158E-02
RMM:   3    -0.328656856071E+03   -0.15559E-04   -0.16961E-04  1749   0.168E-02    0.149E-02
RMM:   4    -0.328656856842E+03   -0.77035E-06   -0.16609E-05  1035   0.626E-03    0.103E-02
RMM:   5    -0.328656857217E+03   -0.37573E-06   -0.64296E-06   997   0.397E-03
  274 T=   251. E= -.32880436E+03 F= -.32865686E+03 E0= -.32867936E+03  EK= 0.23051E+01 SP= -.25E+01 SK= 0.82E-02
       N       E                     dE             d eps       ncg     rms          rms(c)
DAV:   1    -0.328635684443E+03    0.21172E-01   -0.48320E-03  2944   0.820E-01    0.396E-02
RMM:   2    -0.328635889096E+03   -0.20465E-03   -0.21227E-03  1673   0.615E-02    0.147E-02
RMM:   3    -0.328635906313E+03   -0.17217E-04   -0.18541E-04  1775   0.173E-02    0.141E-02
RMM:   4    -0.328635907219E+03   -0.90532E-06   -0.16992E-05  1039   0.622E-03    0.974E-03
RMM:   5    -0.328635907589E+03   -0.37006E-06   -0.60125E-06   998   0.387E-03
  275 T=   252. E= -.32880439E+03 F= -.32863591E+03 E0= -.32865850E+03  EK= 0.23169E+01 SP= -.25E+01 SK= 0.14E-01
       N       E                     dE             d eps       ncg     rms          rms(c)
DAV:   1    -0.328620288783E+03    0.15618E-01   -0.56763E-03  2864   0.819E-01    0.392E-02
RMM:   2    -0.328620514144E+03   -0.22536E-03   -0.23227E-03  1668   0.654E-02    0.168E-02
RMM:   3    -0.328620532644E+03   -0.18500E-04   -0.20025E-04  1816   0.181E-02    0.161E-02
RMM:   4    -0.328620533419E+03   -0.77530E-06   -0.17383E-05  1039   0.627E-03    0.113E-02
RMM:   5    -0.328620533669E+03   -0.24946E-06   -0.64126E-06   998   0.398E-03
  276 T=   255. E= -.32880438E+03 F= -.32862053E+03 E0= -.32864326E+03  EK= 0.23436E+01 SP= -.25E+01 SK= 0.22E-01
       N       E                     dE             d eps       ncg     rms          rms(c)
DAV:   1    -0.328612215466E+03    0.83180E-02   -0.58595E-03  2864   0.823E-01    0.426E-02
RMM:   2    -0.328612471113E+03   -0.25565E-03   -0.26326E-03  1693   0.680E-02    0.160E-02
RMM:   3    -0.328612493622E+03   -0.22509E-04   -0.24146E-04  1861   0.190E-02    0.155E-02
RMM:   4    -0.328612494533E+03   -0.91054E-06   -0.18195E-05  1051   0.630E-03    0.108E-02
RMM:   5    -0.328612494840E+03   -0.30683E-06   -0.59978E-06  1000   0.392E-03
  277 T=   260. E= -.32880471E+03 F= -.32861249E+03 E0= -.32863540E+03  EK= 0.23867E+01 SP= -.26E+01 SK= 0.30E-01
       N       E                     dE             d eps       ncg     rms          rms(c)
DAV:   1    -0.328612053976E+03    0.44056E-03   -0.56719E-03  2864   0.831E-01    0.426E-02
RMM:   2    -0.328612296643E+03   -0.24267E-03   -0.25003E-03  1676   0.678E-02    0.174E-02
RMM:   3    -0.328612317610E+03   -0.20966E-04   -0.22836E-04  1847   0.188E-02    0.167E-02
RMM:   4    -0.328612318345E+03   -0.73572E-06   -0.18303E-05  1047   0.633E-03    0.114E-02
RMM:   5    -0.328612318598E+03   -0.25245E-06   -0.62315E-06   998   0.395E-03
  278 T=   267. E= -.32880526E+03 F= -.32861232E+03 E0= -.32863543E+03  EK= 0.24465E+01 SP= -.27E+01 SK= 0.39E-01
       N       E                     dE             d eps       ncg     rms          rms(c)
DAV:   1    -0.328620171917E+03   -0.78536E-02   -0.54128E-03  2896   0.841E-01    0.416E-02
RMM:   2    -0.328620393572E+03   -0.22166E-03   -0.22947E-03  1668   0.662E-02    0.179E-02
RMM:   3    -0.328620412449E+03   -0.18877E-04   -0.20610E-04  1791   0.182E-02    0.168E-02
RMM:   4    -0.328620413129E+03   -0.68027E-06   -0.17983E-05  1045   0.644E-03    0.111E-02
RMM:   5    -0.328620413466E+03   -0.33626E-06   -0.63399E-06  1000   0.403E-03
  279 T=   275. E= -.32880570E+03 F= -.32862041E+03 E0= -.32864378E+03  EK= 0.25232E+01 SP= -.28E+01 SK= 0.46E-01
       N       E                     dE             d eps       ncg     rms          rms(c)
DAV:   1    -0.328636214985E+03   -0.15802E-01   -0.47385E-03  2912   0.856E-01    0.428E-02
RMM:   2    -0.328636424693E+03   -0.20971E-03   -0.21779E-03  1671   0.657E-02    0.170E-02
RMM:   3    -0.328636442252E+03   -0.17560E-04   -0.19253E-04  1811   0.180E-02    0.162E-02
RMM:   4    -0.328636442896E+03   -0.64346E-06   -0.16960E-05  1037   0.629E-03    0.114E-02
RMM:   5    -0.328636443168E+03   -0.27164E-06   -0.63543E-06  1001   0.397E-03
  280 T=   285. E= -.32880622E+03 F= -.32863644E+03 E0= -.32866011E+03  EK= 0.26154E+01 SP= -.28E+01 SK= 0.52E-01
       N       E                     dE             d eps       ncg     rms          rms(c)
DAV:   1    -0.328658623224E+03   -0.22180E-01   -0.46723E-03  2912   0.874E-01    0.410E-02
RMM:   2    -0.328658851957E+03   -0.22873E-03   -0.23620E-03  1682   0.662E-02    0.173E-02
RMM:   3    -0.328658872528E+03   -0.20572E-04   -0.22254E-04  1858   0.184E-02    0.163E-02
RMM:   4    -0.328658873232E+03   -0.70389E-06   -0.17859E-05  1048   0.620E-03    0.110E-02
RMM:   5    -0.328658873567E+03   -0.33483E-06   -0.60564E-06  1000   0.394E-03
  281 T=   296. E= -.32880666E+03 F= -.32865887E+03 E0= -.32868286E+03  EK= 0.27203E+01 SP= -.29E+01 SK= 0.54E-01
       N       E                     dE             d eps       ncg     rms          rms(c)
DAV:   1    -0.328686651761E+03   -0.27779E-01   -0.59294E-03  2832   0.895E-01    0.444E-02
RMM:   2    -0.328686927886E+03   -0.27613E-03   -0.28458E-03  1672   0.710E-02    0.167E-02
RMM:   3    -0.328686951256E+03   -0.23369E-04   -0.25441E-04  1886   0.197E-02    0.163E-02
RMM:   4    -0.328686951974E+03   -0.71805E-06   -0.19462E-05  1058   0.640E-03    0.117E-02
RMM:   5    -0.328686952079E+03   -0.10563E-06   -0.64594E-06   999   0.402E-03
  282 T=   309. E= -.32880741E+03 F= -.32868695E+03 E0= -.32871130E+03  EK= 0.28347E+01 SP= -.30E+01 SK= 0.54E-01
       N       E                     dE             d eps       ncg     rms          rms(c)
DAV:   1    -0.328717594261E+03   -0.30642E-01   -0.69641E-03  2864   0.918E-01    0.441E-02
RMM:   2    -0.328717868389E+03   -0.27413E-03   -0.28193E-03  1673   0.722E-02    0.179E-02
RMM:   3    -0.328717890885E+03   -0.22496E-04   -0.24659E-04  1871   0.198E-02    0.173E-02
RMM:   4    -0.328717891763E+03   -0.87768E-06   -0.20686E-05  1072   0.660E-03    0.122E-02
RMM:   5    -0.328717891961E+03   -0.19797E-06   -0.65920E-06  1001   0.407E-03
  283 T=   322. E= -.32880822E+03 F= -.32871789E+03 E0= -.32874261E+03  EK= 0.29535E+01 SP= -.31E+01 SK= 0.49E-01
       N       E                     dE             d eps       ncg     rms          rms(c)
DAV:   1    -0.328747961138E+03   -0.30069E-01   -0.74894E-03  2832   0.941E-01    0.481E-02
RMM:   2    -0.328748260033E+03   -0.29890E-03   -0.30752E-03  1677   0.760E-02    0.178E-02
RMM:   3    -0.328748285239E+03   -0.25206E-04   -0.27529E-04  1888   0.207E-02    0.174E-02
RMM:   4    -0.328748286200E+03   -0.96113E-06   -0.22814E-05  1079   0.680E-03    0.120E-02
RMM:   5    -0.328748286396E+03   -0.19594E-06   -0.67508E-06  1001   0.413E-03
  284 T=   334. E= -.32880923E+03 F= -.32874829E+03 E0= -.32877339E+03  EK= 0.30696E+01 SP= -.32E+01 SK= 0.42E-01
       N       E                     dE             d eps       ncg     rms          rms(c)
DAV:   1    -0.328774894302E+03   -0.26608E-01   -0.64595E-03  2864   0.960E-01    0.464E-02
RMM:   2    -0.328775172003E+03   -0.27770E-03   -0.28632E-03  1670   0.736E-02    0.190E-02
RMM:   3    -0.328775195091E+03   -0.23089E-04   -0.25445E-04  1877   0.201E-02    0.184E-02
RMM:   4    -0.328775195863E+03   -0.77169E-06   -0.22051E-05  1070   0.673E-03    0.130E-02
RMM:   5    -0.328775195963E+03   -0.10030E-06   -0.71348E-06  1002   0.420E-03
  285 T=   346. E= -.32881011E+03 F= -.32877520E+03 E0= -.32880069E+03  EK= 0.31768E+01 SP= -.32E+01 SK= 0.33E-01
       N       E                     dE             d eps       ncg     rms          rms(c)
DAV:   1    -0.328796279349E+03   -0.21083E-01   -0.70462E-03  2816   0.978E-01    0.471E-02
RMM:   2    -0.328796581074E+03   -0.30172E-03   -0.31087E-03  1673   0.760E-02    0.189E-02
RMM:   3    -0.328796606618E+03   -0.25544E-04   -0.27806E-04  1892   0.210E-02    0.183E-02
RMM:   4    -0.328796607572E+03   -0.95422E-06   -0.22814E-05  1079   0.685E-03    0.128E-02
RMM:   5    -0.328796607774E+03   -0.20210E-06   -0.70570E-06  1001   0.421E-03
  286 T=   356. E= -.32881076E+03 F= -.32879661E+03 E0= -.32882246E+03  EK= 0.32691E+01 SP= -.33E+01 SK= 0.22E-01
       N       E                     dE             d eps       ncg     rms          rms(c)
DAV:   1    -0.328809934101E+03   -0.13327E-01   -0.79594E-03  2816   0.991E-01    0.490E-02
RMM:   2    -0.328810268157E+03   -0.33406E-03   -0.34331E-03  1672   0.801E-02    0.204E-02
RMM:   3    -0.328810294824E+03   -0.26667E-04   -0.29369E-04  1913   0.219E-02    0.197E-02
RMM:   4    -0.328810295609E+03   -0.78495E-06   -0.24461E-05  1096   0.704E-03    0.134E-02
RMM:   5    -0.328810295774E+03   -0.16432E-06   -0.74357E-06  1001   0.430E-03
  287 T=   364. E= -.32881149E+03 F= -.32881030E+03 E0= -.32883649E+03  EK= 0.33401E+01 SP= -.34E+01 SK= 0.13E-01
       N       E                     dE             d eps       ncg     rms          rms(c)
DAV:   1    -0.328813746716E+03   -0.34511E-02   -0.82130E-03  2800   0.999E-01    0.516E-02
RMM:   2    -0.328814114178E+03   -0.36746E-03   -0.37712E-03  1676   0.827E-02    0.196E-02
RMM:   3    -0.328814145839E+03   -0.31661E-04   -0.34217E-04  1942   0.229E-02    0.193E-02
RMM:   4    -0.328814146858E+03   -0.10188E-05   -0.25797E-05  1095   0.710E-03    0.128E-02
RMM:   5    -0.328814147118E+03   -0.26036E-06   -0.71839E-06  1002   0.429E-03
  288 T=   369. E= -.32881194E+03 F= -.32881415E+03 E0= -.32884063E+03  EK= 0.33849E+01 SP= -.34E+01 SK= 0.51E-02
       N       E                     dE             d eps       ncg     rms          rms(c)
DAV:   1    -0.328807341997E+03    0.68049E-02   -0.87344E-03  2864   0.100E+00    0.495E-02
RMM:   2    -0.328807739377E+03   -0.39738E-03   -0.40742E-03  1682   0.849E-02    0.208E-02
RMM:   3    -0.328807774338E+03   -0.34961E-04   -0.37762E-04  1960   0.237E-02    0.204E-02
RMM:   4    -0.328807775455E+03   -0.11168E-05   -0.28734E-05  1119   0.729E-03    0.141E-02
RMM:   5    -0.328807775631E+03   -0.17630E-06   -0.78886E-06  1002   0.441E-03
  289 T=   371. E= -.32881218E+03 F= -.32880778E+03 E0= -.32883451E+03  EK= 0.34010E+01 SP= -.34E+01 SK= 0.80E-03
       N       E                     dE             d eps       ncg     rms          rms(c)
DAV:   1    -0.328791235844E+03    0.16540E-01   -0.93384E-03  2832   0.996E-01    0.545E-02
RMM:   2    -0.328791625571E+03   -0.38973E-03   -0.40008E-03  1665   0.867E-02    0.196E-02
RMM:   3    -0.328791657468E+03   -0.31897E-04   -0.34180E-04  1926   0.236E-02    0.196E-02
RMM:   4    -0.328791658837E+03   -0.13692E-05   -0.27934E-05  1126   0.744E-03    0.132E-02
RMM:   5    -0.328791659137E+03   -0.29971E-06   -0.72318E-06   999   0.429E-03
  290 T=   369. E= -.32881178E+03 F= -.32879166E+03 E0= -.32881859E+03  EK= 0.33883E+01 SP= -.34E+01 SK= 0.22E-03
       N       E                     dE             d eps       ncg     rms          rms(c)
DAV:   1    -0.328768238751E+03    0.23420E-01   -0.78544E-03  2816   0.987E-01    0.519E-02
RMM:   2    -0.328768609026E+03   -0.37028E-03   -0.38100E-03  1679   0.835E-02    0.215E-02
RMM:   3    -0.328768639942E+03   -0.30916E-04   -0.33956E-04  1923   0.231E-02    0.209E-02
RMM:   4    -0.328768640867E+03   -0.92505E-06   -0.28629E-05  1127   0.741E-03    0.140E-02
RMM:   5    -0.328768640987E+03   -0.11943E-06   -0.80405E-06  1000   0.445E-03
  291 T=   365. E= -.32881168E+03 F= -.32876864E+03 E0= -.32879571E+03  EK= 0.33492E+01 SP= -.34E+01 SK= 0.31E-02
       N       E                     dE             d eps       ncg     rms          rms(c)
DAV:   1    -0.328740365104E+03    0.28276E-01   -0.74798E-03  2832   0.972E-01    0.534E-02
RMM:   2    -0.328740742823E+03   -0.37772E-03   -0.38933E-03  1687   0.827E-02    0.202E-02
RMM:   3    -0.328740776179E+03   -0.33356E-04   -0.35958E-04  1945   0.231E-02    0.197E-02
RMM:   4    -0.328740777281E+03   -0.11024E-05   -0.27643E-05  1126   0.725E-03    0.130E-02
RMM:   5    -0.328740777550E+03   -0.26904E-06   -0.73315E-06  1001   0.431E-03
  292 T=   358. E= -.32881162E+03 F= -.32874078E+03 E0= -.32876792E+03  EK= 0.32878E+01 SP= -.34E+01 SK= 0.88E-02
       N       E                     dE             d eps       ncg     rms          rms(c)
DAV:   1    -0.328710251160E+03    0.30526E-01   -0.78606E-03  2816   0.953E-01    0.524E-02
RMM:   2    -0.328710607388E+03   -0.35623E-03   -0.36657E-03  1674   0.825E-02    0.220E-02
RMM:   3    -0.328710635884E+03   -0.28496E-04   -0.31182E-04  1900   0.224E-02    0.213E-02
RMM:   4    -0.328710636663E+03   -0.77943E-06   -0.25535E-05  1102   0.716E-03    0.145E-02
RMM:   5    -0.328710636810E+03   -0.14665E-06   -0.79479E-06  1000   0.439E-03
  293 T=   350. E= -.32881118E+03 F= -.32871064E+03 E0= -.32873779E+03  EK= 0.32097E+01 SP= -.33E+01 SK= 0.16E-01
       N       E                     dE             d eps       ncg     rms          rms(c)
DAV:   1    -0.328682058130E+03    0.28579E-01   -0.67288E-03  2896   0.932E-01    0.517E-02
RMM:   2    -0.328682353278E+03   -0.29515E-03   -0.30610E-03  1671   0.779E-02    0.211E-02
RMM:   3    -0.328682376508E+03   -0.23230E-04   -0.25868E-04  1864   0.207E-02    0.203E-02
RMM:   4    -0.328682376971E+03   -0.46289E-06   -0.21470E-05  1072   0.688E-03    0.140E-02
RMM:   5    -0.328682377023E+03   -0.52041E-07   -0.72677E-06   997   0.425E-03
  294 T=   340. E= -.32881062E+03 F= -.32868238E+03 E0= -.32870947E+03  EK= 0.31219E+01 SP= -.33E+01 SK= 0.24E-01
       N       E                     dE             d eps       ncg     rms          rms(c)
DAV:   1    -0.328659868195E+03    0.22509E-01   -0.56671E-03  2864   0.912E-01    0.488E-02
RMM:   2    -0.328660141044E+03   -0.27285E-03   -0.28343E-03  1677   0.737E-02    0.203E-02
RMM:   3    -0.328660164375E+03   -0.23331E-04   -0.25883E-04  1899   0.202E-02    0.195E-02
RMM:   4    -0.328660164807E+03   -0.43167E-06   -0.20453E-05  1071   0.656E-03    0.135E-02
RMM:   5    -0.328660164874E+03   -0.67026E-07   -0.70994E-06   999   0.417E-03
  295 T=   330. E= -.32881014E+03 F= -.32866016E+03 E0= -.32868711E+03  EK= 0.30315E+01 SP= -.32E+01 SK= 0.31E-01
       N       E                     dE             d eps       ncg     rms          rms(c)
DAV:   1    -0.328646361198E+03    0.13804E-01   -0.59625E-03  2912   0.893E-01    0.484E-02
RMM:   2    -0.328646630905E+03   -0.26971E-03   -0.27966E-03  1673   0.736E-02    0.197E-02
RMM:   3    -0.328646653746E+03   -0.22841E-04   -0.25060E-04  1871   0.200E-02    0.189E-02
RMM:   4    -0.328646654347E+03   -0.60062E-06   -0.20588E-05  1069   0.666E-03    0.131E-02
RMM:   5    -0.328646654528E+03   -0.18113E-06   -0.72244E-06   999   0.419E-03
  296 T=   321. E= -.32880954E+03 F= -.32864665E+03 E0= -.32867337E+03  EK= 0.29445E+01 SP= -.31E+01 SK= 0.37E-01
       N       E                     dE             d eps       ncg     rms          rms(c)
DAV:   1    -0.328644548727E+03    0.21056E-02   -0.59243E-03  2912   0.877E-01    0.475E-02
RMM:   2    -0.328644800550E+03   -0.25182E-03   -0.26193E-03  1670   0.717E-02    0.187E-02
RMM:   3    -0.328644820763E+03   -0.20213E-04   -0.22446E-04  1832   0.193E-02    0.180E-02
RMM:   4    -0.328644821328E+03   -0.56508E-06   -0.18822E-05  1049   0.652E-03    0.130E-02
RMM:   5    -0.328644821436E+03   -0.10864E-06   -0.71646E-06   997   0.416E-03
  297 T=   312. E= -.32880921E+03 F= -.32864482E+03 E0= -.32867124E+03  EK= 0.28660E+01 SP= -.31E+01 SK= 0.41E-01
       N       E                     dE             d eps       ncg     rms          rms(c)
DAV:   1    -0.328654937409E+03   -0.10116E-01   -0.52936E-03  2912   0.867E-01    0.432E-02
RMM:   2    -0.328655160220E+03   -0.22281E-03   -0.23192E-03  1669   0.675E-02    0.185E-02
RMM:   3    -0.328655178769E+03   -0.18549E-04   -0.20513E-04  1809   0.184E-02    0.175E-02
RMM:   4    -0.328655179308E+03   -0.53934E-06   -0.18499E-05  1054   0.643E-03    0.124E-02
RMM:   5    -0.328655179501E+03   -0.19303E-06   -0.67957E-06   998   0.407E-03
  298 T=   305. E= -.32880887E+03 F= -.32865518E+03 E0= -.32868122E+03  EK= 0.27987E+01 SP= -.30E+01 SK= 0.43E-01
       N       E                     dE             d eps       ncg     rms          rms(c)
DAV:   1    -0.328676349504E+03   -0.21170E-01   -0.54393E-03  2912   0.862E-01    0.450E-02
RMM:   2    -0.328676567030E+03   -0.21753E-03   -0.22687E-03  1675   0.674E-02    0.172E-02
RMM:   3    -0.328676585113E+03   -0.18083E-04   -0.20058E-04  1821   0.182E-02    0.164E-02
RMM:   4    -0.328676585674E+03   -0.56095E-06   -0.18053E-05  1046   0.637E-03    0.114E-02
RMM:   5    -0.328676585946E+03   -0.27242E-06   -0.64496E-06   997   0.399E-03
  299 T=   299. E= -.32880856E+03 F= -.32867659E+03 E0= -.32870222E+03  EK= 0.27430E+01 SP= -.29E+01 SK= 0.43E-01
       N       E                     dE             d eps       ncg     rms          rms(c)
DAV:   1    -0.328706778365E+03   -0.30193E-01   -0.53482E-03  2944   0.861E-01    0.428E-02
RMM:   2    -0.328707006643E+03   -0.22828E-03   -0.23734E-03  1676   0.676E-02    0.184E-02
RMM:   3    -0.328707025534E+03   -0.18891E-04   -0.20955E-04  1797   0.183E-02    0.170E-02
RMM:   4    -0.328707025985E+03   -0.45128E-06   -0.18618E-05  1051   0.640E-03    0.113E-02
RMM:   5    -0.328707026270E+03   -0.28513E-06   -0.65929E-06   998   0.403E-03
  300 T=   294. E= -.32880865E+03 F= -.32870703E+03 E0= -.32873223E+03  EK= 0.26976E+01 SP= -.28E+01 SK= 0.43E-01
       N       E                     dE             d eps       ncg     rms          rms(c)
DAV:   1    -0.328742674127E+03   -0.35648E-01   -0.58130E-03  2928   0.862E-01    0.433E-02
RMM:   2    -0.328742898179E+03   -0.22405E-03   -0.23278E-03  1669   0.680E-02    0.187E-02
RMM:   3    -0.328742915621E+03   -0.17442E-04   -0.19455E-04  1816   0.182E-02    0.175E-02
RMM:   4    -0.328742916079E+03   -0.45776E-06   -0.17875E-05  1051   0.634E-03    0.119E-02
RMM:   5    -0.328742916367E+03   -0.28892E-06   -0.66705E-06   999   0.403E-03
  301 T=   290. E= -.32880883E+03 F= -.32874292E+03 E0= -.32876773E+03  EK= 0.26600E+01 SP= -.28E+01 SK= 0.40E-01
       N       E                     dE             d eps       ncg     rms          rms(c)
DAV:   1    -0.328781101556E+03   -0.38185E-01   -0.55814E-03  2944   0.867E-01    0.428E-02
RMM:   2    -0.328781314776E+03   -0.21322E-03   -0.22209E-03  1671   0.664E-02    0.176E-02
RMM:   3    -0.328781331773E+03   -0.16996E-04   -0.18819E-04  1787   0.179E-02    0.164E-02
RMM:   4    -0.328781332373E+03   -0.60021E-06   -0.18839E-05  1055   0.649E-03    0.108E-02
RMM:   5    -0.328781332719E+03   -0.34622E-06   -0.65656E-06  1001   0.405E-03
  302 T=   286. E= -.32880887E+03 F= -.32878133E+03 E0= -.32880582E+03  EK= 0.26283E+01 SP= -.27E+01 SK= 0.38E-01
       N       E                     dE             d eps       ncg     rms          rms(c)
DAV:   1    -0.328819320088E+03   -0.37988E-01   -0.58533E-03  2880   0.872E-01    0.446E-02
RMM:   2    -0.328819553226E+03   -0.23314E-03   -0.24178E-03  1672   0.683E-02    0.172E-02
RMM:   3    -0.328819571535E+03   -0.18310E-04   -0.20428E-04  1818   0.185E-02    0.164E-02
RMM:   4    -0.328819572133E+03   -0.59763E-06   -0.19203E-05  1056   0.644E-03    0.110E-02
RMM:   5    -0.328819572400E+03   -0.26672E-06   -0.66654E-06  1002   0.403E-03
  303 T=   283. E= -.32880876E+03 F= -.32881957E+03 E0= -.32884385E+03  EK= 0.26002E+01 SP= -.26E+01 SK= 0.34E-01
       N       E                     dE             d eps       ncg     rms          rms(c)
DAV:   1    -0.328854230934E+03   -0.34659E-01   -0.56608E-03  2896   0.877E-01    0.432E-02
RMM:   2    -0.328854453408E+03   -0.22247E-03   -0.23117E-03  1667   0.676E-02    0.175E-02
RMM:   3    -0.328854470635E+03   -0.17227E-04   -0.19071E-04  1799   0.183E-02    0.168E-02
RMM:   4    -0.328854471338E+03   -0.70274E-06   -0.18783E-05  1055   0.646E-03    0.118E-02
RMM:   5    -0.328854471610E+03   -0.27196E-06   -0.66043E-06  1001   0.404E-03
  304 T=   280. E= -.32880874E+03 F= -.32885447E+03 E0= -.32887867E+03  EK= 0.25730E+01 SP= -.26E+01 SK= 0.30E-01
       N       E                     dE             d eps       ncg     rms          rms(c)
DAV:   1    -0.328883411351E+03   -0.28940E-01   -0.56848E-03  2960   0.880E-01    0.423E-02
RMM:   2    -0.328883640907E+03   -0.22956E-03   -0.23753E-03  1670   0.669E-02    0.169E-02
RMM:   3    -0.328883659405E+03   -0.18498E-04   -0.20150E-04  1809   0.184E-02    0.161E-02
RMM:   4    -0.328883660176E+03   -0.77146E-06   -0.18561E-05  1054   0.644E-03    0.110E-02
RMM:   5    -0.328883660503E+03   -0.32741E-06   -0.63360E-06  1000   0.399E-03
  305 T=   277. E= -.32880870E+03 F= -.32888366E+03 E0= -.32890790E+03  EK= 0.25448E+01 SP= -.25E+01 SK= 0.26E-01
       N       E                     dE             d eps       ncg     rms          rms(c)
DAV:   1    -0.328905620769E+03   -0.21961E-01   -0.54452E-03  2864   0.882E-01    0.445E-02
RMM:   2    -0.328905854565E+03   -0.23380E-03   -0.24172E-03  1671   0.665E-02    0.155E-02
RMM:   3    -0.328905872982E+03   -0.18418E-04   -0.20151E-04  1813   0.185E-02    0.149E-02
RMM:   4    -0.328905873920E+03   -0.93747E-06   -0.19419E-05  1068   0.646E-03    0.102E-02
RMM:   5    -0.328905874241E+03   -0.32103E-06   -0.62145E-06  1004   0.395E-03
  306 T=   274. E= -.32880882E+03 F= -.32890587E+03 E0= -.32893027E+03  EK= 0.25149E+01 SP= -.24E+01 SK= 0.21E-01
       N       E                     dE             d eps       ncg     rms          rms(c)
DAV:   1    -0.328919567276E+03   -0.13693E-01   -0.51237E-03  2928   0.881E-01    0.407E-02
RMM:   2    -0.328919774060E+03   -0.20678E-03   -0.21434E-03  1670   0.630E-02    0.166E-02
RMM:   3    -0.328919790754E+03   -0.16694E-04   -0.18276E-04  1795   0.176E-02    0.157E-02
RMM:   4    -0.328919791625E+03   -0.87127E-06   -0.18535E-05  1060   0.629E-03    0.108E-02
RMM:   5    -0.328919791977E+03   -0.35156E-06   -0.63441E-06  1004   0.393E-03
  307 T=   271. E= -.32880913E+03 F= -.32891979E+03 E0= -.32894441E+03  EK= 0.24825E+01 SP= -.24E+01 SK= 0.16E-01
       N       E                     dE             d eps       ncg     rms          rms(c)
DAV:   1    -0.328924203591E+03   -0.44120E-02   -0.48301E-03  2928   0.878E-01    0.425E-02
RMM:   2    -0.328924414705E+03   -0.21111E-03   -0.21891E-03  1671   0.632E-02    0.159E-02
RMM:   3    -0.328924431478E+03   -0.16773E-04   -0.18293E-04  1803   0.177E-02    0.151E-02
RMM:   4    -0.328924432377E+03   -0.89935E-06   -0.18624E-05  1059   0.631E-03    0.992E-03
RMM:   5    -0.328924432769E+03   -0.39165E-06   -0.60821E-06  1004   0.389E-03
  308 T=   267. E= -.32880913E+03 F= -.32892443E+03 E0= -.32894929E+03  EK= 0.24478E+01 SP= -.23E+01 SK= 0.12E-01
       N       E                     dE             d eps       ncg     rms          rms(c)
DAV:   1    -0.328919075249E+03    0.53571E-02   -0.51159E-03  2880   0.873E-01    0.404E-02
RMM:   2    -0.328919294911E+03   -0.21966E-03   -0.22638E-03  1671   0.635E-02    0.162E-02
RMM:   3    -0.328919311871E+03   -0.16961E-04   -0.18551E-04  1802   0.178E-02    0.154E-02
RMM:   4    -0.328919312888E+03   -0.10168E-05   -0.18282E-05  1050   0.633E-03    0.110E-02
RMM:   5    -0.328919313233E+03   -0.34462E-06   -0.63895E-06  1003   0.399E-03
  309 T=   263. E= -.32880887E+03 F= -.32891931E+03 E0= -.32894437E+03  EK= 0.24107E+01 SP= -.23E+01 SK= 0.76E-02
       N       E                     dE             d eps       ncg     rms          rms(c)
DAV:   1    -0.328905020939E+03    0.14292E-01   -0.56887E-03  2880   0.866E-01    0.426E-02
RMM:   2    -0.328905251383E+03   -0.23044E-03   -0.23732E-03  1678   0.662E-02    0.156E-02
RMM:   3    -0.328905269553E+03   -0.18170E-04   -0.19605E-04  1831   0.183E-02    0.151E-02
RMM:   4    -0.328905270628E+03   -0.10752E-05   -0.17796E-05  1054   0.623E-03    0.107E-02
RMM:   5    -0.328905271005E+03   -0.37626E-06   -0.60028E-06  1004   0.388E-03
  310 T=   259. E= -.32880842E+03 F= -.32890527E+03 E0= -.32893046E+03  EK= 0.23728E+01 SP= -.23E+01 SK= 0.40E-02
       N       E                     dE             d eps       ncg     rms          rms(c)
DAV:   1    -0.328883819477E+03    0.21451E-01   -0.54527E-03  2848   0.858E-01    0.429E-02
RMM:   2    -0.328884063142E+03   -0.24366E-03   -0.25069E-03  1674   0.668E-02    0.163E-02
RMM:   3    -0.328884082719E+03   -0.19577E-04   -0.21185E-04  1863   0.187E-02    0.155E-02
RMM:   4    -0.328884083613E+03   -0.89410E-06   -0.18119E-05  1056   0.627E-03    0.106E-02
RMM:   5    -0.328884083949E+03   -0.33652E-06   -0.61452E-06  1007   0.393E-03
  311 T=   255. E= -.32880825E+03 F= -.32888408E+03 E0= -.32890932E+03  EK= 0.23358E+01 SP= -.23E+01 SK= 0.13E-02
       N       E                     dE             d eps       ncg     rms          rms(c)
DAV:   1    -0.328856111402E+03    0.27972E-01   -0.51351E-03  2816   0.848E-01    0.426E-02
RMM:   2    -0.328856356909E+03   -0.24551E-03   -0.25234E-03  1673   0.663E-02    0.161E-02
RMM:   3    -0.328856377177E+03   -0.20268E-04   -0.21675E-04  1865   0.188E-02    0.156E-02
RMM:   4    -0.328856378145E+03   -0.96836E-06   -0.17907E-05  1056   0.624E-03    0.108E-02
RMM:   5    -0.328856378505E+03   -0.36043E-06   -0.61495E-06  1005   0.392E-03
  312 T=   251. E= -.32880801E+03 F= -.32885638E+03 E0= -.32888157E+03  EK= 0.23013E+01 SP= -.23E+01 SK= 0.55E-04
       N       E                     dE             d eps       ncg     rms          rms(c)
DAV:   1    -0.328823820956E+03    0.32557E-01   -0.51151E-03  2848   0.836E-01    0.411E-02
RMM:   2    -0.328824046080E+03   -0.22512E-03   -0.23179E-03  1668   0.654E-02    0.160E-02
RMM:   3    -0.328824063845E+03   -0.17765E-04   -0.19099E-04  1835   0.182E-02    0.153E-02
RMM:   4    -0.328824064761E+03   -0.91620E-06   -0.17475E-05  1050   0.622E-03    0.103E-02
RMM:   5    -0.328824065136E+03   -0.37534E-06   -0.61653E-06  1004   0.392E-03
  313 T=   248. E= -.32880781E+03 F= -.32882407E+03 E0= -.32884913E+03  EK= 0.22715E+01 SP= -.23E+01 SK= 0.57E-03
       N       E                     dE             d eps       ncg     rms          rms(c)
DAV:   1    -0.328789006372E+03    0.35058E-01   -0.41043E-03  2896   0.825E-01    0.396E-02
RMM:   2    -0.328789196791E+03   -0.19042E-03   -0.19743E-03  1667   0.608E-02    0.159E-02
RMM:   3    -0.328789212258E+03   -0.15466E-04   -0.16934E-04  1788   0.169E-02    0.151E-02
RMM:   4    -0.328789212837E+03   -0.57965E-06   -0.15186E-05  1034   0.606E-03    0.104E-02
RMM:   5    -0.328789213117E+03   -0.28003E-06   -0.59197E-06  1003   0.386E-03
  314 T=   245. E= -.32880775E+03 F= -.32878921E+03 E0= -.32881410E+03  EK= 0.22488E+01 SP= -.23E+01 SK= 0.32E-02
       N       E                     dE             d eps       ncg     rms          rms(c)
DAV:   1    -0.328753753528E+03    0.35459E-01   -0.44023E-03  2864   0.816E-01    0.390E-02
RMM:   2    -0.328753958095E+03   -0.20457E-03   -0.21086E-03  1673   0.626E-02    0.159E-02
RMM:   3    -0.328753974947E+03   -0.16852E-04   -0.18146E-04  1819   0.175E-02    0.152E-02
RMM:   4    -0.328753975775E+03   -0.82801E-06   -0.15813E-05  1038   0.609E-03    0.105E-02
RMM:   5    -0.328753976165E+03   -0.39029E-06   -0.61510E-06  1002   0.392E-03
  315 T=   244. E= -.32880757E+03 F= -.32875398E+03 E0= -.32877865E+03  EK= 0.22359E+01 SP= -.23E+01 SK= 0.83E-02
       N       E                     dE             d eps       ncg     rms          rms(c)
DAV:   1    -0.328720799668E+03    0.33176E-01   -0.46650E-03  2848   0.808E-01    0.409E-02
RMM:   2    -0.328721017024E+03   -0.21736E-03   -0.22448E-03  1664   0.647E-02    0.155E-02
RMM:   3    -0.328721033713E+03   -0.16689E-04   -0.18129E-04  1808   0.178E-02    0.149E-02
RMM:   4    -0.328721034483E+03   -0.76943E-06   -0.16292E-05  1039   0.623E-03    0.106E-02
RMM:   5    -0.328721034781E+03   -0.29772E-06   -0.61565E-06  1005   0.394E-03
  316 T=   244. E= -.32880756E+03 F= -.32872103E+03 E0= -.32874547E+03  EK= 0.22354E+01 SP= -.23E+01 SK= 0.16E-01
       N       E                     dE             d eps       ncg     rms          rms(c)
DAV:   1    -0.328691920270E+03    0.29114E-01   -0.44951E-03  2848   0.804E-01    0.378E-02
RMM:   2    -0.328692147066E+03   -0.22680E-03   -0.23313E-03  1678   0.645E-02    0.165E-02
RMM:   3    -0.328692166347E+03   -0.19281E-04   -0.20586E-04  1845   0.181E-02    0.158E-02
RMM:   4    -0.328692167037E+03   -0.69016E-06   -0.15185E-05  1034   0.606E-03    0.113E-02
RMM:   5    -0.328692167332E+03   -0.29518E-06   -0.61236E-06  1005   0.396E-03
  317 T=   245. E= -.32880739E+03 F= -.32869217E+03 E0= -.32871633E+03  EK= 0.22497E+01 SP= -.24E+01 SK= 0.26E-01
       N       E                     dE             d eps       ncg     rms          rms(c)
DAV:   1    -0.328669132384E+03    0.23035E-01   -0.47344E-03  2848   0.803E-01    0.406E-02
RMM:   2    -0.328669378500E+03   -0.24612E-03   -0.25338E-03  1672   0.670E-02    0.156E-02
RMM:   3    -0.328669398973E+03   -0.20473E-04   -0.21890E-04  1858   0.188E-02    0.152E-02
RMM:   4    -0.328669399754E+03   -0.78056E-06   -0.17104E-05  1055   0.625E-03    0.105E-02
RMM:   5    -0.328669400056E+03   -0.30277E-06   -0.63570E-06  1003   0.399E-03
  318 T=   248. E= -.32880746E+03 F= -.32866940E+03 E0= -.32869328E+03  EK= 0.22806E+01 SP= -.25E+01 SK= 0.37E-01
       N       E                     dE             d eps       ncg     rms          rms(c)
DAV:   1    -0.328653781117E+03    0.15619E-01   -0.51365E-03  2832   0.806E-01    0.391E-02
RMM:   2    -0.328654029777E+03   -0.24866E-03   -0.25571E-03  1671   0.684E-02    0.165E-02
RMM:   3    -0.328654050122E+03   -0.20346E-04   -0.21768E-04  1852   0.190E-02    0.161E-02
RMM:   4    -0.328654051009E+03   -0.88666E-06   -0.17563E-05  1055   0.630E-03    0.117E-02
RMM:   5    -0.328654051225E+03   -0.21624E-06   -0.65522E-06  1007   0.404E-03
  319 T=   254. E= -.32880792E+03 F= -.32865405E+03 E0= -.32867762E+03  EK= 0.23292E+01 SP= -.25E+01 SK= 0.50E-01
       N       E                     dE             d eps       ncg     rms          rms(c)
DAV:   1    -0.328645186295E+03    0.88647E-02   -0.53890E-03  2832   0.815E-01    0.412E-02
RMM:   2    -0.328645424727E+03   -0.23843E-03   -0.24573E-03  1683   0.679E-02    0.161E-02
RMM:   3    -0.328645444201E+03   -0.19473E-04   -0.20984E-04  1861   0.186E-02    0.157E-02
RMM:   4    -0.328645445059E+03   -0.85851E-06   -0.16605E-05  1051   0.618E-03    0.112E-02
RMM:   5    -0.328645445395E+03   -0.33573E-06   -0.62976E-06  1007   0.395E-03
  320 T=   261. E= -.32880807E+03 F= -.32864545E+03 E0= -.32866867E+03  EK= 0.23954E+01 SP= -.26E+01 SK= 0.62E-01
       N       E                     dE             d eps       ncg     rms          rms(c)
DAV:   1    -0.328643871884E+03    0.15732E-02   -0.49816E-03  2832   0.829E-01    0.395E-02
RMM:   2    -0.328644115826E+03   -0.24394E-03   -0.25153E-03  1681   0.672E-02    0.164E-02
RMM:   3    -0.328644136681E+03   -0.20855E-04   -0.22474E-04  1893   0.189E-02    0.160E-02
RMM:   4    -0.328644137364E+03   -0.68329E-06   -0.16314E-05  1051   0.606E-03    0.114E-02
RMM:   5    -0.328644137582E+03   -0.21727E-06   -0.66484E-06  1008   0.402E-03
  321 T=   270. E= -.32880841E+03 F= -.32864414E+03 E0= -.32866699E+03  EK= 0.24789E+01 SP= -.27E+01 SK= 0.73E-01
       N       E                     dE             d eps       ncg     rms          rms(c)
DAV:   1    -0.328649817564E+03   -0.56802E-02   -0.57585E-03  2816   0.846E-01    0.411E-02
RMM:   2    -0.328650088909E+03   -0.27135E-03   -0.27926E-03  1676   0.709E-02    0.164E-02
RMM:   3    -0.328650111211E+03   -0.22302E-04   -0.23804E-04  1895   0.197E-02    0.161E-02
RMM:   4    -0.328650112208E+03   -0.99686E-06   -0.18649E-05  1068   0.632E-03    0.118E-02
RMM:   5    -0.328650112418E+03   -0.21005E-06   -0.65930E-06  1008   0.404E-03
  322 T=   281. E= -.32880916E+03 F= -.32865011E+03 E0= -.32867257E+03  EK= 0.25787E+01 SP= -.28E+01 SK= 0.81E-01
       N       E                     dE             d eps       ncg     rms          rms(c)
DAV:   1    -0.328660177828E+03   -0.10066E-01   -0.66291E-03  2816   0.867E-01    0.424E-02
RMM:   2    -0.328660450255E+03   -0.27243E-03   -0.28022E-03  1669   0.724E-02    0.173E-02
RMM:   3    -0.328660472089E+03   -0.21834E-04   -0.23455E-04  1857   0.198E-02    0.167E-02
RMM:   4    -0.328660473097E+03   -0.10073E-05   -0.19437E-05  1069   0.657E-03    0.115E-02
RMM:   5    -0.328660473462E+03   -0.36485E-06   -0.66978E-06  1006   0.409E-03
  323 T=   293. E= -.32880988E+03 F= -.32866047E+03 E0= -.32868252E+03  EK= 0.26910E+01 SP= -.29E+01 SK= 0.86E-01
       N       E                     dE             d eps       ncg     rms          rms(c)
DAV:   1    -0.328671752067E+03   -0.11279E-01   -0.69130E-03  2816   0.891E-01    0.448E-02
RMM:   2    -0.328672042177E+03   -0.29011E-03   -0.29818E-03  1685   0.744E-02    0.174E-02
RMM:   3    -0.328672066938E+03   -0.24761E-04   -0.26783E-04  1908   0.205E-02    0.167E-02
RMM:   4    -0.328672067836E+03   -0.89854E-06   -0.19853E-05  1075   0.654E-03    0.115E-02
RMM:   5    -0.328672068140E+03   -0.30369E-06   -0.66062E-06  1011   0.410E-03
  324 T=   306. E= -.32881067E+03 F= -.32867207E+03 E0= -.32869371E+03  EK= 0.28104E+01 SP= -.30E+01 SK= 0.86E-01
       N       E                     dE             d eps       ncg     rms          rms(c)
DAV:   1    -0.328681813038E+03   -0.97452E-02   -0.74857E-03  2816   0.916E-01    0.437E-02
RMM:   2    -0.328682128784E+03   -0.31575E-03   -0.32411E-03  1675   0.777E-02    0.186E-02
RMM:   3    -0.328682155689E+03   -0.26905E-04   -0.28787E-04  1921   0.214E-02    0.178E-02
RMM:   4    -0.328682156832E+03   -0.11430E-05   -0.22284E-05  1090   0.672E-03    0.123E-02
RMM:   5    -0.328682157151E+03   -0.31874E-06   -0.71544E-06  1009   0.421E-03
  325 T=   319. E= -.32881160E+03 F= -.32868216E+03 E0= -.32870342E+03  EK= 0.29314E+01 SP= -.31E+01 SK= 0.81E-01
       N       E                     dE             d eps       ncg     rms          rms(c)
DAV:   1    -0.328686015609E+03   -0.38588E-02   -0.82435E-03  2832   0.938E-01    0.465E-02
RMM:   2    -0.328686360294E+03   -0.34469E-03   -0.35356E-03  1674   0.800E-02    0.177E-02
RMM:   3    -0.328686389276E+03   -0.28981E-04   -0.30928E-04  1923   0.221E-02    0.169E-02
RMM:   4    -0.328686390531E+03   -0.12552E-05   -0.23579E-05  1097   0.693E-03    0.117E-02
RMM:   5    -0.328686390896E+03   -0.36496E-06   -0.69400E-06  1010   0.420E-03
  326 T=   332. E= -.32881237E+03 F= -.32868639E+03 E0= -.32870732E+03  EK= 0.30466E+01 SP= -.32E+01 SK= 0.73E-01
       N       E                     dE             d eps       ncg     rms          rms(c)
DAV:   1    -0.328681237156E+03    0.51534E-02   -0.88329E-03  2816   0.957E-01    0.455E-02
RMM:   2    -0.328681589126E+03   -0.35197E-03   -0.36067E-03  1671   0.816E-02    0.186E-02
RMM:   3    -0.328681618889E+03   -0.29763E-04   -0.31706E-04  1916   0.225E-02    0.179E-02
RMM:   4    -0.328681620280E+03   -0.13913E-05   -0.24800E-05  1107   0.710E-03    0.126E-02
RMM:   5    -0.328681620636E+03   -0.35540E-06   -0.73075E-06  1010   0.429E-03
  327 T=   343. E= -.32881304E+03 F= -.32868162E+03 E0= -.32870228E+03  EK= 0.31488E+01 SP= -.33E+01 SK= 0.61E-01
       N       E                     dE             d eps       ncg     rms          rms(c)
DAV:   1    -0.328664699343E+03    0.16921E-01   -0.91721E-03  2832   0.972E-01    0.476E-02
RMM:   2    -0.328665068384E+03   -0.36904E-03   -0.37866E-03  1685   0.840E-02    0.181E-02
RMM:   3    -0.328665100837E+03   -0.32454E-04   -0.34472E-04  1938   0.231E-02    0.175E-02
RMM:   4    -0.328665102355E+03   -0.15181E-05   -0.26113E-05  1118   0.713E-03    0.122E-02
RMM:   5    -0.328665102705E+03   -0.34929E-06   -0.70428E-06  1007   0.425E-03
  328 T=   352. E= -.32881334E+03 F= -.32866510E+03 E0= -.32868557E+03  EK= 0.32315E+01 SP= -.34E+01 SK= 0.47E-01
       N       E                     dE             d eps       ncg     rms          rms(c)
DAV:   1    -0.328634550437E+03    0.30552E-01   -0.86691E-03  2832   0.980E-01    0.499E-02
RMM:   2    -0.328634950981E+03   -0.40054E-03   -0.41043E-03  1693   0.851E-02    0.182E-02
RMM:   3    -0.328634985114E+03   -0.34133E-04   -0.36470E-04  1942   0.236E-02    0.175E-02
RMM:   4    -0.328634986691E+03   -0.15772E-05   -0.27712E-05  1134   0.722E-03    0.122E-02
RMM:   5    -0.328634986990E+03   -0.29866E-06   -0.68934E-06  1011   0.422E-03
  329 T=   358. E= -.32881399E+03 F= -.32863499E+03 E0= -.32865534E+03  EK= 0.32885E+01 SP= -.35E+01 SK= 0.34E-01
       N       E                     dE             d eps       ncg     rms          rms(c)
DAV:   1    -0.328589038858E+03    0.45948E-01   -0.91932E-03  2816   0.980E-01    0.500E-02
RMM:   2    -0.328589433808E+03   -0.39495E-03   -0.40532E-03  1675   0.862E-02    0.191E-02
RMM:   3    -0.328589465622E+03   -0.31814E-04   -0.34035E-04  1927   0.237E-02    0.187E-02
RMM:   4    -0.328589467143E+03   -0.15215E-05   -0.27336E-05  1118   0.733E-03    0.130E-02
RMM:   5    -0.328589467500E+03   -0.35645E-06   -0.74291E-06  1007   0.435E-03
  330 T=   361. E= -.32881377E+03 F= -.32858947E+03 E0= -.32860980E+03  EK= 0.33164E+01 SP= -.36E+01 SK= 0.22E-01
       N       E                     dE             d eps       ncg     rms          rms(c)
DAV:   1    -0.328530371441E+03    0.59096E-01   -0.77906E-03  2832   0.973E-01    0.521E-02
RMM:   2    -0.328530728793E+03   -0.35735E-03   -0.36946E-03  1675   0.826E-02    0.186E-02
RMM:   3    -0.328530758543E+03   -0.29750E-04   -0.32190E-04  1935   0.230E-02    0.185E-02
RMM:   4    -0.328530759804E+03   -0.12607E-05   -0.26881E-05  1122   0.716E-03    0.133E-02
RMM:   5    -0.328530759864E+03   -0.60492E-07   -0.70895E-06  1010   0.423E-03
  331 T=   361. E= -.32881317E+03 F= -.32853076E+03 E0= -.32855114E+03  EK= 0.33150E+01 SP= -.36E+01 SK= 0.12E-01
       N       E                     dE             d eps       ncg     rms          rms(c)
DAV:   1    -0.328463135243E+03    0.67625E-01   -0.81336E-03  2880   0.958E-01    0.500E-02
RMM:   2    -0.328463479850E+03   -0.34461E-03   -0.35614E-03  1684   0.820E-02    0.216E-02
RMM:   3    -0.328463508496E+03   -0.28646E-04   -0.31319E-04  1939   0.225E-02    0.210E-02
RMM:   4    -0.328463509543E+03   -0.10467E-05   -0.26276E-05  1114   0.707E-03    0.144E-02
RMM:   5    -0.328463509685E+03   -0.14178E-06   -0.78282E-06  1008   0.433E-03
  332 T=   358. E= -.32881282E+03 F= -.32846351E+03 E0= -.32848401E+03  EK= 0.32880E+01 SP= -.36E+01 SK= 0.52E-02
       N       E                     dE             d eps       ncg     rms          rms(c)
DAV:   1    -0.328391960230E+03    0.71549E-01   -0.89272E-03  2832   0.937E-01    0.572E-02
RMM:   2    -0.328392334165E+03   -0.37394E-03   -0.38648E-03  1671   0.857E-02    0.204E-02
RMM:   3    -0.328392364725E+03   -0.30560E-04   -0.33337E-04  1937   0.235E-02    0.200E-02
RMM:   4    -0.328392365846E+03   -0.11214E-05   -0.27132E-05  1116   0.731E-03    0.132E-02
RMM:   5    -0.328392366114E+03   -0.26816E-06   -0.74285E-06  1007   0.433E-03
  333 T=   353. E= -.32881185E+03 F= -.32839237E+03 E0= -.32841304E+03  EK= 0.32417E+01 SP= -.37E+01 SK= 0.15E-02
       N       E                     dE             d eps       ncg     rms          rms(c)
DAV:   1    -0.328323625397E+03    0.68740E-01   -0.83581E-03  2880   0.913E-01    0.526E-02
RMM:   2    -0.328323982080E+03   -0.35668E-03   -0.36724E-03  1670   0.841E-02    0.230E-02
RMM:   3    -0.328324010623E+03   -0.28543E-04   -0.31188E-04  1928   0.228E-02    0.221E-02
RMM:   4    -0.328324011613E+03   -0.98995E-06   -0.25967E-05  1116   0.714E-03    0.148E-02
RMM:   5    -0.328324011824E+03   -0.21082E-06   -0.75736E-06  1005   0.430E-03
  334 T=   347. E= -.32881106E+03 F= -.32832401E+03 E0= -.32834489E+03  EK= 0.31835E+01 SP= -.37E+01 SK= 0.54E-04
       N       E                     dE             d eps       ncg     rms          rms(c)
DAV:   1    -0.328264343559E+03    0.59668E-01   -0.91241E-03  2864   0.888E-01    0.569E-02
RMM:   2    -0.328264707557E+03   -0.36400E-03   -0.37534E-03  1671   0.854E-02    0.213E-02
RMM:   3    -0.328264737388E+03   -0.29830E-04   -0.32375E-04  1935   0.231E-02    0.208E-02
RMM:   4    -0.328264738541E+03   -0.11539E-05   -0.25154E-05  1108   0.716E-03    0.146E-02
RMM:   5    -0.328264738718E+03   -0.17639E-06   -0.73884E-06  1006   0.431E-03
  335 T=   340. E= -.32881012E+03 F= -.32826474E+03 E0= -.32828586E+03  EK= 0.31223E+01 SP= -.37E+01 SK= 0.38E-03
       N       E                     dE             d eps       ncg     rms          rms(c)
DAV:   1    -0.328220733201E+03    0.44005E-01   -0.86727E-03  2832   0.866E-01    0.540E-02
RMM:   2    -0.328221084090E+03   -0.35089E-03   -0.36082E-03  1676   0.822E-02    0.201E-02
RMM:   3    -0.328221113182E+03   -0.29093E-04   -0.31579E-04  1946   0.226E-02    0.195E-02
RMM:   4    -0.328221114493E+03   -0.13111E-05   -0.24716E-05  1102   0.692E-03    0.136E-02
RMM:   5    -0.328221114736E+03   -0.24286E-06   -0.67304E-06  1005   0.415E-03
  336 T=   334. E= -.32880933E+03 F= -.32822111E+03 E0= -.32824249E+03  EK= 0.30663E+01 SP= -.37E+01 SK= 0.18E-02
       N       E                     dE             d eps       ncg     rms          rms(c)
DAV:   1    -0.328197842241E+03    0.23272E-01   -0.92515E-03  2816   0.848E-01    0.506E-02
RMM:   2    -0.328198214159E+03   -0.37192E-03   -0.38074E-03  1673   0.825E-02    0.200E-02
RMM:   3    -0.328198245098E+03   -0.30938E-04   -0.33178E-04  1938   0.228E-02    0.195E-02
RMM:   4    -0.328198246544E+03   -0.14465E-05   -0.25353E-05  1103   0.701E-03    0.137E-02
RMM:   5    -0.328198246825E+03   -0.28113E-06   -0.69320E-06  1005   0.423E-03
  337 T=   329. E= -.32880883E+03 F= -.32819825E+03 E0= -.32821989E+03  EK= 0.30225E+01 SP= -.36E+01 SK= 0.38E-02
       N       E                     dE             d eps       ncg     rms          rms(c)
DAV:   1    -0.328199211711E+03   -0.96517E-03   -0.85930E-03  2816   0.839E-01    0.500E-02
RMM:   2    -0.328199543130E+03   -0.33142E-03   -0.34019E-03  1676   0.785E-02    0.182E-02
RMM:   3    -0.328199570586E+03   -0.27455E-04   -0.29567E-04  1908   0.216E-02    0.177E-02
RMM:   4    -0.328199572142E+03   -0.15567E-05   -0.25144E-05  1103   0.693E-03    0.124E-02
RMM:   5    -0.328199572433E+03   -0.29086E-06   -0.64511E-06  1005   0.410E-03
  338 T=   326. E= -.32880890E+03 F= -.32819957E+03 E0= -.32822150E+03  EK= 0.29953E+01 SP= -.36E+01 SK= 0.62E-02
       N       E                     dE             d eps       ncg     rms          rms(c)
DAV:   1    -0.328224874761E+03   -0.25303E-01   -0.80348E-03  2832   0.839E-01    0.485E-02
RMM:   2    -0.328225201469E+03   -0.32671E-03   -0.33467E-03  1683   0.770E-02    0.178E-02
RMM:   3    -0.328225228727E+03   -0.27258E-04   -0.29495E-04  1918   0.213E-02    0.173E-02
RMM:   4    -0.328225229962E+03   -0.12350E-05   -0.22573E-05  1092   0.668E-03    0.122E-02
RMM:   5    -0.328225230185E+03   -0.22304E-06   -0.63495E-06  1005   0.403E-03
  339 T=   325. E= -.32880923E+03 F= -.32822523E+03 E0= -.32824744E+03  EK= 0.29858E+01 SP= -.36E+01 SK= 0.90E-02
       N       E                     dE             d eps       ncg     rms          rms(c)
DAV:   1    -0.328272335868E+03   -0.47106E-01   -0.72882E-03  2864   0.848E-01    0.459E-02
RMM:   2    -0.328272605983E+03   -0.27011E-03   -0.27772E-03  1671   0.727E-02    0.177E-02
RMM:   3    -0.328272628600E+03   -0.22617E-04   -0.24477E-04  1867   0.198E-02    0.170E-02
RMM:   4    -0.328272629478E+03   -0.87851E-06   -0.18772E-05  1059   0.643E-03    0.118E-02
RMM:   5    -0.328272629751E+03   -0.27273E-06   -0.62372E-06  1004   0.399E-03
  340 T=   326. E= -.32880976E+03 F= -.32827263E+03 E0= -.32829515E+03  EK= 0.29917E+01 SP= -.35E+01 SK= 0.12E-01
       N       E                     dE             d eps       ncg     rms          rms(c)
DAV:   1    -0.328336986276E+03   -0.64357E-01   -0.64959E-03  2896   0.864E-01    0.460E-02
RMM:   2    -0.328337230624E+03   -0.24435E-03   -0.25190E-03  1668   0.705E-02    0.173E-02
RMM:   3    -0.328337251653E+03   -0.21029E-04   -0.22849E-04  1842   0.191E-02    0.167E-02
RMM:   4    -0.328337252452E+03   -0.79836E-06   -0.18300E-05  1054   0.638E-03    0.120E-02
RMM:   5    -0.328337252663E+03   -0.21134E-06   -0.62912E-06   999   0.400E-03
  341 T=   328. E= -.32881055E+03 F= -.32833725E+03 E0= -.32836009E+03  EK= 0.30080E+01 SP= -.35E+01 SK= 0.16E-01
       N       E                     dE             d eps       ncg     rms          rms(c)
DAV:   1    -0.328412863077E+03   -0.75611E-01   -0.65556E-03  2864   0.884E-01    0.465E-02
RMM:   2    -0.328413113747E+03   -0.25067E-03   -0.25870E-03  1667   0.720E-02    0.194E-02
RMM:   3    -0.328413134340E+03   -0.20593E-04   -0.22467E-04  1847   0.193E-02    0.180E-02
RMM:   4    -0.328413135163E+03   -0.82328E-06   -0.20085E-05  1072   0.659E-03    0.119E-02
RMM:   5    -0.328413135519E+03   -0.35653E-06   -0.64542E-06   999   0.406E-03
  342 T=   330. E= -.32881136E+03 F= -.32841314E+03 E0= -.32843632E+03  EK= 0.30283E+01 SP= -.34E+01 SK= 0.21E-01
       N       E                     dE             d eps       ncg     rms          rms(c)
DAV:   1    -0.328493206148E+03   -0.80071E-01   -0.68259E-03  2864   0.906E-01    0.468E-02
RMM:   2    -0.328493452327E+03   -0.24618E-03   -0.25470E-03  1667   0.724E-02    0.195E-02
RMM:   3    -0.328493472957E+03   -0.20630E-04   -0.22767E-04  1873   0.193E-02    0.182E-02
RMM:   4    -0.328493473410E+03   -0.45311E-06   -0.17958E-05  1052   0.636E-03    0.124E-02
RMM:   5    -0.328493473684E+03   -0.27364E-06   -0.64853E-06   999   0.403E-03
  343 T=   332. E= -.32881198E+03 F= -.32849347E+03 E0= -.32851703E+03  EK= 0.30454E+01 SP= -.34E+01 SK= 0.27E-01
       N       E                     dE             d eps       ncg     rms          rms(c)
DAV:   1    -0.328572183153E+03   -0.78710E-01   -0.67394E-03  2864   0.925E-01    0.473E-02
RMM:   2    -0.328572444386E+03   -0.26123E-03   -0.26925E-03  1672   0.730E-02    0.190E-02
RMM:   3    -0.328572466475E+03   -0.22088E-04   -0.23985E-04  1893   0.197E-02    0.180E-02
RMM:   4    -0.328572467216E+03   -0.74139E-06   -0.19337E-05  1065   0.640E-03    0.125E-02
RMM:   5    -0.328572467453E+03   -0.23736E-06   -0.65244E-06  1002   0.404E-03
  344 T=   333. E= -.32881254E+03 F= -.32857247E+03 E0= -.32859643E+03  EK= 0.30530E+01 SP= -.33E+01 SK= 0.34E-01
       N       E                     dE             d eps       ncg     rms          rms(c)
DAV:   1    -0.328644115380E+03   -0.71648E-01   -0.64354E-03  2832   0.941E-01    0.476E-02
RMM:   2    -0.328644377874E+03   -0.26249E-03   -0.27139E-03  1670   0.728E-02    0.196E-02
RMM:   3    -0.328644400168E+03   -0.22293E-04   -0.24337E-04  1879   0.198E-02    0.184E-02
RMM:   4    -0.328644400733E+03   -0.56522E-06   -0.19906E-05  1072   0.656E-03    0.126E-02
RMM:   5    -0.328644400943E+03   -0.21002E-06   -0.69888E-06   999   0.419E-03
  345 T=   332. E= -.32881303E+03 F= -.32864440E+03 E0= -.32866881E+03  EK= 0.30455E+01 SP= -.33E+01 SK= 0.41E-01
       N       E                     dE             d eps       ncg     rms          rms(c)
DAV:   1    -0.328704355277E+03   -0.59955E-01   -0.67679E-03  2848   0.951E-01    0.481E-02
RMM:   2    -0.328704609942E+03   -0.25466E-03   -0.26307E-03  1667   0.720E-02    0.187E-02
RMM:   3    -0.328704631445E+03   -0.21503E-04   -0.23400E-04  1883   0.194E-02    0.180E-02
RMM:   4    -0.328704632124E+03   -0.67919E-06   -0.18629E-05  1060   0.631E-03    0.129E-02
RMM:   5    -0.328704632293E+03   -0.16854E-06   -0.67717E-06  1002   0.408E-03
  346 T=   329. E= -.32881315E+03 F= -.32870463E+03 E0= -.32872953E+03  EK= 0.30191E+01 SP= -.32E+01 SK= 0.49E-01
       N       E                     dE             d eps       ncg     rms          rms(c)
DAV:   1    -0.328750545252E+03   -0.45913E-01   -0.70054E-03  2896   0.955E-01    0.486E-02
RMM:   2    -0.328750803418E+03   -0.25817E-03   -0.26676E-03  1673   0.729E-02    0.181E-02
RMM:   3    -0.328750825304E+03   -0.21886E-04   -0.23798E-04  1875   0.197E-02    0.176E-02
RMM:   4    -0.328750826085E+03   -0.78028E-06   -0.18619E-05  1056   0.642E-03    0.128E-02
RMM:   5    -0.328750826269E+03   -0.18388E-06   -0.66642E-06  1003   0.406E-03
  347 T=   324. E= -.32881279E+03 F= -.32875083E+03 E0= -.32877627E+03  EK= 0.29731E+01 SP= -.31E+01 SK= 0.57E-01
       N       E                     dE             d eps       ncg     rms          rms(c)
DAV:   1    -0.328781615808E+03   -0.30790E-01   -0.61894E-03  2912   0.953E-01    0.460E-02
RMM:   2    -0.328781854460E+03   -0.23865E-03   -0.24741E-03  1673   0.702E-02    0.182E-02
RMM:   3    -0.328781875138E+03   -0.20678E-04   -0.22630E-04  1878   0.193E-02    0.180E-02
RMM:   4    -0.328781875861E+03   -0.72332E-06   -0.18174E-05  1057   0.635E-03    0.135E-02
RMM:   5    -0.328781875938E+03   -0.76852E-07   -0.68523E-06  1001   0.410E-03
  348 T=   317. E= -.32881244E+03 F= -.32878188E+03 E0= -.32880790E+03  EK= 0.29079E+01 SP= -.30E+01 SK= 0.63E-01
       N       E                     dE             d eps       ncg     rms          rms(c)
DAV:   1    -0.328798024987E+03   -0.16149E-01   -0.57985E-03  2912   0.944E-01    0.466E-02
RMM:   2    -0.328798257421E+03   -0.23243E-03   -0.24159E-03  1676   0.680E-02    0.170E-02
RMM:   3    -0.328798277917E+03   -0.20496E-04   -0.22168E-04  1867   0.189E-02    0.168E-02
RMM:   4    -0.328798278661E+03   -0.74497E-06   -0.17226E-05  1047   0.622E-03    0.122E-02
RMM:   5    -0.328798278891E+03   -0.22930E-06   -0.65047E-06   994   0.399E-03
  349 T=   308. E= -.32881182E+03 F= -.32879828E+03 E0= -.32882493E+03  EK= 0.28267E+01 SP= -.29E+01 SK= 0.67E-01
       N       E                     dE             d eps       ncg     rms          rms(c)
DAV:   1    -0.328802705459E+03   -0.44268E-02   -0.60444E-03  2928   0.929E-01    0.460E-02
RMM:   2    -0.328802941017E+03   -0.23556E-03   -0.24368E-03  1668   0.685E-02    0.175E-02
RMM:   3    -0.328802960290E+03   -0.19273E-04   -0.21208E-04  1858   0.189E-02    0.173E-02
RMM:   4    -0.328802960864E+03   -0.57488E-06   -0.17319E-05  1045   0.634E-03    0.125E-02
RMM:   5    -0.328802960987E+03   -0.12265E-06   -0.67176E-06   997   0.408E-03
  350 T=   298. E= -.32881125E+03 F= -.32880296E+03 E0= -.32883026E+03  EK= 0.27349E+01 SP= -.28E+01 SK= 0.68E-01
       N       E                     dE             d eps       ncg     rms          rms(c)
DAV:   1    -0.328798211241E+03    0.47496E-02   -0.58263E-03  2896   0.911E-01    0.463E-02
RMM:   2    -0.328798432476E+03   -0.22123E-03   -0.22984E-03  1669   0.669E-02    0.170E-02
RMM:   3    -0.328798450219E+03   -0.17743E-04   -0.19408E-04  1838   0.184E-02    0.166E-02
RMM:   4    -0.328798450995E+03   -0.77626E-06   -0.17688E-05  1044   0.628E-03    0.113E-02
RMM:   5    -0.328798451336E+03   -0.34082E-06   -0.63348E-06   998   0.394E-03
  351 T=   287. E= -.32881070E+03 F= -.32879845E+03 E0= -.32882641E+03  EK= 0.26376E+01 SP= -.27E+01 SK= 0.65E-01
       N       E                     dE             d eps       ncg     rms          rms(c)
DAV:   1    -0.328787561472E+03    0.10890E-01   -0.53821E-03  2896   0.891E-01    0.436E-02
RMM:   2    -0.328787789071E+03   -0.22760E-03   -0.23579E-03  1669   0.668E-02    0.178E-02
RMM:   3    -0.328787807604E+03   -0.18533E-04   -0.20407E-04  1829   0.185E-02    0.173E-02
RMM:   4    -0.328787808217E+03   -0.61290E-06   -0.17562E-05  1047   0.633E-03    0.123E-02
RMM:   5    -0.328787808455E+03   -0.23787E-06   -0.67487E-06   995   0.406E-03
  352 T=   277. E= -.32881005E+03 F= -.32878781E+03 E0= -.32881640E+03  EK= 0.25403E+01 SP= -.26E+01 SK= 0.60E-01
       N       E                     dE             d eps       ncg     rms          rms(c)
DAV:   1    -0.328775062906E+03    0.12745E-01   -0.58417E-03  2944   0.870E-01    0.466E-02
RMM:   2    -0.328775301625E+03   -0.23872E-03   -0.24712E-03  1669   0.690E-02    0.175E-02
RMM:   3    -0.328775320738E+03   -0.19112E-04   -0.20818E-04  1853   0.188E-02    0.170E-02
RMM:   4    -0.328775321401E+03   -0.66312E-06   -0.17624E-05  1042   0.628E-03    0.113E-02
RMM:   5    -0.328775321707E+03   -0.30644E-06   -0.63197E-06  1001   0.394E-03
  353 T=   267. E= -.32880944E+03 F= -.32877532E+03 E0= -.32880450E+03  EK= 0.24490E+01 SP= -.25E+01 SK= 0.52E-01
       N       E                     dE             d eps       ncg     rms          rms(c)
DAV:   1    -0.328764205838E+03    0.11116E-01   -0.65563E-03  2880   0.850E-01    0.441E-02
RMM:   2    -0.328764451559E+03   -0.24572E-03   -0.25329E-03  1667   0.699E-02    0.194E-02
RMM:   3    -0.328764469803E+03   -0.18244E-04   -0.20257E-04  1841   0.188E-02    0.184E-02
RMM:   4    -0.328764470287E+03   -0.48333E-06   -0.17833E-05  1051   0.634E-03    0.121E-02
RMM:   5    -0.328764470571E+03   -0.28377E-06   -0.64926E-06   998   0.401E-03
  354 T=   258. E= -.32880873E+03 F= -.32876447E+03 E0= -.32879419E+03  EK= 0.23688E+01 SP= -.25E+01 SK= 0.42E-01
       N       E                     dE             d eps       ncg     rms          rms(c)
DAV:   1    -0.328758243392E+03    0.62269E-02   -0.51161E-03  2944   0.834E-01    0.435E-02
RMM:   2    -0.328758453057E+03   -0.20967E-03   -0.21745E-03  1671   0.650E-02    0.179E-02
RMM:   3    -0.328758470199E+03   -0.17142E-04   -0.18814E-04  1805   0.177E-02    0.169E-02
RMM:   4    -0.328758470716E+03   -0.51726E-06   -0.17151E-05  1041   0.629E-03    0.106E-02
RMM:   5    -0.328758471070E+03   -0.35360E-06   -0.60516E-06   998   0.391E-03
  355 T=   251. E= -.32880811E+03 F= -.32875847E+03 E0= -.32878864E+03  EK= 0.23034E+01 SP= -.24E+01 SK= 0.31E-01
       N       E                     dE             d eps       ncg     rms          rms(c)
DAV:   1    -0.328759749794E+03   -0.12791E-02   -0.47406E-03  2992   0.821E-01    0.393E-02
RMM:   2    -0.328759941413E+03   -0.19162E-03   -0.19888E-03  1668   0.619E-02    0.183E-02
RMM:   3    -0.328759957073E+03   -0.15660E-04   -0.17414E-04  1795   0.171E-02    0.170E-02
RMM:   4    -0.328759957349E+03   -0.27604E-06   -0.15950E-05  1030   0.615E-03    0.106E-02
RMM:   5    -0.328759957699E+03   -0.34989E-06   -0.62321E-06   999   0.397E-03
  356 T=   246. E= -.32880776E+03 F= -.32875996E+03 E0= -.32879049E+03  EK= 0.22560E+01 SP= -.23E+01 SK= 0.21E-01
       N       E                     dE             d eps       ncg     rms          rms(c)
DAV:   1    -0.328770842794E+03   -0.10885E-01   -0.49534E-03  2944   0.813E-01    0.402E-02
RMM:   2    -0.328771038266E+03   -0.19547E-03   -0.20259E-03  1669   0.625E-02    0.165E-02
RMM:   3    -0.328771053984E+03   -0.15719E-04   -0.17215E-04  1774   0.170E-02    0.154E-02
RMM:   4    -0.328771054386E+03   -0.40134E-06   -0.15558E-05  1028   0.614E-03    0.951E-03
RMM:   5    -0.328771054726E+03   -0.34041E-06   -0.58354E-06   996   0.386E-03
  357 T=   243. E= -.32880750E+03 F= -.32877105E+03 E0= -.32880186E+03  EK= 0.22289E+01 SP= -.23E+01 SK= 0.12E-01
       N       E                     dE             d eps       ncg     rms          rms(c)
DAV:   1    -0.328792620575E+03   -0.21566E-01   -0.48600E-03  2928   0.813E-01    0.368E-02
RMM:   2    -0.328792804995E+03   -0.18442E-03   -0.19082E-03  1668   0.610E-02    0.162E-02
RMM:   3    -0.328792820205E+03   -0.15210E-04   -0.16569E-04  1776   0.167E-02    0.153E-02
RMM:   4    -0.328792820564E+03   -0.35908E-06   -0.14518E-05  1021   0.603E-03    0.996E-03
RMM:   5    -0.328792820853E+03   -0.28869E-06   -0.59009E-06   997   0.388E-03
  358 T=   242. E= -.32880750E+03 F= -.32879282E+03 E0= -.32882381E+03  EK= 0.22229E+01 SP= -.22E+01 SK= 0.56E-02
       N       E                     dE             d eps       ncg     rms          rms(c)
DAV:   1    -0.328823628240E+03   -0.30808E-01   -0.48081E-03  2864   0.819E-01    0.362E-02
RMM:   2    -0.328823819924E+03   -0.19168E-03   -0.19790E-03  1677   0.601E-02    0.144E-02
RMM:   3    -0.328823836891E+03   -0.16967E-04   -0.17973E-04  1805   0.169E-02    0.136E-02
RMM:   4    -0.328823837515E+03   -0.62369E-06   -0.14390E-05  1026   0.590E-03    0.892E-03
RMM:   5    -0.328823837877E+03   -0.36211E-06   -0.55200E-06   997   0.379E-03
  359 T=   244. E= -.32880751E+03 F= -.32882384E+03 E0= -.32885494E+03  EK= 0.22368E+01 SP= -.22E+01 SK= 0.16E-02
       N       E                     dE             d eps       ncg     rms          rms(c)
DAV:   1    -0.328861169735E+03   -0.37332E-01   -0.54268E-03  2896   0.832E-01    0.365E-02
RMM:   2    -0.328861392239E+03   -0.22250E-03   -0.22841E-03  1672   0.638E-02    0.144E-02
RMM:   3    -0.328861411887E+03   -0.19648E-04   -0.20620E-04  1832   0.180E-02    0.138E-02
RMM:   4    -0.328861412691E+03   -0.80375E-06   -0.16182E-05  1037   0.610E-03    0.921E-03
RMM:   5    -0.328861413080E+03   -0.38883E-06   -0.58870E-06   999   0.387E-03
  360 T=   247. E= -.32880783E+03 F= -.32886141E+03 E0= -.32889254E+03  EK= 0.22672E+01 SP= -.22E+01 SK= 0.42E-04
       N       E                     dE             d eps       ncg     rms          rms(c)
DAV:   1    -0.328900725048E+03   -0.39312E-01   -0.67459E-03  2864   0.850E-01    0.367E-02
RMM:   2    -0.328900982382E+03   -0.25733E-03   -0.26316E-03  1676   0.686E-02    0.158E-02
RMM:   3    -0.328901004289E+03   -0.21907E-04   -0.22829E-04  1874   0.190E-02    0.150E-02
RMM:   4    -0.328901005316E+03   -0.10264E-05   -0.17395E-05  1044   0.616E-03    0.102E-02
RMM:   5    -0.328901005765E+03   -0.44891E-06   -0.60309E-06  1003   0.389E-03
  361 T=   252. E= -.32880824E+03 F= -.32890101E+03 E0= -.32893211E+03  EK= 0.23094E+01 SP= -.22E+01 SK= 0.61E-03
       N       E                     dE             d eps       ncg     rms          rms(c)
DAV:   1    -0.328938069194E+03   -0.37064E-01   -0.74891E-03  2816   0.869E-01    0.403E-02
RMM:   2    -0.328938362179E+03   -0.29299E-03   -0.29944E-03  1679   0.728E-02    0.168E-02
RMM:   3    -0.328938387197E+03   -0.25018E-04   -0.26269E-04  1892   0.201E-02    0.157E-02
RMM:   4    -0.328938388285E+03   -0.10871E-05   -0.19060E-05  1065   0.640E-03    0.105E-02
RMM:   5    -0.328938388724E+03   -0.43946E-06   -0.62561E-06  1003   0.399E-03
  362 T=   257. E= -.32880891E+03 F= -.32893839E+03 E0= -.32896941E+03  EK= 0.23585E+01 SP= -.22E+01 SK= 0.28E-02
       N       E                     dE             d eps       ncg     rms          rms(c)
DAV:   1    -0.328968197730E+03   -0.29809E-01   -0.79678E-03  2800   0.888E-01    0.432E-02
RMM:   2    -0.328968523822E+03   -0.32609E-03   -0.33261E-03  1691   0.761E-02    0.179E-02
RMM:   3    -0.328968552429E+03   -0.28607E-04   -0.30225E-04  1918   0.212E-02    0.167E-02
RMM:   4    -0.328968553549E+03   -0.11204E-05   -0.20807E-05  1080   0.657E-03    0.112E-02
RMM:   5    -0.328968553926E+03   -0.37649E-06   -0.64024E-06  1002   0.405E-03
  363 T=   263. E= -.32880930E+03 F= -.32896855E+03 E0= -.32899945E+03  EK= 0.24094E+01 SP= -.23E+01 SK= 0.60E-02
       N       E                     dE             d eps       ncg     rms          rms(c)
DAV:   1    -0.328987362028E+03   -0.18808E-01   -0.82100E-03  2816   0.905E-01    0.430E-02
RMM:   2    -0.328987691925E+03   -0.32990E-03   -0.33666E-03  1682   0.778E-02    0.194E-02
RMM:   3    -0.328987719706E+03   -0.27781E-04   -0.29384E-04  1916   0.214E-02    0.178E-02
RMM:   4    -0.328987720805E+03   -0.10997E-05   -0.22050E-05  1084   0.676E-03    0.110E-02
RMM:   5    -0.328987721277E+03   -0.47133E-06   -0.67055E-06  1000   0.416E-03
  364 T=   268. E= -.32880971E+03 F= -.32898772E+03 E0= -.32901845E+03  EK= 0.24572E+01 SP= -.23E+01 SK= 0.98E-02
       N       E                     dE             d eps       ncg     rms          rms(c)
DAV:   1    -0.328991907687E+03   -0.41869E-02   -0.68959E-03  2832   0.917E-01    0.424E-02
RMM:   2    -0.328992228380E+03   -0.32069E-03   -0.32845E-03  1693   0.750E-02    0.183E-02
RMM:   3    -0.328992257055E+03   -0.28674E-04   -0.30560E-04  1934   0.212E-02    0.169E-02
RMM:   4    -0.328992257824E+03   -0.76971E-06   -0.20555E-05  1074   0.660E-03    0.107E-02
RMM:   5    -0.328992258234E+03   -0.40935E-06   -0.67382E-06  1002   0.413E-03
  365 T=   272. E= -.32880987E+03 F= -.32899226E+03 E0= -.32902279E+03  EK= 0.24976E+01 SP= -.23E+01 SK= 0.14E-01
       N       E                     dE             d eps       ncg     rms          rms(c)
DAV:   1    -0.328980521775E+03    0.11736E-01   -0.82652E-03  2848   0.926E-01    0.435E-02
RMM:   2    -0.328980849273E+03   -0.32750E-03   -0.33501E-03  1690   0.773E-02    0.176E-02
RMM:   3    -0.328980876532E+03   -0.27259E-04   -0.29102E-04  1925   0.213E-02    0.167E-02
RMM:   4    -0.328980877707E+03   -0.11746E-05   -0.22095E-05  1090   0.672E-03    0.116E-02
RMM:   5    -0.328980877997E+03   -0.28986E-06   -0.64909E-06  1001   0.408E-03
  366 T=   275. E= -.32881014E+03 F= -.32898088E+03 E0= -.32901118E+03  EK= 0.25284E+01 SP= -.24E+01 SK= 0.18E-01
       N       E                     dE             d eps       ncg     rms          rms(c)
DAV:   1    -0.328952460024E+03    0.28418E-01   -0.79965E-03  2880   0.931E-01    0.418E-02
RMM:   2    -0.328952769408E+03   -0.30938E-03   -0.31685E-03  1687   0.759E-02    0.170E-02
RMM:   3    -0.328952796199E+03   -0.26791E-04   -0.28264E-04  1925   0.210E-02    0.162E-02
RMM:   4    -0.328952797372E+03   -0.11723E-05   -0.21313E-05  1080   0.660E-03    0.107E-02
RMM:   5    -0.328952797766E+03   -0.39415E-06   -0.64360E-06  1003   0.401E-03
  367 T=   278. E= -.32881028E+03 F= -.32895280E+03 E0= -.32898286E+03  EK= 0.25481E+01 SP= -.24E+01 SK= 0.22E-01
       N       E                     dE             d eps       ncg     rms          rms(c)
DAV:   1    -0.328907492487E+03    0.45305E-01   -0.77926E-03  2816   0.930E-01    0.424E-02
RMM:   2    -0.328907812534E+03   -0.32005E-03   -0.32794E-03  1688   0.748E-02    0.164E-02
RMM:   3    -0.328907840936E+03   -0.28402E-04   -0.30062E-04  1930   0.213E-02    0.159E-02
RMM:   4    -0.328907842166E+03   -0.12303E-05   -0.22651E-05  1093   0.666E-03    0.108E-02
RMM:   5    -0.328907842485E+03   -0.31867E-06   -0.65955E-06  1003   0.410E-03
  368 T=   279. E= -.32881004E+03 F= -.32890784E+03 E0= -.32893766E+03  EK= 0.25562E+01 SP= -.25E+01 SK= 0.26E-01
       N       E                     dE             d eps       ncg     rms          rms(c)
DAV:   1    -0.328848252911E+03    0.59589E-01   -0.87388E-03  2880   0.924E-01    0.444E-02
RMM:   2    -0.328848586908E+03   -0.33400E-03   -0.34166E-03  1689   0.775E-02    0.157E-02
RMM:   3    -0.328848616794E+03   -0.29886E-04   -0.31448E-04  1924   0.216E-02    0.156E-02
RMM:   4    -0.328848618243E+03   -0.14488E-05   -0.23383E-05  1095   0.676E-03    0.105E-02
RMM:   5    -0.328848618585E+03   -0.34252E-06   -0.61593E-06  1003   0.397E-03
  369 T=   278. E= -.32881012E+03 F= -.32884862E+03 E0= -.32887818E+03  EK= 0.25543E+01 SP= -.25E+01 SK= 0.30E-01
       N       E                     dE             d eps       ncg     rms          rms(c)
DAV:   1    -0.328776317161E+03    0.72301E-01   -0.93066E-03  2848   0.915E-01    0.445E-02
RMM:   2    -0.328776661952E+03   -0.34479E-03   -0.35222E-03  1677   0.788E-02    0.160E-02
RMM:   3    -0.328776691397E+03   -0.29445E-04   -0.30966E-04  1918   0.220E-02    0.161E-02
RMM:   4    -0.328776693019E+03   -0.16219E-05   -0.24734E-05  1105   0.696E-03    0.112E-02
RMM:   5    -0.328776693401E+03   -0.38284E-06   -0.66127E-06  1004   0.410E-03
  370 T=   277. E= -.32880966E+03 F= -.32877669E+03 E0= -.32880599E+03  EK= 0.25447E+01 SP= -.26E+01 SK= 0.35E-01
       N       E                     dE             d eps       ncg     rms          rms(c)
DAV:   1    -0.328695306344E+03    0.81387E-01   -0.84751E-03  2832   0.902E-01    0.447E-02
RMM:   2    -0.328695637640E+03   -0.33130E-03   -0.33921E-03  1689   0.766E-02    0.164E-02
RMM:   3    -0.328695666446E+03   -0.28807E-04   -0.30586E-04  1931   0.215E-02    0.164E-02
RMM:   4    -0.328695667896E+03   -0.14494E-05   -0.23690E-05  1092   0.680E-03    0.116E-02
RMM:   5    -0.328695668192E+03   -0.29655E-06   -0.63326E-06  1004   0.405E-03
  371 T=   276. E= -.32880936E+03 F= -.32869567E+03 E0= -.32872470E+03  EK= 0.25303E+01 SP= -.27E+01 SK= 0.41E-01
       N       E                     dE             d eps       ncg     rms          rms(c)
DAV:   1    -0.328609072117E+03    0.86596E-01   -0.79272E-03  2864   0.887E-01    0.457E-02
RMM:   2    -0.328609407958E+03   -0.33584E-03   -0.34427E-03  1711   0.768E-02    0.167E-02
RMM:   3    -0.328609437366E+03   -0.29409E-04   -0.31495E-04  1931   0.216E-02    0.162E-02
RMM:   4    -0.328609438643E+03   -0.12768E-05   -0.23299E-05  1100   0.680E-03    0.108E-02
RMM:   5    -0.328609438971E+03   -0.32803E-06   -0.61851E-06  1003   0.403E-03
  372 T=   274. E= -.32880903E+03 F= -.32860944E+03 E0= -.32863820E+03  EK= 0.25153E+01 SP= -.28E+01 SK= 0.48E-01
       N       E                     dE             d eps       ncg     rms          rms(c)
DAV:   1    -0.328522676314E+03    0.86762E-01   -0.77646E-03  2896   0.870E-01    0.440E-02
RMM:   2    -0.328522993108E+03   -0.31679E-03   -0.32535E-03  1674   0.766E-02    0.182E-02
RMM:   3    -0.328523020139E+03   -0.27031E-04   -0.28937E-04  1899   0.213E-02    0.179E-02
RMM:   4    -0.328523021253E+03   -0.11134E-05   -0.23733E-05  1087   0.696E-03    0.122E-02
RMM:   5    -0.328523021482E+03   -0.22947E-06   -0.71298E-06   998   0.421E-03
  373 T=   273. E= -.32880904E+03 F= -.32852302E+03 E0= -.32855148E+03  EK= 0.25049E+01 SP= -.28E+01 SK= 0.55E-01
       N       E                     dE             d eps       ncg     rms          rms(c)
DAV:   1    -0.328440147352E+03    0.82874E-01   -0.79446E-03  2816   0.854E-01    0.464E-02
RMM:   2    -0.328440454304E+03   -0.30695E-03   -0.31539E-03  1680   0.758E-02    0.177E-02
RMM:   3    -0.328440479782E+03   -0.25478E-04   -0.27540E-04  1891   0.207E-02    0.172E-02
RMM:   4    -0.328440480921E+03   -0.11388E-05   -0.22515E-05  1091   0.678E-03    0.115E-02
RMM:   5    -0.328440481222E+03   -0.30128E-06   -0.63950E-06  1001   0.406E-03
  374 T=   273. E= -.32880886E+03 F= -.32844048E+03 E0= -.32846862E+03  EK= 0.25039E+01 SP= -.29E+01 SK= 0.63E-01
       N       E                     dE             d eps       ncg     rms          rms(c)
DAV:   1    -0.328366715809E+03    0.73765E-01   -0.77929E-03  2816   0.841E-01    0.463E-02
RMM:   2    -0.328367034695E+03   -0.31889E-03   -0.32728E-03  1686   0.779E-02    0.196E-02
RMM:   3    -0.328367062028E+03   -0.27333E-04   -0.29584E-04  1917   0.213E-02    0.189E-02
RMM:   4    -0.328367062888E+03   -0.85921E-06   -0.22347E-05  1089   0.684E-03    0.124E-02
RMM:   5    -0.328367063161E+03   -0.27394E-06   -0.68715E-06  1003   0.418E-03
  375 T=   274. E= -.32880871E+03 F= -.32836706E+03 E0= -.32839485E+03  EK= 0.25178E+01 SP= -.30E+01 SK= 0.71E-01
       N       E                     dE             d eps       ncg     rms          rms(c)
DAV:   1    -0.328307426820E+03    0.59636E-01   -0.76344E-03  2848   0.832E-01    0.470E-02
RMM:   2    -0.328307770147E+03   -0.34333E-03   -0.35216E-03  1689   0.793E-02    0.192E-02
RMM:   3    -0.328307801021E+03   -0.30874E-04   -0.33073E-04  1936   0.221E-02    0.185E-02
RMM:   4    -0.328307802128E+03   -0.11069E-05   -0.24291E-05  1106   0.691E-03    0.122E-02
RMM:   5    -0.328307802381E+03   -0.25364E-06   -0.67164E-06  1001   0.416E-03
  376 T=   278. E= -.32880870E+03 F= -.32830780E+03 E0= -.32833521E+03  EK= 0.25519E+01 SP= -.31E+01 SK= 0.79E-01
       N       E                     dE             d eps       ncg     rms          rms(c)
DAV:   1    -0.328266788653E+03    0.41013E-01   -0.84151E-03  2816   0.830E-01    0.459E-02
RMM:   2    -0.328267126254E+03   -0.33760E-03   -0.34574E-03  1671   0.804E-02    0.196E-02
RMM:   3    -0.328267153549E+03   -0.27294E-04   -0.29328E-04  1911   0.218E-02    0.187E-02
RMM:   4    -0.328267154762E+03   -0.12135E-05   -0.24580E-05  1103   0.701E-03    0.122E-02
RMM:   5    -0.328267155119E+03   -0.35626E-06   -0.71322E-06   999   0.422E-03
  377 T=   284. E= -.32880873E+03 F= -.32826716E+03 E0= -.32829414E+03  EK= 0.26110E+01 SP= -.32E+01 SK= 0.86E-01
       N       E                     dE             d eps       ncg     rms          rms(c)
DAV:   1    -0.328247435933E+03    0.19719E-01   -0.78758E-03  2816   0.835E-01    0.454E-02
RMM:   2    -0.328247748225E+03   -0.31229E-03   -0.32038E-03  1673   0.785E-02    0.178E-02
RMM:   3    -0.328247773630E+03   -0.25405E-04   -0.27267E-04  1911   0.213E-02    0.173E-02
RMM:   4    -0.328247774818E+03   -0.11882E-05   -0.22615E-05  1088   0.681E-03    0.117E-02
RMM:   5    -0.328247775154E+03   -0.33636E-06   -0.67663E-06   999   0.408E-03
  378 T=   294. E= -.32880909E+03 F= -.32824778E+03 E0= -.32827431E+03  EK= 0.26972E+01 SP= -.33E+01 SK= 0.90E-01
       N       E                     dE             d eps       ncg     rms          rms(c)
DAV:   1    -0.328249561593E+03   -0.17868E-02   -0.63870E-03  2800   0.849E-01    0.417E-02
RMM:   2    -0.328249854873E+03   -0.29328E-03   -0.30092E-03  1678   0.737E-02    0.171E-02
RMM:   3    -0.328249880465E+03   -0.25592E-04   -0.27395E-04  1922   0.207E-02    0.164E-02
RMM:   4    -0.328249881580E+03   -0.11151E-05   -0.21974E-05  1089   0.661E-03    0.109E-02
RMM:   5    -0.328249881961E+03   -0.38021E-06   -0.64685E-06   999   0.402E-03
  379 T=   306. E= -.32880983E+03 F= -.32824988E+03 E0= -.32827595E+03  EK= 0.28098E+01 SP= -.35E+01 SK= 0.90E-01
       N       E                     dE             d eps       ncg     rms          rms(c)
DAV:   1    -0.328271886294E+03   -0.22005E-01   -0.71478E-03  2848   0.870E-01    0.420E-02
RMM:   2    -0.328272217019E+03   -0.33072E-03   -0.33870E-03  1693   0.766E-02    0.162E-02
RMM:   3    -0.328272245375E+03   -0.28356E-04   -0.30431E-04  1931   0.214E-02    0.156E-02
RMM:   4    -0.328272246810E+03   -0.14355E-05   -0.24920E-05  1114   0.679E-03    0.107E-02
RMM:   5    -0.328272247139E+03   -0.32869E-06   -0.61791E-06   999   0.396E-03
  380 T=   321. E= -.32881108E+03 F= -.32827225E+03 E0= -.32829784E+03  EK= 0.29457E+01 SP= -.36E+01 SK= 0.85E-01
       N       E                     dE             d eps       ncg     rms          rms(c)
DAV:   1    -0.328310126746E+03   -0.37880E-01   -0.75952E-03  2848   0.898E-01    0.429E-02
RMM:   2    -0.328310440767E+03   -0.31402E-03   -0.32165E-03  1677   0.767E-02    0.164E-02
RMM:   3    -0.328310466414E+03   -0.25648E-04   -0.27418E-04  1907   0.210E-02    0.161E-02
RMM:   4    -0.328310467802E+03   -0.13881E-05   -0.23019E-05  1092   0.676E-03    0.112E-02
RMM:   5    -0.328310468206E+03   -0.40387E-06   -0.66484E-06   999   0.406E-03
  381 T=   338. E= -.32881230E+03 F= -.32831047E+03 E0= -.32833556E+03  EK= 0.30979E+01 SP= -.37E+01 SK= 0.75E-01
       N       E                     dE             d eps       ncg     rms          rms(c)
DAV:   1    -0.328358493345E+03   -0.48026E-01   -0.70224E-03  2912   0.928E-01    0.459E-02
RMM:   2    -0.328358814621E+03   -0.32128E-03   -0.33011E-03  1674   0.778E-02    0.168E-02
RMM:   3    -0.328358842079E+03   -0.27458E-04   -0.29330E-04  1911   0.215E-02    0.161E-02
RMM:   4    -0.328358843500E+03   -0.14214E-05   -0.25411E-05  1109   0.696E-03    0.106E-02
RMM:   5    -0.328358843948E+03   -0.44722E-06   -0.65670E-06  1003   0.406E-03
  382 T=   355. E= -.32881333E+03 F= -.32835884E+03 E0= -.32838345E+03  EK= 0.32566E+01 SP= -.38E+01 SK= 0.60E-01
       N       E                     dE             d eps       ncg     rms          rms(c)
DAV:   1    -0.328411564902E+03   -0.52721E-01   -0.60586E-03  2848   0.958E-01    0.453E-02
RMM:   2    -0.328411863996E+03   -0.29909E-03   -0.30826E-03  1681   0.752E-02    0.188E-02
RMM:   3    -0.328411889037E+03   -0.25040E-04   -0.27459E-04  1893   0.206E-02    0.177E-02
RMM:   4    -0.328411889902E+03   -0.86561E-06   -0.22030E-05  1084   0.670E-03    0.121E-02
RMM:   5    -0.328411890190E+03   -0.28755E-06   -0.71838E-06  1005   0.420E-03
  383 T=   372. E= -.32881501E+03 F= -.32841189E+03 E0= -.32843600E+03  EK= 0.34097E+01 SP= -.39E+01 SK= 0.43E-01
       N       E                     dE             d eps       ncg     rms          rms(c)
DAV:   1    -0.328461450486E+03   -0.49561E-01   -0.59573E-03  2832   0.985E-01    0.478E-02
RMM:   2    -0.328461787174E+03   -0.33669E-03   -0.34739E-03  1675   0.784E-02    0.207E-02
RMM:   3    -0.328461817226E+03   -0.30052E-04   -0.32468E-04  1934   0.218E-02    0.196E-02
RMM:   4    -0.328461818031E+03   -0.80547E-06   -0.23572E-05  1081   0.676E-03    0.132E-02
RMM:   5    -0.328461818369E+03   -0.33715E-06   -0.77675E-06  1005   0.432E-03
  384 T=   386. E= -.32881627E+03 F= -.32846182E+03 E0= -.32848544E+03  EK= 0.35441E+01 SP= -.39E+01 SK= 0.25E-01
       N       E                     dE             d eps       ncg     rms          rms(c)
DAV:   1    -0.328501805969E+03   -0.39988E-01   -0.59935E-03  2912   0.101E+00    0.497E-02
RMM:   2    -0.328502131170E+03   -0.32520E-03   -0.33664E-03  1670   0.789E-02    0.209E-02
RMM:   3    -0.328502157773E+03   -0.26602E-04   -0.29391E-04  1885   0.215E-02    0.196E-02
RMM:   4    -0.328502158535E+03   -0.76195E-06   -0.25406E-05  1097   0.708E-03    0.130E-02
RMM:   5    -0.328502158830E+03   -0.29565E-06   -0.77588E-06  1005   0.436E-03
  385 T=   397. E= -.32881714E+03 F= -.32850216E+03 E0= -.32852530E+03  EK= 0.36468E+01 SP= -.40E+01 SK= 0.10E-01
       N       E                     dE             d eps       ncg     rms          rms(c)
DAV:   1    -0.328528224344E+03   -0.26066E-01   -0.54272E-03  2864   0.102E+00    0.503E-02
RMM:   2    -0.328528537433E+03   -0.31309E-03   -0.32465E-03  1674   0.784E-02    0.213E-02
RMM:   3    -0.328528564554E+03   -0.27121E-04   -0.29844E-04  1922   0.216E-02    0.202E-02
RMM:   4    -0.328528565257E+03   -0.70221E-06   -0.25065E-05  1106   0.693E-03    0.137E-02
RMM:   5    -0.328528565452E+03   -0.19572E-06   -0.76590E-06  1005   0.428E-03
  386 T=   404. E= -.32881783E+03 F= -.32852857E+03 E0= -.32855125E+03  EK= 0.37078E+01 SP= -.40E+01 SK= 0.16E-02
       N       E                     dE             d eps       ncg     rms          rms(c)
DAV:   1    -0.328538862410E+03   -0.10297E-01   -0.58184E-03  2928   0.102E+00    0.519E-02
RMM:   2    -0.328539217708E+03   -0.35530E-03   -0.36750E-03  1675   0.822E-02    0.205E-02
RMM:   3    -0.328539248188E+03   -0.30481E-04   -0.32960E-04  1948   0.228E-02    0.200E-02
RMM:   4    -0.328539249376E+03   -0.11880E-05   -0.27255E-05  1110   0.702E-03    0.139E-02
RMM:   5    -0.328539249563E+03   -0.18624E-06   -0.75527E-06  1004   0.426E-03
  387 T=   406. E= -.32881815E+03 F= -.32853925E+03 E0= -.32856151E+03  EK= 0.37222E+01 SP= -.40E+01 SK= 0.59E-03
       N       E                     dE             d eps       ncg     rms          rms(c)
DAV:   1    -0.328534156582E+03    0.50928E-02   -0.76323E-03  2928   0.102E+00    0.540E-02
RMM:   2    -0.328534532836E+03   -0.37625E-03   -0.38800E-03  1669   0.872E-02    0.207E-02
RMM:   3    -0.328534562947E+03   -0.30111E-04   -0.32254E-04  1936   0.234E-02    0.204E-02
RMM:   4    -0.328534564385E+03   -0.14382E-05   -0.27312E-05  1112   0.725E-03    0.141E-02
RMM:   5    -0.328534564700E+03   -0.31459E-06   -0.72915E-06  1003   0.426E-03
  388 T=   402. E= -.32881781E+03 F= -.32853456E+03 E0= -.32855644E+03  EK= 0.36897E+01 SP= -.40E+01 SK= 0.78E-02
       N       E                     dE             d eps       ncg     rms          rms(c)
DAV:   1    -0.328516751746E+03    0.17813E-01   -0.64896E-03  2864   0.100E+00    0.537E-02
RMM:   2    -0.328517109369E+03   -0.35762E-03   -0.36931E-03  1676   0.836E-02    0.201E-02
RMM:   3    -0.328517139934E+03   -0.30565E-04   -0.32922E-04  1939   0.230E-02    0.201E-02
RMM:   4    -0.328517141265E+03   -0.13312E-05   -0.26142E-05  1106   0.715E-03    0.148E-02
RMM:   5    -0.328517141437E+03   -0.17187E-06   -0.75800E-06  1006   0.435E-03
  389 T=   394. E= -.32881700E+03 F= -.32851714E+03 E0= -.32853869E+03  EK= 0.36149E+01 SP= -.39E+01 SK= 0.22E-01
       N       E                     dE             d eps       ncg     rms          rms(c)
DAV:   1    -0.328491832568E+03    0.25309E-01   -0.65390E-03  2880   0.986E-01    0.528E-02
RMM:   2    -0.328492182144E+03   -0.34958E-03   -0.36072E-03  1675   0.831E-02    0.189E-02
RMM:   3    -0.328492213544E+03   -0.31400E-04   -0.33365E-04  1957   0.230E-02    0.193E-02
RMM:   4    -0.328492214977E+03   -0.14329E-05   -0.25533E-05  1108   0.691E-03    0.140E-02
RMM:   5    -0.328492215141E+03   -0.16389E-06   -0.68691E-06  1006   0.413E-03
  390 T=   382. E= -.32881609E+03 F= -.32849222E+03 E0= -.32851350E+03  EK= 0.35067E+01 SP= -.39E+01 SK= 0.41E-01
       N       E                     dE             d eps       ncg     rms          rms(c)
DAV:   1    -0.328464384004E+03    0.27831E-01   -0.60542E-03  2912   0.962E-01    0.526E-02
RMM:   2    -0.328464729133E+03   -0.34513E-03   -0.35630E-03  1677   0.816E-02    0.191E-02
RMM:   3    -0.328464759156E+03   -0.30023E-04   -0.32228E-04  1917   0.226E-02    0.190E-02
RMM:   4    -0.328464760354E+03   -0.11981E-05   -0.25678E-05  1107   0.707E-03    0.133E-02
RMM:   5    -0.328464760514E+03   -0.16082E-06   -0.69959E-06  1003   0.421E-03
  391 T=   368. E= -.32881520E+03 F= -.32846476E+03 E0= -.32848584E+03  EK= 0.33756E+01 SP= -.38E+01 SK= 0.62E-01
       N       E                     dE             d eps       ncg     rms          rms(c)
DAV:   1    -0.328438515057E+03    0.26245E-01   -0.67428E-03  2848   0.938E-01    0.521E-02
RMM:   2    -0.328438857811E+03   -0.34275E-03   -0.35216E-03  1675   0.818E-02    0.184E-02
RMM:   3    -0.328438887170E+03   -0.29359E-04   -0.31104E-04  1923   0.224E-02    0.185E-02
RMM:   4    -0.328438888512E+03   -0.13417E-05   -0.24188E-05  1099   0.702E-03    0.124E-02
RMM:   5    -0.328438888866E+03   -0.35416E-06   -0.67817E-06  1006   0.417E-03
  392 T=   352. E= -.32881408E+03 F= -.32843889E+03 E0= -.32845984E+03  EK= 0.32320E+01 SP= -.37E+01 SK= 0.81E-01
       N       E                     dE             d eps       ncg     rms          rms(c)
DAV:   1    -0.328418823287E+03    0.20065E-01   -0.56353E-03  2816   0.913E-01    0.482E-02
RMM:   2    -0.328419128914E+03   -0.30563E-03   -0.31501E-03  1674   0.773E-02    0.177E-02
RMM:   3    -0.328419154995E+03   -0.26080E-04   -0.27824E-04  1912   0.213E-02    0.174E-02
RMM:   4    -0.328419156132E+03   -0.11368E-05   -0.22417E-05  1091   0.680E-03    0.118E-02
RMM:   5    -0.328419156418E+03   -0.28661E-06   -0.65443E-06  1004   0.412E-03
  393 T=   336. E= -.32881326E+03 F= -.32841916E+03 E0= -.32844002E+03  EK= 0.30859E+01 SP= -.36E+01 SK= 0.98E-01
       N       E                     dE             d eps       ncg     rms          rms(c)
DAV:   1    -0.328408064689E+03    0.11091E-01   -0.56948E-03  2816   0.891E-01    0.465E-02
RMM:   2    -0.328408379396E+03   -0.31471E-03   -0.32338E-03  1673   0.773E-02    0.181E-02
RMM:   3    -0.328408406975E+03   -0.27580E-04   -0.29121E-04  1927   0.215E-02    0.178E-02
RMM:   4    -0.328408408273E+03   -0.12973E-05   -0.22128E-05  1086   0.672E-03    0.126E-02
RMM:   5    -0.328408408615E+03   -0.34280E-06   -0.66826E-06  1004   0.413E-03
  394 T=   321. E= -.32881210E+03 F= -.32840841E+03 E0= -.32842923E+03  EK= 0.29460E+01 SP= -.35E+01 SK= 0.11E+00
       N       E                     dE             d eps       ncg     rms          rms(c)
DAV:   1    -0.328410183146E+03   -0.17749E-02   -0.58444E-03  2816   0.872E-01    0.463E-02
RMM:   2    -0.328410500321E+03   -0.31717E-03   -0.32588E-03  1669   0.767E-02    0.176E-02
RMM:   3    -0.328410528509E+03   -0.28188E-04   -0.29774E-04  1929   0.214E-02    0.171E-02
RMM:   4    -0.328410529698E+03   -0.11896E-05   -0.22291E-05  1091   0.675E-03    0.113E-02
RMM:   5    -0.328410530047E+03   -0.34899E-06   -0.65022E-06  1005   0.410E-03
  395 T=   307. E= -.32881165E+03 F= -.32841053E+03 E0= -.32843134E+03  EK= 0.28189E+01 SP= -.33E+01 SK= 0.11E+00
       N       E                     dE             d eps       ncg     rms          rms(c)
DAV:   1    -0.328425484714E+03   -0.14955E-01   -0.66305E-03  2816   0.858E-01    0.461E-02
RMM:   2    -0.328425809860E+03   -0.32515E-03   -0.33306E-03  1669   0.782E-02    0.182E-02
RMM:   3    -0.328425836689E+03   -0.26829E-04   -0.28424E-04  1887   0.215E-02    0.175E-02
RMM:   4    -0.328425838008E+03   -0.13187E-05   -0.23774E-05  1096   0.704E-03    0.114E-02
RMM:   5    -0.328425838492E+03   -0.48372E-06   -0.71999E-06  1005   0.423E-03
  396 T=   295. E= -.32881093E+03 F= -.32842584E+03 E0= -.32844664E+03  EK= 0.27089E+01 SP= -.32E+01 SK= 0.11E+00
       N       E                     dE             d eps       ncg     rms          rms(c)
DAV:   1    -0.328454834187E+03   -0.28996E-01   -0.58028E-03  2864   0.848E-01    0.439E-02
RMM:   2    -0.328455118784E+03   -0.28460E-03   -0.29242E-03  1680   0.742E-02    0.177E-02
RMM:   3    -0.328455143043E+03   -0.24259E-04   -0.26060E-04  1901   0.205E-02    0.170E-02
RMM:   4    -0.328455144197E+03   -0.11538E-05   -0.22026E-05  1086   0.664E-03    0.115E-02
RMM:   5    -0.328455144512E+03   -0.31588E-06   -0.63344E-06  1004   0.403E-03
  397 T=   285. E= -.32881055E+03 F= -.32845514E+03 E0= -.32847594E+03  EK= 0.26183E+01 SP= -.31E+01 SK= 0.11E+00
       N       E                     dE             d eps       ncg     rms          rms(c)
DAV:   1    -0.328497076972E+03   -0.41933E-01   -0.54846E-03  2848   0.843E-01    0.442E-02
RMM:   2    -0.328497349887E+03   -0.27292E-03   -0.28062E-03  1679   0.723E-02    0.178E-02
RMM:   3    -0.328497373369E+03   -0.23482E-04   -0.25188E-04  1901   0.200E-02    0.168E-02
RMM:   4    -0.328497374346E+03   -0.97661E-06   -0.20185E-05  1065   0.653E-03    0.113E-02
RMM:   5    -0.328497374699E+03   -0.35360E-06   -0.64362E-06  1004   0.404E-03
  398 T=   278. E= -.32881023E+03 F= -.32849737E+03 E0= -.32851815E+03  EK= 0.25472E+01 SP= -.30E+01 SK= 0.10E+00
       N       E                     dE             d eps       ncg     rms          rms(c)
DAV:   1    -0.328551110579E+03   -0.53736E-01   -0.51237E-03  2848   0.840E-01    0.431E-02
RMM:   2    -0.328551370778E+03   -0.26020E-03   -0.26812E-03  1670   0.704E-02    0.178E-02
RMM:   3    -0.328551391997E+03   -0.21218E-04   -0.22981E-04  1858   0.195E-02    0.169E-02
RMM:   4    -0.328551392878E+03   -0.88137E-06   -0.19657E-05  1058   0.654E-03    0.117E-02
RMM:   5    -0.328551393154E+03   -0.27603E-06   -0.68325E-06   999   0.410E-03
  399 T=   272. E= -.32881025E+03 F= -.32855139E+03 E0= -.32857215E+03  EK= 0.24950E+01 SP= -.28E+01 SK= 0.94E-01
       N       E                     dE             d eps       ncg     rms          rms(c)
DAV:   1    -0.328614832756E+03   -0.63440E-01   -0.56992E-03  2816   0.842E-01    0.431E-02
RMM:   2    -0.328615118437E+03   -0.28568E-03   -0.29342E-03  1668   0.727E-02    0.177E-02
RMM:   3    -0.328615141793E+03   -0.23356E-04   -0.25024E-04  1862   0.202E-02    0.170E-02
RMM:   4    -0.328615142998E+03   -0.12051E-05   -0.22078E-05  1083   0.672E-03    0.119E-02
RMM:   5    -0.328615143292E+03   -0.29366E-06   -0.68244E-06  1003   0.413E-03
  400 T=   268. E= -.32881004E+03 F= -.32861514E+03 E0= -.32863587E+03  EK= 0.24602E+01 SP= -.27E+01 SK= 0.83E-01
       N       E                     dE             d eps       ncg     rms          rms(c)
DAV:   1    -0.328686995299E+03   -0.71852E-01   -0.54204E-03  2864   0.848E-01    0.432E-02
RMM:   2    -0.328687307548E+03   -0.31225E-03   -0.32027E-03  1680   0.733E-02    0.167E-02
RMM:   3    -0.328687335323E+03   -0.27776E-04   -0.29323E-04  1901   0.209E-02    0.160E-02
RMM:   4    -0.328687336453E+03   -0.11292E-05   -0.21769E-05  1079   0.670E-03    0.112E-02
RMM:   5    -0.328687336730E+03   -0.27736E-06   -0.67392E-06  1005   0.414E-03
  401 T=   266. E= -.32881013E+03 F= -.32868734E+03 E0= -.32870802E+03  EK= 0.24411E+01 SP= -.26E+01 SK= 0.71E-01
       N       E                     dE             d eps       ncg     rms          rms(c)
DAV:   1    -0.328765060058E+03   -0.77724E-01   -0.56567E-03  2800   0.855E-01    0.420E-02
RMM:   2    -0.328765336664E+03   -0.27661E-03   -0.28402E-03  1687   0.710E-02    0.164E-02
RMM:   3    -0.328765360305E+03   -0.23641E-04   -0.25333E-04  1874   0.199E-02    0.157E-02
RMM:   4    -0.328765361389E+03   -0.10845E-05   -0.19761E-05  1063   0.653E-03    0.110E-02
RMM:   5    -0.328765361715E+03   -0.32574E-06   -0.67446E-06  1005   0.407E-03
  402 T=   265. E= -.32881033E+03 F= -.32876536E+03 E0= -.32878600E+03  EK= 0.24351E+01 SP= -.25E+01 SK= 0.61E-01
       N       E                     dE             d eps       ncg     rms          rms(c)
DAV:   1    -0.328845619593E+03   -0.80258E-01   -0.46999E-03  2864   0.864E-01    0.413E-02
RMM:   2    -0.328845860275E+03   -0.24068E-03   -0.24826E-03  1672   0.679E-02    0.157E-02
RMM:   3    -0.328845881522E+03   -0.21247E-04   -0.22671E-04  1846   0.190E-02    0.153E-02
RMM:   4    -0.328845882486E+03   -0.96346E-06   -0.18814E-05  1055   0.642E-03    0.109E-02
RMM:   5    -0.328845882749E+03   -0.26285E-06   -0.63477E-06  1001   0.399E-03
  403 T=   266. E= -.32881058E+03 F= -.32884588E+03 E0= -.32886648E+03  EK= 0.24385E+01 SP= -.25E+01 SK= 0.51E-01
       N       E                     dE             d eps       ncg     rms          rms(c)
DAV:   1    -0.328925043857E+03   -0.79161E-01   -0.41843E-03  2832   0.873E-01    0.394E-02
RMM:   2    -0.328925290175E+03   -0.24632E-03   -0.25329E-03  1687   0.664E-02    0.156E-02
RMM:   3    -0.328925312038E+03   -0.21862E-04   -0.23034E-04  1855   0.189E-02    0.150E-02
RMM:   4    -0.328925313248E+03   -0.12100E-05   -0.19191E-05  1061   0.634E-03    0.107E-02
RMM:   5    -0.328925313598E+03   -0.35027E-06   -0.62211E-06  1004   0.399E-03
  404 T=   267. E= -.32881043E+03 F= -.32892531E+03 E0= -.32894586E+03  EK= 0.24479E+01 SP= -.24E+01 SK= 0.42E-01
       N       E                     dE             d eps       ncg     rms          rms(c)
DAV:   1    -0.329001047892E+03   -0.75735E-01   -0.46173E-03  2864   0.881E-01    0.405E-02
RMM:   2    -0.329001308958E+03   -0.26107E-03   -0.26849E-03  1678   0.684E-02    0.150E-02
RMM:   3    -0.329001330865E+03   -0.21907E-04   -0.23149E-04  1864   0.192E-02    0.146E-02
RMM:   4    -0.329001332071E+03   -0.12056E-05   -0.19818E-05  1067   0.639E-03    0.102E-02
RMM:   5    -0.329001332367E+03   -0.29627E-06   -0.60510E-06  1001   0.391E-03
  405 T=   268. E= -.32881038E+03 F= -.32900133E+03 E0= -.32902182E+03  EK= 0.24602E+01 SP= -.23E+01 SK= 0.34E-01
       N       E                     dE             d eps       ncg     rms          rms(c)
DAV:   1    -0.329070488151E+03   -0.69156E-01   -0.52116E-03  2864   0.889E-01    0.405E-02
RMM:   2    -0.329070747261E+03   -0.25911E-03   -0.26626E-03  1671   0.695E-02    0.153E-02
RMM:   3    -0.329070768808E+03   -0.21547E-04   -0.22638E-04  1834   0.192E-02    0.148E-02
RMM:   4    -0.329070770127E+03   -0.13190E-05   -0.20671E-05  1077   0.657E-03    0.101E-02
RMM:   5    -0.329070770523E+03   -0.39654E-06   -0.63088E-06  1002   0.396E-03
  406 T=   269. E= -.32881063E+03 F= -.32907077E+03 E0= -.32909120E+03  EK= 0.24718E+01 SP= -.22E+01 SK= 0.27E-01
       N       E                     dE             d eps       ncg     rms          rms(c)
DAV:   1    -0.329130764076E+03   -0.59994E-01   -0.56052E-03  2848   0.895E-01    0.428E-02
RMM:   2    -0.329131035348E+03   -0.27127E-03   -0.27905E-03  1675   0.716E-02    0.154E-02
RMM:   3    -0.329131058743E+03   -0.23396E-04   -0.24687E-04  1867   0.198E-02    0.148E-02
RMM:   4    -0.329131059905E+03   -0.11614E-05   -0.20901E-05  1079   0.659E-03    0.959E-03
RMM:   5    -0.329131060293E+03   -0.38869E-06   -0.62832E-06  1004   0.399E-03
  407 T=   270. E= -.32881073E+03 F= -.32913106E+03 E0= -.32915142E+03  EK= 0.24803E+01 SP= -.22E+01 SK= 0.21E-01
       N       E                     dE             d eps       ncg     rms          rms(c)
DAV:   1    -0.329180583540E+03   -0.49524E-01   -0.51972E-03  2880   0.899E-01    0.390E-02
RMM:   2    -0.329180868088E+03   -0.28455E-03   -0.29197E-03  1686   0.711E-02    0.156E-02
RMM:   3    -0.329180894474E+03   -0.26385E-04   -0.27762E-04  1907   0.202E-02    0.150E-02
RMM:   4    -0.329180895667E+03   -0.11935E-05   -0.20772E-05  1077   0.646E-03    0.108E-02
RMM:   5    -0.329180895909E+03   -0.24175E-06   -0.62375E-06  1004   0.394E-03
  408 T=   271. E= -.32881079E+03 F= -.32918090E+03 E0= -.32920118E+03  EK= 0.24845E+01 SP= -.21E+01 SK= 0.16E-01
       N       E                     dE             d eps       ncg     rms          rms(c)
DAV:   1    -0.329217932498E+03   -0.37037E-01   -0.56560E-03  2816   0.899E-01    0.406E-02
RMM:   2    -0.329218210091E+03   -0.27759E-03   -0.28520E-03  1674   0.706E-02    0.150E-02
RMM:   3    -0.329218234433E+03   -0.24341E-04   -0.25494E-04  1878   0.199E-02    0.142E-02
RMM:   4    -0.329218235726E+03   -0.12933E-05   -0.19960E-05  1066   0.647E-03    0.943E-03
RMM:   5    -0.329218236179E+03   -0.45274E-06   -0.62218E-06  1005   0.396E-03
  409 T=   270. E= -.32881088E+03 F= -.32921824E+03 E0= -.32923844E+03  EK= 0.24820E+01 SP= -.21E+01 SK= 0.12E-01
       N       E                     dE             d eps       ncg     rms          rms(c)
DAV:   1    -0.329241127285E+03   -0.22892E-01   -0.51022E-03  2896   0.896E-01    0.386E-02
RMM:   2    -0.329241383640E+03   -0.25635E-03   -0.26394E-03  1689   0.683E-02    0.163E-02
RMM:   3    -0.329241405971E+03   -0.22331E-04   -0.24006E-04  1859   0.191E-02    0.153E-02
RMM:   4    -0.329241406856E+03   -0.88562E-06   -0.18843E-05  1057   0.638E-03    0.105E-02
RMM:   5    -0.329241407166E+03   -0.31019E-06   -0.64315E-06  1002   0.401E-03
  410 T=   269. E= -.32881060E+03 F= -.32924141E+03 E0= -.32926155E+03  EK= 0.24719E+01 SP= -.20E+01 SK= 0.84E-02
       N       E                     dE             d eps       ncg     rms          rms(c)
DAV:   1    -0.329250802206E+03   -0.93953E-02   -0.47841E-03  2880   0.889E-01    0.400E-02
RMM:   2    -0.329251045212E+03   -0.24301E-03   -0.25117E-03  1694   0.666E-02    0.154E-02
RMM:   3    -0.329251067341E+03   -0.22129E-04   -0.23595E-04  1881   0.188E-02    0.145E-02
RMM:   4    -0.329251068260E+03   -0.91821E-06   -0.17626E-05  1051   0.619E-03    0.984E-03
RMM:   5    -0.329251068563E+03   -0.30309E-06   -0.57831E-06  1000   0.384E-03
  411 T=   267. E= -.32881028E+03 F= -.32925107E+03 E0= -.32927117E+03  EK= 0.24547E+01 SP= -.20E+01 SK= 0.52E-02
       N       E                     dE             d eps       ncg     rms          rms(c)
DAV:   1    -0.329248253776E+03    0.28145E-02   -0.43865E-03  2848   0.879E-01    0.407E-02
RMM:   2    -0.329248493574E+03   -0.23980E-03   -0.24818E-03  1684   0.653E-02    0.155E-02
RMM:   3    -0.329248514300E+03   -0.20726E-04   -0.22382E-04  1832   0.185E-02    0.145E-02
RMM:   4    -0.329248514990E+03   -0.69004E-06   -0.18277E-05  1049   0.633E-03    0.915E-03
RMM:   5    -0.329248515308E+03   -0.31782E-06   -0.63181E-06  1002   0.398E-03
  412 T=   265. E= -.32880989E+03 F= -.32924852E+03 E0= -.32926862E+03  EK= 0.24321E+01 SP= -.20E+01 SK= 0.27E-02
       N       E                     dE             d eps       ncg     rms          rms(c)
DAV:   1    -0.329235348405E+03    0.13167E-01   -0.45028E-03  2912   0.866E-01    0.376E-02
RMM:   2    -0.329235554573E+03   -0.20617E-03   -0.21441E-03  1680   0.628E-02    0.166E-02
RMM:   3    -0.329235572504E+03   -0.17931E-04   -0.19504E-04  1799   0.176E-02    0.155E-02
RMM:   4    -0.329235573173E+03   -0.66909E-06   -0.17190E-05  1045   0.625E-03    0.101E-02
RMM:   5    -0.329235573492E+03   -0.31936E-06   -0.62544E-06  1000   0.395E-03
  413 T=   262. E= -.32880940E+03 F= -.32923557E+03 E0= -.32925574E+03  EK= 0.24064E+01 SP= -.20E+01 SK= 0.85E-03
       N       E                     dE             d eps       ncg     rms          rms(c)
DAV:   1    -0.329215025610E+03    0.20548E-01   -0.45613E-03  2848   0.852E-01    0.397E-02
RMM:   2    -0.329215232245E+03   -0.20664E-03   -0.21537E-03  1676   0.625E-02    0.159E-02
RMM:   3    -0.329215249046E+03   -0.16800E-04   -0.18368E-04  1799   0.173E-02    0.148E-02
RMM:   4    -0.329215249699E+03   -0.65363E-06   -0.17183E-05  1045   0.624E-03    0.896E-03
RMM:   5    -0.329215250062E+03   -0.36316E-06   -0.58491E-06  1000   0.386E-03
  414 T=   259. E= -.32880904E+03 F= -.32921525E+03 E0= -.32923552E+03  EK= 0.23808E+01 SP= -.20E+01 SK= 0.27E-04
       N       E                     dE             d eps       ncg     rms          rms(c)
DAV:   1    -0.329190413040E+03    0.24837E-01   -0.49401E-03  2816   0.839E-01    0.406E-02
RMM:   2    -0.329190640581E+03   -0.22754E-03   -0.23539E-03  1679   0.651E-02    0.164E-02
RMM:   3    -0.329190659590E+03   -0.19009E-04   -0.20799E-04  1847   0.182E-02    0.153E-02
RMM:   4    -0.329190660201E+03   -0.61125E-06   -0.17819E-05  1044   0.630E-03    0.943E-03
RMM:   5    -0.329190660544E+03   -0.34301E-06   -0.61585E-06  1002   0.394E-03
  415 T=   257. E= -.32880877E+03 F= -.32919066E+03 E0= -.32921109E+03  EK= 0.23588E+01 SP= -.20E+01 SK= 0.42E-03
       N       E                     dE             d eps       ncg     rms          rms(c)
DAV:   1    -0.329164704061E+03    0.25956E-01   -0.57232E-03  2848   0.827E-01    0.395E-02
RMM:   2    -0.329164947915E+03   -0.24385E-03   -0.25141E-03  1675   0.673E-02    0.164E-02
RMM:   3    -0.329164968629E+03   -0.20714E-04   -0.22125E-04  1825   0.186E-02    0.154E-02
RMM:   4    -0.329164969438E+03   -0.80951E-06   -0.17380E-05  1041   0.630E-03    0.961E-03
RMM:   5    -0.329164969845E+03   -0.40641E-06   -0.61531E-06   998   0.394E-03
  416 T=   255. E= -.32880870E+03 F= -.32916497E+03 E0= -.32918560E+03  EK= 0.23437E+01 SP= -.20E+01 SK= 0.22E-02
       N       E                     dE             d eps       ncg     rms          rms(c)
DAV:   1    -0.329140420478E+03    0.24549E-01   -0.52079E-03  2832   0.818E-01    0.417E-02
RMM:   2    -0.329140642520E+03   -0.22204E-03   -0.22977E-03  1675   0.647E-02    0.143E-02
RMM:   3    -0.329140660832E+03   -0.18312E-04   -0.19701E-04  1812   0.179E-02    0.138E-02
RMM:   4    -0.329140661746E+03   -0.91410E-06   -0.17349E-05  1046   0.624E-03    0.922E-03
RMM:   5    -0.329140662092E+03   -0.34568E-06   -0.58760E-06  1001   0.386E-03
  417 T=   255. E= -.32880858E+03 F= -.32914066E+03 E0= -.32916153E+03  EK= 0.23387E+01 SP= -.20E+01 SK= 0.56E-02
       N       E                     dE             d eps       ncg     rms          rms(c)
DAV:   1    -0.329119866572E+03    0.20795E-01   -0.49730E-03  2848   0.813E-01    0.389E-02
RMM:   2    -0.329120090326E+03   -0.22375E-03   -0.23051E-03  1675   0.642E-02    0.152E-02
RMM:   3    -0.329120109817E+03   -0.19491E-04   -0.20692E-04  1823   0.180E-02    0.146E-02
RMM:   4    -0.329120110917E+03   -0.11001E-05   -0.18288E-05  1053   0.625E-03    0.101E-02
RMM:   5    -0.329120111261E+03   -0.34331E-06   -0.58536E-06   998   0.387E-03
  418 T=   256. E= -.32880847E+03 F= -.32912011E+03 E0= -.32914124E+03  EK= 0.23462E+01 SP= -.20E+01 SK= 0.10E-01
       N       E                     dE             d eps       ncg     rms          rms(c)
DAV:   1    -0.329104939807E+03    0.15171E-01   -0.52372E-03  2816   0.813E-01    0.406E-02
RMM:   2    -0.329105159722E+03   -0.21992E-03   -0.22727E-03  1671   0.644E-02    0.143E-02
RMM:   3    -0.329105178159E+03   -0.18437E-04   -0.19621E-04  1788   0.178E-02    0.138E-02
RMM:   4    -0.329105179190E+03   -0.10310E-05   -0.17801E-05  1048   0.632E-03    0.946E-03
RMM:   5    -0.329105179539E+03   -0.34919E-06   -0.59151E-06   998   0.390E-03
  419 T=   258. E= -.32880871E+03 F= -.32910518E+03 E0= -.32912660E+03  EK= 0.23677E+01 SP= -.21E+01 SK= 0.17E-01
       N       E                     dE             d eps       ncg     rms          rms(c)
DAV:   1    -0.329095622799E+03    0.95564E-02   -0.53032E-03  2832   0.819E-01    0.396E-02
RMM:   2    -0.329095846976E+03   -0.22418E-03   -0.23112E-03  1682   0.649E-02    0.147E-02
RMM:   3    -0.329095865997E+03   -0.19021E-04   -0.20330E-04  1825   0.180E-02    0.142E-02
RMM:   4    -0.329095866920E+03   -0.92327E-06   -0.17584E-05  1047   0.620E-03    0.942E-03
RMM:   5    -0.329095867284E+03   -0.36427E-06   -0.57599E-06   997   0.382E-03
  420 T=   262. E= -.32880919E+03 F= -.32909587E+03 E0= -.32911758E+03  EK= 0.24033E+01 SP= -.21E+01 SK= 0.24E-01
       N       E                     dE             d eps       ncg     rms          rms(c)
DAV:   1    -0.329090307596E+03    0.55593E-02   -0.53575E-03  2880   0.829E-01    0.383E-02
RMM:   2    -0.329090553606E+03   -0.24601E-03   -0.25287E-03  1685   0.666E-02    0.149E-02
RMM:   3    -0.329090574858E+03   -0.21252E-04   -0.22507E-04  1844   0.187E-02    0.144E-02
RMM:   4    -0.329090575944E+03   -0.10860E-05   -0.18294E-05  1048   0.630E-03    0.103E-02
RMM:   5    -0.329090576304E+03   -0.35966E-06   -0.59898E-06   999   0.390E-03
  421 T=   267. E= -.32880966E+03 F= -.32909058E+03 E0= -.32911260E+03  EK= 0.24513E+01 SP= -.22E+01 SK= 0.31E-01
       N       E                     dE             d eps       ncg     rms          rms(c)
DAV:   1    -0.329087392687E+03    0.31833E-02   -0.64867E-03  2816   0.844E-01    0.412E-02
RMM:   2    -0.329087660237E+03   -0.26755E-03   -0.27485E-03  1682   0.698E-02    0.152E-02
RMM:   3    -0.329087682483E+03   -0.22247E-04   -0.23626E-04  1861   0.194E-02    0.149E-02
RMM:   4    -0.329087683697E+03   -0.12134E-05   -0.19142E-05  1056   0.636E-03    0.110E-02
RMM:   5    -0.329087684026E+03   -0.32970E-06   -0.60605E-06  1001   0.392E-03
  422 T=   273. E= -.32881040E+03 F= -.32908768E+03 E0= -.32911000E+03  EK= 0.25093E+01 SP= -.23E+01 SK= 0.38E-01
       N       E                     dE             d eps       ncg     rms          rms(c)
DAV:   1    -0.329084276832E+03    0.34069E-02   -0.69543E-03  2848   0.860E-01    0.416E-02
RMM:   2    -0.329084560810E+03   -0.28398E-03   -0.29165E-03  1670   0.719E-02    0.163E-02
RMM:   3    -0.329084583403E+03   -0.22593E-04   -0.24075E-04  1868   0.198E-02    0.159E-02
RMM:   4    -0.329084584484E+03   -0.10809E-05   -0.19591E-05  1058   0.648E-03    0.114E-02
RMM:   5    -0.329084584828E+03   -0.34387E-06   -0.64738E-06  1001   0.400E-03
  423 T=   281. E= -.32881068E+03 F= -.32908458E+03 E0= -.32910718E+03  EK= 0.25747E+01 SP= -.23E+01 SK= 0.43E-01
       N       E                     dE             d eps       ncg     rms          rms(c)
DAV:   1    -0.329079299121E+03    0.52854E-02   -0.60084E-03  2912   0.878E-01    0.424E-02
RMM:   2    -0.329079543273E+03   -0.24415E-03   -0.25238E-03  1670   0.685E-02    0.159E-02
RMM:   3    -0.329079563901E+03   -0.20628E-04   -0.22143E-04  1862   0.189E-02    0.154E-02
RMM:   4    -0.329079564637E+03   -0.73615E-06   -0.18305E-05  1047   0.636E-03    0.105E-02
RMM:   5    -0.329079564939E+03   -0.30146E-06   -0.60973E-06   998   0.390E-03
  424 T=   288. E= -.32881112E+03 F= -.32907956E+03 E0= -.32910241E+03  EK= 0.26440E+01 SP= -.24E+01 SK= 0.47E-01
       N       E                     dE             d eps       ncg     rms          rms(c)
DAV:   1    -0.329070200024E+03    0.93646E-02   -0.58044E-03  2848   0.894E-01    0.409E-02
RMM:   2    -0.329070446136E+03   -0.24611E-03   -0.25436E-03  1671   0.673E-02    0.169E-02
RMM:   3    -0.329070466206E+03   -0.20070E-04   -0.21856E-04  1864   0.188E-02    0.165E-02
RMM:   4    -0.329070466926E+03   -0.72087E-06   -0.17801E-05  1044   0.622E-03    0.123E-02
RMM:   5    -0.329070467042E+03   -0.11533E-06   -0.68990E-06   999   0.405E-03
  425 T=   296. E= -.32881152E+03 F= -.32907047E+03 E0= -.32909354E+03  EK= 0.27139E+01 SP= -.25E+01 SK= 0.50E-01
       N       E                     dE             d eps       ncg     rms          rms(c)
DAV:   1    -0.329055046150E+03    0.15421E-01   -0.60586E-03  2960   0.909E-01    0.422E-02
RMM:   2    -0.329055274729E+03   -0.22858E-03   -0.23765E-03  1668   0.668E-02    0.163E-02
RMM:   3    -0.329055293636E+03   -0.18907E-04   -0.20329E-04  1824   0.184E-02    0.158E-02
RMM:   4    -0.329055294455E+03   -0.81916E-06   -0.17991E-05  1044   0.641E-03    0.113E-02
RMM:   5    -0.329055294718E+03   -0.26280E-06   -0.66556E-06  1001   0.401E-03
  426 T=   303. E= -.32881177E+03 F= -.32905529E+03 E0= -.32907856E+03  EK= 0.27808E+01 SP= -.26E+01 SK= 0.50E-01
       N       E                     dE             d eps       ncg     rms          rms(c)
DAV:   1    -0.329032089776E+03    0.23205E-01   -0.60890E-03  2928   0.922E-01    0.428E-02
RMM:   2    -0.329032328069E+03   -0.23829E-03   -0.24719E-03  1671   0.668E-02    0.164E-02
RMM:   3    -0.329032347006E+03   -0.18937E-04   -0.20724E-04  1835   0.185E-02    0.158E-02
RMM:   4    -0.329032347530E+03   -0.52404E-06   -0.17515E-05  1041   0.636E-03    0.110E-02
RMM:   5    -0.329032347742E+03   -0.21216E-06   -0.65348E-06   998   0.400E-03
  427 T=   310. E= -.32881170E+03 F= -.32903235E+03 E0= -.32905577E+03  EK= 0.28414E+01 SP= -.27E+01 SK= 0.48E-01
       N       E                     dE             d eps       ncg     rms          rms(c)
DAV:   1    -0.329001049474E+03    0.31298E-01   -0.58464E-03  2880   0.934E-01    0.419E-02
RMM:   2    -0.329001284963E+03   -0.23549E-03   -0.24409E-03  1670   0.670E-02    0.171E-02
RMM:   3    -0.329001303961E+03   -0.18997E-04   -0.20580E-04  1854   0.186E-02    0.165E-02
RMM:   4    -0.329001304549E+03   -0.58878E-06   -0.16885E-05  1036   0.624E-03    0.117E-02
RMM:   5    -0.329001304728E+03   -0.17895E-06   -0.67144E-06   998   0.404E-03
  428 T=   315. E= -.32881180E+03 F= -.32900130E+03 E0= -.32902485E+03  EK= 0.28933E+01 SP= -.27E+01 SK= 0.45E-01
       N       E                     dE             d eps       ncg     rms          rms(c)
DAV:   1    -0.328962491539E+03    0.38813E-01   -0.57284E-03  2896   0.941E-01    0.444E-02
RMM:   2    -0.328962732160E+03   -0.24062E-03   -0.25018E-03  1672   0.675E-02    0.162E-02
RMM:   3    -0.328962751896E+03   -0.19736E-04   -0.21331E-04  1852   0.189E-02    0.158E-02
RMM:   4    -0.328962752533E+03   -0.63612E-06   -0.17423E-05  1042   0.636E-03    0.111E-02
RMM:   5    -0.328962752731E+03   -0.19840E-06   -0.65102E-06   999   0.403E-03
  429 T=   320. E= -.32881174E+03 F= -.32896275E+03 E0= -.32898639E+03  EK= 0.29354E+01 SP= -.28E+01 SK= 0.40E-01
       N       E                     dE             d eps       ncg     rms          rms(c)
DAV:   1    -0.328918044457E+03    0.44708E-01   -0.62387E-03  2832   0.945E-01    0.428E-02
RMM:   2    -0.328918336527E+03   -0.29207E-03   -0.30075E-03  1678   0.712E-02    0.178E-02
RMM:   3    -0.328918360581E+03   -0.24054E-04   -0.25641E-04  1868   0.201E-02    0.173E-02
RMM:   4    -0.328918361572E+03   -0.99068E-06   -0.20016E-05  1064   0.653E-03    0.128E-02
RMM:   5    -0.328918361709E+03   -0.13640E-06   -0.70238E-06  1000   0.417E-03
  430 T=   323. E= -.32881163E+03 F= -.32891836E+03 E0= -.32894206E+03  EK= 0.29680E+01 SP= -.29E+01 SK= 0.35E-01
       N       E                     dE             d eps       ncg     rms          rms(c)
DAV:   1    -0.328869327915E+03    0.49034E-01   -0.67482E-03  2864   0.947E-01    0.471E-02
RMM:   2    -0.328869635504E+03   -0.30759E-03   -0.31654E-03  1672   0.751E-02    0.165E-02
RMM:   3    -0.328869660727E+03   -0.25223E-04   -0.26583E-04  1867   0.208E-02    0.161E-02
RMM:   4    -0.328869661953E+03   -0.12260E-05   -0.21531E-05  1070   0.681E-03    0.111E-02
RMM:   5    -0.328869662316E+03   -0.36353E-06   -0.66531E-06   999   0.412E-03
  431 T=   326. E= -.32881176E+03 F= -.32886966E+03 E0= -.32889341E+03  EK= 0.29911E+01 SP= -.30E+01 SK= 0.30E-01
       N       E                     dE             d eps       ncg     rms          rms(c)
DAV:   1    -0.328817481754E+03    0.52180E-01   -0.70820E-03  2832   0.946E-01    0.459E-02
RMM:   2    -0.328817790712E+03   -0.30896E-03   -0.31713E-03  1673   0.758E-02    0.184E-02
RMM:   3    -0.328817816097E+03   -0.25386E-04   -0.27186E-04  1897   0.210E-02    0.179E-02
RMM:   4    -0.328817817132E+03   -0.10346E-05   -0.22066E-05  1088   0.679E-03    0.124E-02
RMM:   5    -0.328817817382E+03   -0.25011E-06   -0.68325E-06   999   0.414E-03
  432 T=   327. E= -.32881159E+03 F= -.32881782E+03 E0= -.32884161E+03  EK= 0.30053E+01 SP= -.30E+01 SK= 0.24E-01
       N       E                     dE             d eps       ncg     rms          rms(c)
DAV:   1    -0.328764631310E+03    0.53186E-01   -0.72903E-03  2848   0.944E-01    0.485E-02
RMM:   2    -0.328764969586E+03   -0.33828E-03   -0.34714E-03  1678   0.783E-02    0.178E-02
RMM:   3    -0.328764998386E+03   -0.28800E-04   -0.30578E-04  1912   0.217E-02    0.172E-02
RMM:   4    -0.328764999676E+03   -0.12901E-05   -0.23385E-05  1088   0.689E-03    0.115E-02
RMM:   5    -0.328765000036E+03   -0.36024E-06   -0.67333E-06  1000   0.416E-03
  433 T=   328. E= -.32881159E+03 F= -.32876500E+03 E0= -.32878883E+03  EK= 0.30119E+01 SP= -.31E+01 SK= 0.19E-01
       N       E                     dE             d eps       ncg     rms          rms(c)
DAV:   1    -0.328712119376E+03    0.52880E-01   -0.80079E-03  2880   0.940E-01    0.496E-02
RMM:   2    -0.328712489093E+03   -0.36972E-03   -0.37823E-03  1679   0.825E-02    0.183E-02
RMM:   3    -0.328712520271E+03   -0.31178E-04   -0.33083E-04  1922   0.227E-02    0.177E-02
RMM:   4    -0.328712521671E+03   -0.14007E-05   -0.26099E-05  1108   0.722E-03    0.115E-02
RMM:   5    -0.328712522056E+03   -0.38485E-06   -0.68630E-06   998   0.422E-03
  434 T=   328. E= -.32881123E+03 F= -.32871252E+03 E0= -.32873639E+03  EK= 0.30122E+01 SP= -.31E+01 SK= 0.15E-01
       N       E                     dE             d eps       ncg     rms          rms(c)
DAV:   1    -0.328661740424E+03    0.50781E-01   -0.81917E-03  2864   0.936E-01    0.486E-02
RMM:   2    -0.328662112770E+03   -0.37235E-03   -0.38038E-03  1682   0.835E-02    0.186E-02
RMM:   3    -0.328662143632E+03   -0.30863E-04   -0.32589E-04  1936   0.228E-02    0.183E-02
RMM:   4    -0.328662145267E+03   -0.16348E-05   -0.25588E-05  1107   0.706E-03    0.130E-02
RMM:   5    -0.328662145584E+03   -0.31662E-06   -0.68326E-06   999   0.419E-03
  435 T=   328. E= -.32881078E+03 F= -.32866215E+03 E0= -.32868607E+03  EK= 0.30078E+01 SP= -.32E+01 SK= 0.11E-01
       N       E                     dE             d eps       ncg     rms          rms(c)
DAV:   1    -0.328615205326E+03    0.46940E-01   -0.85557E-03  2816   0.931E-01    0.502E-02
RMM:   2    -0.328615608701E+03   -0.40338E-03   -0.41210E-03  1683   0.851E-02    0.178E-02
RMM:   3    -0.328615644283E+03   -0.35581E-04   -0.37482E-04  1959   0.237E-02    0.177E-02
RMM:   4    -0.328615645884E+03   -0.16018E-05   -0.25913E-05  1102   0.714E-03    0.126E-02
RMM:   5    -0.328615646204E+03   -0.31951E-06   -0.70281E-06  1000   0.427E-03
  436 T=   327. E= -.32881074E+03 F= -.32861565E+03 E0= -.32863963E+03  EK= 0.29998E+01 SP= -.32E+01 SK= 0.77E-02
       N       E                     dE             d eps       ncg     rms          rms(c)
DAV:   1    -0.328573040659E+03    0.42605E-01   -0.86690E-03  2800   0.925E-01    0.514E-02
RMM:   2    -0.328573447755E+03   -0.40710E-03   -0.41558E-03  1682   0.860E-02    0.183E-02
RMM:   3    -0.328573483237E+03   -0.35482E-04   -0.37728E-04  1950   0.239E-02    0.181E-02
RMM:   4    -0.328573485038E+03   -0.18009E-05   -0.29166E-05  1133   0.738E-03    0.121E-02
RMM:   5    -0.328573485449E+03   -0.41104E-06   -0.67773E-06   999   0.420E-03
  437 T=   326. E= -.32881059E+03 F= -.32857349E+03 E0= -.32859754E+03  EK= 0.29896E+01 SP= -.32E+01 SK= 0.51E-02
       N       E                     dE             d eps       ncg     rms          rms(c)
DAV:   1    -0.328535042983E+03    0.38442E-01   -0.88156E-03  2800   0.918E-01    0.499E-02
RMM:   2    -0.328535446120E+03   -0.40314E-03   -0.41169E-03  1675   0.859E-02    0.188E-02
RMM:   3    -0.328535480372E+03   -0.34253E-04   -0.36310E-04  1948   0.238E-02    0.188E-02
RMM:   4    -0.328535482177E+03   -0.18045E-05   -0.28449E-05  1131   0.736E-03    0.135E-02
RMM:   5    -0.328535482531E+03   -0.35401E-06   -0.71330E-06  1002   0.428E-03
  438 T=   324. E= -.32881048E+03 F= -.32853548E+03 E0= -.32855963E+03  EK= 0.29770E+01 SP= -.33E+01 SK= 0.31E-02
       N       E                     dE             d eps       ncg     rms          rms(c)
DAV:   1    -0.328501141549E+03    0.34341E-01   -0.90534E-03  2816   0.912E-01    0.505E-02
RMM:   2    -0.328501540104E+03   -0.39856E-03   -0.40796E-03  1686   0.859E-02    0.185E-02
RMM:   3    -0.328501575362E+03   -0.35258E-04   -0.37531E-04  1964   0.237E-02    0.185E-02
RMM:   4    -0.328501576864E+03   -0.15019E-05   -0.25595E-05  1108   0.712E-03    0.134E-02
RMM:   5    -0.328501577152E+03   -0.28764E-06   -0.68919E-06  1002   0.422E-03
  439 T=   323. E= -.32881037E+03 F= -.32850158E+03 E0= -.32852583E+03  EK= 0.29625E+01 SP= -.33E+01 SK= 0.17E-02
       N       E                     dE             d eps       ncg     rms          rms(c)
DAV:   1    -0.328471705600E+03    0.29871E-01   -0.88029E-03  2832   0.905E-01    0.510E-02
RMM:   2    -0.328472082012E+03   -0.37641E-03   -0.38580E-03  1674   0.849E-02    0.186E-02
RMM:   3    -0.328472112423E+03   -0.30410E-04   -0.32742E-04  1933   0.232E-02    0.186E-02
RMM:   4    -0.328472114008E+03   -0.15853E-05   -0.27538E-05  1123   0.730E-03    0.133E-02
RMM:   5    -0.328472114244E+03   -0.23579E-06   -0.71973E-06  1000   0.427E-03
  440 T=   321. E= -.32881043E+03 F= -.32847211E+03 E0= -.32849649E+03  EK= 0.29466E+01 SP= -.33E+01 SK= 0.78E-03
       N       E                     dE             d eps       ncg     rms          rms(c)
DAV:   1    -0.328446674667E+03    0.25439E-01   -0.82602E-03  2848   0.897E-01    0.508E-02
RMM:   2    -0.328447059696E+03   -0.38503E-03   -0.39434E-03  1681   0.848E-02    0.193E-02
RMM:   3    -0.328447092430E+03   -0.32734E-04   -0.35101E-04  1954   0.235E-02    0.193E-02
RMM:   4    -0.328447093984E+03   -0.15543E-05   -0.27237E-05  1112   0.723E-03    0.140E-02
RMM:   5    -0.328447094219E+03   -0.23541E-06   -0.71536E-06  1001   0.425E-03
  441 T=   319. E= -.32881005E+03 F= -.32844709E+03 E0= -.32847161E+03  EK= 0.29304E+01 SP= -.33E+01 SK= 0.24E-03
       N       E                     dE             d eps       ncg     rms          rms(c)
DAV:   1    -0.328428429746E+03    0.18664E-01   -0.85053E-03  2816   0.890E-01    0.508E-02
RMM:   2    -0.328428806541E+03   -0.37680E-03   -0.38681E-03  1674   0.839E-02    0.204E-02
RMM:   3    -0.328428836657E+03   -0.30116E-04   -0.32783E-04  1923   0.229E-02    0.202E-02
RMM:   4    -0.328428838142E+03   -0.14846E-05   -0.27408E-05  1117   0.724E-03    0.149E-02
RMM:   5    -0.328428838229E+03   -0.87537E-07   -0.74050E-06  1001   0.431E-03
  442 T=   318. E= -.32881004E+03 F= -.32842884E+03 E0= -.32845351E+03  EK= 0.29160E+01 SP= -.33E+01 SK= 0.18E-04
       N       E                     dE             d eps       ncg     rms          rms(c)
DAV:   1    -0.328417776303E+03    0.11062E-01   -0.83555E-03  2816   0.884E-01    0.504E-02
RMM:   2    -0.328418142935E+03   -0.36663E-03   -0.37674E-03  1673   0.834E-02    0.209E-02
RMM:   3    -0.328418172190E+03   -0.29255E-04   -0.31847E-04  1907   0.226E-02    0.203E-02
RMM:   4    -0.328418173282E+03   -0.10926E-05   -0.25196E-05  1103   0.719E-03    0.140E-02
RMM:   5    -0.328418173515E+03   -0.23269E-06   -0.74309E-06  1000   0.431E-03
  443 T=   317. E= -.32880969E+03 F= -.32841817E+03 E0= -.32844302E+03  EK= 0.29052E+01 SP= -.33E+01 SK= 0.40E-04
       N       E                     dE             d eps       ncg     rms          rms(c)
DAV:   1    -0.328417033798E+03    0.11395E-02   -0.78196E-03  2848   0.881E-01    0.488E-02
RMM:   2    -0.328417389065E+03   -0.35527E-03   -0.36484E-03  1671   0.825E-02    0.218E-02
RMM:   3    -0.328417417037E+03   -0.27972E-04   -0.30718E-04  1918   0.224E-02    0.209E-02
RMM:   4    -0.328417418003E+03   -0.96623E-06   -0.26562E-05  1106   0.727E-03    0.139E-02
RMM:   5    -0.328417418225E+03   -0.22149E-06   -0.78767E-06  1001   0.443E-03
  444 T=   316. E= -.32880965E+03 F= -.32841742E+03 E0= -.32844246E+03  EK= 0.29000E+01 SP= -.33E+01 SK= 0.27E-03
       N       E                     dE             d eps       ncg     rms          rms(c)
DAV:   1    -0.328427683922E+03   -0.10266E-01   -0.78096E-03  2816   0.880E-01    0.502E-02
RMM:   2    -0.328428041657E+03   -0.35773E-03   -0.36745E-03  1671   0.824E-02    0.203E-02
RMM:   3    -0.328428071876E+03   -0.30218E-04   -0.32561E-04  1926   0.227E-02    0.196E-02
RMM:   4    -0.328428073163E+03   -0.12873E-05   -0.26853E-05  1118   0.719E-03    0.132E-02
RMM:   5    -0.328428073429E+03   -0.26642E-06   -0.72817E-06  1004   0.425E-03
  445 T=   316. E= -.32880990E+03 F= -.32842807E+03 E0= -.32845333E+03  EK= 0.29022E+01 SP= -.33E+01 SK= 0.69E-03
       N       E                     dE             d eps       ncg     rms          rms(c)
DAV:   1    -0.328450443639E+03   -0.22370E-01   -0.76345E-03  2912   0.883E-01    0.465E-02
RMM:   2    -0.328450806504E+03   -0.36287E-03   -0.37117E-03  1688   0.803E-02    0.188E-02
RMM:   3    -0.328450838871E+03   -0.32366E-04   -0.34363E-04  1931   0.224E-02    0.179E-02
RMM:   4    -0.328450840134E+03   -0.12636E-05   -0.25092E-05  1103   0.699E-03    0.116E-02
RMM:   5    -0.328450840522E+03   -0.38802E-06   -0.67054E-06  1005   0.413E-03
  446 T=   317. E= -.32880979E+03 F= -.32845084E+03 E0= -.32847634E+03  EK= 0.29129E+01 SP= -.33E+01 SK= 0.13E-02
       N       E                     dE             d eps       ncg     rms          rms(c)
DAV:   1    -0.328486379089E+03   -0.35539E-01   -0.87808E-03  2848   0.891E-01    0.450E-02
RMM:   2    -0.328486739372E+03   -0.36028E-03   -0.36854E-03  1674   0.819E-02    0.182E-02
RMM:   3    -0.328486768225E+03   -0.28853E-04   -0.30840E-04  1900   0.224E-02    0.175E-02
RMM:   4    -0.328486769735E+03   -0.15101E-05   -0.26310E-05  1111   0.720E-03    0.120E-02
RMM:   5    -0.328486770046E+03   -0.31087E-06   -0.70948E-06  1002   0.423E-03
  447 T=   319. E= -.32881012E+03 F= -.32848677E+03 E0= -.32851253E+03  EK= 0.29321E+01 SP= -.33E+01 SK= 0.23E-02
       N       E                     dE             d eps       ncg     rms          rms(c)
DAV:   1    -0.328533785128E+03   -0.47015E-01   -0.73297E-03  2848   0.903E-01    0.437E-02
RMM:   2    -0.328534102070E+03   -0.31694E-03   -0.32482E-03  1675   0.767E-02    0.149E-02
RMM:   3    -0.328534129840E+03   -0.27769E-04   -0.29172E-04  1900   0.213E-02    0.146E-02
RMM:   4    -0.328534131407E+03   -0.15676E-05   -0.23982E-05  1095   0.690E-03    0.101E-02
RMM:   5    -0.328534131798E+03   -0.39083E-06   -0.62090E-06  1000   0.400E-03
  448 T=   322. E= -.32881061E+03 F= -.32853413E+03 E0= -.32856018E+03  EK= 0.29578E+01 SP= -.32E+01 SK= 0.37E-02
       N       E                     dE             d eps       ncg     rms          rms(c)
DAV:   1    -0.328588655734E+03   -0.54524E-01   -0.75039E-03  2880   0.918E-01    0.420E-02
RMM:   2    -0.328588990235E+03   -0.33450E-03   -0.34181E-03  1682   0.769E-02    0.154E-02
RMM:   3    -0.328589020799E+03   -0.30564E-04   -0.32087E-04  1920   0.217E-02    0.151E-02
RMM:   4    -0.328589022381E+03   -0.15815E-05   -0.24434E-05  1096   0.683E-03    0.106E-02
RMM:   5    -0.328589022766E+03   -0.38526E-06   -0.62894E-06  1002   0.403E-03
  449 T=   325. E= -.32881123E+03 F= -.32858902E+03 E0= -.32861540E+03  EK= 0.29851E+01 SP= -.32E+01 SK= 0.57E-02
       N       E                     dE             d eps       ncg     rms          rms(c)
DAV:   1    -0.328645534096E+03   -0.56512E-01   -0.79531E-03  2864   0.933E-01    0.431E-02
RMM:   2    -0.328645872843E+03   -0.33875E-03   -0.34683E-03  1672   0.781E-02    0.165E-02
RMM:   3    -0.328645901585E+03   -0.28742E-04   -0.30205E-04  1906   0.216E-02    0.160E-02
RMM:   4    -0.328645903150E+03   -0.15647E-05   -0.24205E-05  1094   0.691E-03    0.110E-02
RMM:   5    -0.328645903644E+03   -0.49402E-06   -0.67249E-06  1003   0.415E-03
  450 T=   328. E= -.32881194E+03 F= -.32864590E+03 E0= -.32867264E+03  EK= 0.30080E+01 SP= -.32E+01 SK= 0.84E-02
       N       E                     dE             d eps       ncg     rms          rms(c)
DAV:   1    -0.328699159051E+03   -0.53256E-01   -0.73231E-03  2912   0.946E-01    0.442E-02
RMM:   2    -0.328699456461E+03   -0.29741E-03   -0.30642E-03  1672   0.767E-02    0.171E-02
RMM:   3    -0.328699481814E+03   -0.25353E-04   -0.26917E-04  1887   0.209E-02    0.165E-02
RMM:   4    -0.328699482914E+03   -0.11005E-05   -0.22360E-05  1081   0.684E-03    0.112E-02
RMM:   5    -0.328699483290E+03   -0.37584E-06   -0.68478E-06  1004   0.414E-03
  451 T=   329. E= -.32881232E+03 F= -.32869948E+03 E0= -.32872662E+03  EK= 0.30208E+01 SP= -.31E+01 SK= 0.12E-01
       N       E                     dE             d eps       ncg     rms          rms(c)
DAV:   1    -0.328745084639E+03   -0.45602E-01   -0.74087E-03  2864   0.955E-01    0.444E-02
RMM:   2    -0.328745363690E+03   -0.27905E-03   -0.28847E-03  1670   0.742E-02    0.184E-02
RMM:   3    -0.328745386865E+03   -0.23175E-04   -0.25169E-04  1857   0.201E-02    0.174E-02
RMM:   4    -0.328745387766E+03   -0.90051E-06   -0.21957E-05  1077   0.675E-03    0.115E-02
RMM:   5    -0.328745388081E+03   -0.31573E-06   -0.69070E-06  1002   0.414E-03
  452 T=   329. E= -.32881276E+03 F= -.32874539E+03 E0= -.32877295E+03  EK= 0.30185E+01 SP= -.31E+01 SK= 0.16E-01
       N       E                     dE             d eps       ncg     rms          rms(c)
DAV:   1    -0.328778284587E+03   -0.32897E-01   -0.67571E-03  2944   0.959E-01    0.450E-02
RMM:   2    -0.328778545342E+03   -0.26075E-03   -0.27069E-03  1668   0.719E-02    0.190E-02
RMM:   3    -0.328778566418E+03   -0.21076E-04   -0.23174E-04  1839   0.195E-02    0.177E-02
RMM:   4    -0.328778566994E+03   -0.57602E-06   -0.20088E-05  1059   0.669E-03    0.115E-02
RMM:   5    -0.328778567351E+03   -0.35689E-06   -0.71589E-06  1003   0.418E-03
  453 T=   327. E= -.32881274E+03 F= -.32877857E+03 E0= -.32880658E+03  EK= 0.29971E+01 SP= -.31E+01 SK= 0.21E-01
       N       E                     dE             d eps       ncg     rms          rms(c)
DAV:   1    -0.328797136049E+03   -0.18569E-01   -0.64436E-03  2912   0.956E-01    0.441E-02
RMM:   2    -0.328797393606E+03   -0.25756E-03   -0.26802E-03  1668   0.718E-02    0.192E-02
RMM:   3    -0.328797414500E+03   -0.20894E-04   -0.23096E-04  1857   0.197E-02    0.183E-02
RMM:   4    -0.328797415122E+03   -0.62202E-06   -0.20548E-05  1058   0.673E-03    0.126E-02
RMM:   5    -0.328797415319E+03   -0.19752E-06   -0.76096E-06  1003   0.427E-03
  454 T=   322. E= -.32881278E+03 F= -.32879742E+03 E0= -.32882586E+03  EK= 0.29553E+01 SP= -.30E+01 SK= 0.25E-01
       N       E                     dE             d eps       ncg     rms          rms(c)
DAV:   1    -0.328801429555E+03   -0.40144E-02   -0.62227E-03  2912   0.947E-01    0.452E-02
RMM:   2    -0.328801694886E+03   -0.26533E-03   -0.27602E-03  1672   0.717E-02    0.180E-02
RMM:   3    -0.328801717086E+03   -0.22199E-04   -0.24234E-04  1867   0.198E-02    0.174E-02
RMM:   4    -0.328801717861E+03   -0.77533E-06   -0.19939E-05  1065   0.661E-03    0.124E-02
RMM:   5    -0.328801718045E+03   -0.18417E-06   -0.70681E-06  1006   0.417E-03
  455 T=   315. E= -.32881258E+03 F= -.32880172E+03 E0= -.32883057E+03  EK= 0.28950E+01 SP= -.29E+01 SK= 0.29E-01
       N       E                     dE             d eps       ncg     rms          rms(c)
DAV:   1    -0.328792861506E+03    0.88564E-02   -0.63604E-03  2880   0.931E-01    0.456E-02
RMM:   2    -0.328793123190E+03   -0.26168E-03   -0.27219E-03  1667   0.715E-02    0.187E-02
RMM:   3    -0.328793144960E+03   -0.21770E-04   -0.23845E-04  1852   0.198E-02    0.182E-02
RMM:   4    -0.328793145824E+03   -0.86427E-06   -0.20991E-05  1068   0.671E-03    0.129E-02
RMM:   5    -0.328793146041E+03   -0.21653E-06   -0.74771E-06  1006   0.424E-03
  456 T=   307. E= -.32881203E+03 F= -.32879315E+03 E0= -.32882235E+03  EK= 0.28200E+01 SP= -.29E+01 SK= 0.31E-01
       N       E                     dE             d eps       ncg     rms          rms(c)
DAV:   1    -0.328775366107E+03    0.17780E-01   -0.61975E-03  2880   0.912E-01    0.452E-02
RMM:   2    -0.328775626403E+03   -0.26030E-03   -0.27099E-03  1668   0.710E-02    0.179E-02
RMM:   3    -0.328775648317E+03   -0.21914E-04   -0.23847E-04  1869   0.197E-02    0.174E-02
RMM:   4    -0.328775649153E+03   -0.83599E-06   -0.20320E-05  1065   0.662E-03    0.123E-02
RMM:   5    -0.328775649309E+03   -0.15546E-06   -0.67021E-06  1004   0.407E-03
  457 T=   298. E= -.32881127E+03 F= -.32877565E+03 E0= -.32880514E+03  EK= 0.27365E+01 SP= -.28E+01 SK= 0.32E-01
       N       E                     dE             d eps       ncg     rms          rms(c)
DAV:   1    -0.328753578200E+03    0.22071E-01   -0.60076E-03  2896   0.890E-01    0.458E-02
RMM:   2    -0.328753847409E+03   -0.26921E-03   -0.27870E-03  1670   0.717E-02    0.182E-02
RMM:   3    -0.328753869762E+03   -0.22354E-04   -0.24351E-04  1862   0.199E-02    0.177E-02
RMM:   4    -0.328753870678E+03   -0.91578E-06   -0.21291E-05  1072   0.672E-03    0.120E-02
RMM:   5    -0.328753870884E+03   -0.20598E-06   -0.69206E-06  1003   0.413E-03
  458 T=   289. E= -.32881047E+03 F= -.32875387E+03 E0= -.32878358E+03  EK= 0.26512E+01 SP= -.27E+01 SK= 0.31E-01
       N       E                     dE             d eps       ncg     rms          rms(c)
DAV:   1    -0.328732547271E+03    0.21323E-01   -0.65511E-03  2816   0.869E-01    0.476E-02
RMM:   2    -0.328732854675E+03   -0.30740E-03   -0.31698E-03  1679   0.751E-02    0.176E-02
RMM:   3    -0.328732880575E+03   -0.25900E-04   -0.28018E-04  1913   0.208E-02    0.175E-02
RMM:   4    -0.328732881654E+03   -0.10791E-05   -0.21933E-05  1076   0.669E-03    0.127E-02
RMM:   5    -0.328732881741E+03   -0.86711E-07   -0.68526E-06  1005   0.412E-03
  459 T=   280. E= -.32880965E+03 F= -.32873288E+03 E0= -.32876273E+03  EK= 0.25710E+01 SP= -.27E+01 SK= 0.27E-01
       N       E                     dE             d eps       ncg     rms          rms(c)
DAV:   1    -0.328716777596E+03    0.16104E-01   -0.78113E-03  2800   0.851E-01    0.462E-02
RMM:   2    -0.328717115271E+03   -0.33767E-03   -0.34602E-03  1667   0.797E-02    0.182E-02
RMM:   3    -0.328717143569E+03   -0.28299E-04   -0.29925E-04  1907   0.219E-02    0.180E-02
RMM:   4    -0.328717145129E+03   -0.15592E-05   -0.24230E-05  1088   0.702E-03    0.128E-02
RMM:   5    -0.328717145359E+03   -0.23041E-06   -0.69733E-06  1004   0.421E-03
  460 T=   273. E= -.32880907E+03 F= -.32871715E+03 E0= -.32874709E+03  EK= 0.25017E+01 SP= -.26E+01 SK= 0.23E-01
       N       E                     dE             d eps       ncg     rms          rms(c)
DAV:   1    -0.328709475313E+03    0.76698E-02   -0.71972E-03  2864   0.837E-01    0.477E-02
RMM:   2    -0.328709804134E+03   -0.32882E-03   -0.33715E-03  1685   0.786E-02    0.166E-02
RMM:   3    -0.328709833650E+03   -0.29516E-04   -0.31229E-04  1924   0.218E-02    0.167E-02
RMM:   4    -0.328709835020E+03   -0.13699E-05   -0.23680E-05  1095   0.695E-03    0.117E-02
RMM:   5    -0.328709835227E+03   -0.20676E-06   -0.64806E-06  1006   0.409E-03
  461 T=   267. E= -.32880893E+03 F= -.32870984E+03 E0= -.32873983E+03  EK= 0.24473E+01 SP= -.26E+01 SK= 0.17E-01
       N       E                     dE             d eps       ncg     rms          rms(c)
DAV:   1    -0.328712401878E+03   -0.25669E-02   -0.64803E-03  2848   0.828E-01    0.434E-02
RMM:   2    -0.328712703296E+03   -0.30142E-03   -0.30876E-03  1673   0.748E-02    0.168E-02
RMM:   3    -0.328712728833E+03   -0.25538E-04   -0.27088E-04  1888   0.207E-02    0.167E-02
RMM:   4    -0.328712730124E+03   -0.12903E-05   -0.22006E-05  1083   0.679E-03    0.117E-02
RMM:   5    -0.328712730350E+03   -0.22626E-06   -0.64571E-06  1001   0.406E-03
  462 T=   263. E= -.32880876E+03 F= -.32871273E+03 E0= -.32874276E+03  EK= 0.24106E+01 SP= -.25E+01 SK= 0.12E-01
       N       E                     dE             d eps       ncg     rms          rms(c)
DAV:   1    -0.328725998813E+03   -0.13269E-01   -0.55779E-03  2832   0.825E-01    0.420E-02
RMM:   2    -0.328726273069E+03   -0.27426E-03   -0.28173E-03  1681   0.714E-02    0.159E-02
RMM:   3    -0.328726294886E+03   -0.21817E-04   -0.23336E-04  1859   0.197E-02    0.155E-02
RMM:   4    -0.328726296035E+03   -0.11492E-05   -0.20518E-05  1069   0.664E-03    0.105E-02
RMM:   5    -0.328726296336E+03   -0.30052E-06   -0.65396E-06  1001   0.408E-03
  463 T=   261. E= -.32880868E+03 F= -.32872630E+03 E0= -.32875637E+03  EK= 0.23924E+01 SP= -.25E+01 SK= 0.76E-02
       N       E                     dE             d eps       ncg     rms          rms(c)
DAV:   1    -0.328749526840E+03   -0.23231E-01   -0.50691E-03  2864   0.829E-01    0.400E-02
RMM:   2    -0.328749798122E+03   -0.27128E-03   -0.27845E-03  1676   0.708E-02    0.159E-02
RMM:   3    -0.328749819846E+03   -0.21724E-04   -0.23101E-04  1842   0.195E-02    0.155E-02
RMM:   4    -0.328749820899E+03   -0.10532E-05   -0.20052E-05  1069   0.663E-03    0.107E-02
RMM:   5    -0.328749821146E+03   -0.24714E-06   -0.64890E-06  1002   0.406E-03
  464 T=   261. E= -.32880900E+03 F= -.32874982E+03 E0= -.32877995E+03  EK= 0.23916E+01 SP= -.25E+01 SK= 0.39E-02
       N       E                     dE             d eps       ncg     rms          rms(c)
DAV:   1    -0.328780089180E+03   -0.30268E-01   -0.47789E-03  2848   0.839E-01    0.404E-02
RMM:   2    -0.328780385547E+03   -0.29637E-03   -0.30322E-03  1683   0.712E-02    0.157E-02
RMM:   3    -0.328780410515E+03   -0.24968E-04   -0.26215E-04  1900   0.202E-02    0.151E-02
RMM:   4    -0.328780411776E+03   -0.12617E-05   -0.21795E-05  1086   0.658E-03    0.101E-02
RMM:   5    -0.328780412068E+03   -0.29176E-06   -0.59936E-06  1004   0.394E-03
  465 T=   262. E= -.32880896E+03 F= -.32878041E+03 E0= -.32881062E+03  EK= 0.24059E+01 SP= -.24E+01 SK= 0.15E-02
       N       E                     dE             d eps       ncg     rms          rms(c)
DAV:   1    -0.328814678552E+03   -0.34267E-01   -0.53488E-03  2816   0.853E-01    0.416E-02
RMM:   2    -0.328814954911E+03   -0.27636E-03   -0.28349E-03  1676   0.713E-02    0.162E-02
RMM:   3    -0.328814976174E+03   -0.21263E-04   -0.22745E-04  1824   0.196E-02    0.154E-02
RMM:   4    -0.328814977291E+03   -0.11172E-05   -0.21471E-05  1076   0.676E-03    0.988E-03
RMM:   5    -0.328814977641E+03   -0.34925E-06   -0.63873E-06  1001   0.404E-03
  466 T=   265. E= -.32880911E+03 F= -.32881498E+03 E0= -.32884529E+03  EK= 0.24315E+01 SP= -.24E+01 SK= 0.28E-03
       N       E                     dE             d eps       ncg     rms          rms(c)
DAV:   1    -0.328849964033E+03   -0.34987E-01   -0.48070E-03  2832   0.867E-01    0.412E-02
RMM:   2    -0.328850216448E+03   -0.25242E-03   -0.25903E-03  1677   0.685E-02    0.164E-02
RMM:   3    -0.328850236500E+03   -0.20051E-04   -0.21435E-04  1818   0.189E-02    0.155E-02
RMM:   4    -0.328850237386E+03   -0.88632E-06   -0.18817E-05  1056   0.651E-03    0.997E-03
RMM:   5    -0.328850237705E+03   -0.31912E-06   -0.62987E-06  1002   0.402E-03
  467 T=   269. E= -.32880969E+03 F= -.32885024E+03 E0= -.32888068E+03  EK= 0.24642E+01 SP= -.24E+01 SK= 0.14E-04
       N       E                     dE             d eps       ncg     rms          rms(c)
DAV:   1    -0.328882454056E+03   -0.32217E-01   -0.41485E-03  2880   0.882E-01    0.408E-02
RMM:   2    -0.328882713234E+03   -0.25918E-03   -0.26632E-03  1673   0.674E-02    0.166E-02
RMM:   3    -0.328882735387E+03   -0.22152E-04   -0.23712E-04  1868   0.191E-02    0.156E-02
RMM:   4    -0.328882736091E+03   -0.70443E-06   -0.18690E-05  1062   0.633E-03    0.102E-02
RMM:   5    -0.328882736326E+03   -0.23516E-06   -0.59896E-06  1003   0.392E-03
  468 T=   272. E= -.32881038E+03 F= -.32888274E+03 E0= -.32891332E+03  EK= 0.25005E+01 SP= -.24E+01 SK= 0.48E-03
       N       E                     dE             d eps       ncg     rms          rms(c)
DAV:   1    -0.328908432459E+03   -0.25696E-01   -0.52598E-03  2832   0.894E-01    0.426E-02
RMM:   2    -0.328908709817E+03   -0.27736E-03   -0.28445E-03  1676   0.706E-02    0.174E-02
RMM:   3    -0.328908730758E+03   -0.20941E-04   -0.22506E-04  1828   0.193E-02    0.163E-02
RMM:   4    -0.328908731831E+03   -0.10727E-05   -0.20763E-05  1072   0.660E-03    0.105E-02
RMM:   5    -0.328908732167E+03   -0.33599E-06   -0.62515E-06   998   0.399E-03
  469 T=   276. E= -.32881094E+03 F= -.32890873E+03 E0= -.32893947E+03  EK= 0.25362E+01 SP= -.24E+01 SK= 0.14E-02
       N       E                     dE             d eps       ncg     rms          rms(c)
DAV:   1    -0.328924497488E+03   -0.15766E-01   -0.54385E-03  2864   0.905E-01    0.438E-02
RMM:   2    -0.328924780239E+03   -0.28275E-03   -0.29057E-03  1680   0.721E-02    0.176E-02
RMM:   3    -0.328924801725E+03   -0.21486E-04   -0.23427E-04  1848   0.197E-02    0.166E-02
RMM:   4    -0.328924802612E+03   -0.88728E-06   -0.20793E-05  1072   0.663E-03    0.108E-02
RMM:   5    -0.328924802891E+03   -0.27905E-06   -0.64005E-06  1002   0.401E-03
  470 T=   280. E= -.32881114E+03 F= -.32892480E+03 E0= -.32895567E+03  EK= 0.25674E+01 SP= -.25E+01 SK= 0.26E-02
       N       E                     dE             d eps       ncg     rms          rms(c)
DAV:   1    -0.328929508871E+03   -0.47063E-02   -0.55326E-03  2880   0.911E-01    0.441E-02
RMM:   2    -0.328929788207E+03   -0.27934E-03   -0.28772E-03  1681   0.716E-02    0.172E-02
RMM:   3    -0.328929810190E+03   -0.21983E-04   -0.23799E-04  1873   0.198E-02    0.165E-02
RMM:   4    -0.328929811172E+03   -0.98216E-06   -0.20678E-05  1080   0.656E-03    0.116E-02
RMM:   5    -0.328929811309E+03   -0.13686E-06   -0.65162E-06  1002   0.402E-03
  471 T=   282. E= -.32881131E+03 F= -.32892981E+03 E0= -.32896078E+03  EK= 0.25921E+01 SP= -.25E+01 SK= 0.39E-02
       N       E                     dE             d eps       ncg     rms          rms(c)
DAV:   1    -0.328924743643E+03    0.50675E-02   -0.56255E-03  2880   0.913E-01    0.444E-02
RMM:   2    -0.328925031002E+03   -0.28736E-03   -0.29625E-03  1678   0.729E-02    0.176E-02
RMM:   3    -0.328925053751E+03   -0.22749E-04   -0.24597E-04  1861   0.201E-02    0.169E-02
RMM:   4    -0.328925054740E+03   -0.98936E-06   -0.20975E-05  1075   0.669E-03    0.120E-02
RMM:   5    -0.328925054853E+03   -0.11273E-06   -0.65993E-06  1002   0.408E-03
  472 T=   284. E= -.32881145E+03 F= -.32892505E+03 E0= -.32895608E+03  EK= 0.26109E+01 SP= -.25E+01 SK= 0.53E-02
       N       E                     dE             d eps       ncg     rms          rms(c)
DAV:   1    -0.328911534600E+03    0.13520E-01   -0.48483E-03  2848   0.910E-01    0.452E-02
RMM:   2    -0.328911781315E+03   -0.24672E-03   -0.25575E-03  1676   0.678E-02    0.166E-02
RMM:   3    -0.328911800710E+03   -0.19395E-04   -0.21299E-04  1822   0.188E-02    0.159E-02
RMM:   4    -0.328911801378E+03   -0.66842E-06   -0.18633E-05  1054   0.649E-03    0.109E-02
RMM:   5    -0.328911801548E+03   -0.17002E-06   -0.63795E-06  1002   0.405E-03
  473 T=   286. E= -.32881119E+03 F= -.32891180E+03 E0= -.32894282E+03  EK= 0.26252E+01 SP= -.25E+01 SK= 0.67E-02
       N       E                     dE             d eps       ncg     rms          rms(c)
DAV:   1    -0.328892285103E+03    0.19516E-01   -0.50119E-03  2896   0.904E-01    0.436E-02
RMM:   2    -0.328892538523E+03   -0.25342E-03   -0.26244E-03  1671   0.685E-02    0.180E-02
RMM:   3    -0.328892558431E+03   -0.19909E-04   -0.22024E-04  1853   0.191E-02    0.174E-02
RMM:   4    -0.328892559020E+03   -0.58867E-06   -0.19294E-05  1062   0.644E-03    0.125E-02
RMM:   5    -0.328892559036E+03   -0.15658E-07   -0.67489E-06  1006   0.406E-03
  474 T=   287. E= -.32881117E+03 F= -.32889256E+03 E0= -.32892350E+03  EK= 0.26363E+01 SP= -.26E+01 SK= 0.81E-02
       N       E                     dE             d eps       ncg     rms          rms(c)
DAV:   1    -0.328869990461E+03    0.22569E-01   -0.56383E-03  2896   0.896E-01    0.441E-02
RMM:   2    -0.328870267066E+03   -0.27660E-03   -0.28600E-03  1670   0.712E-02    0.177E-02
RMM:   3    -0.328870288606E+03   -0.21541E-04   -0.23386E-04  1872   0.196E-02    0.170E-02
RMM:   4    -0.328870289334E+03   -0.72730E-06   -0.19603E-05  1063   0.648E-03    0.118E-02
RMM:   5    -0.328870289469E+03   -0.13482E-06   -0.65917E-06  1003   0.406E-03
  475 T=   288. E= -.32881095E+03 F= -.32887029E+03 E0= -.32890108E+03  EK= 0.26475E+01 SP= -.26E+01 SK= 0.95E-02
       N       E                     dE             d eps       ncg     rms          rms(c)
DAV:   1    -0.328849017914E+03    0.21271E-01   -0.65931E-03  2848   0.887E-01    0.455E-02
RMM:   2    -0.328849286372E+03   -0.26846E-03   -0.27765E-03  1672   0.724E-02    0.188E-02
RMM:   3    -0.328849305865E+03   -0.19493E-04   -0.21802E-04  1833   0.194E-02    0.179E-02
RMM:   4    -0.328849306431E+03   -0.56588E-06   -0.20173E-05  1065   0.665E-03    0.119E-02
RMM:   5    -0.328849306560E+03   -0.12973E-06   -0.67554E-06  1000   0.410E-03
  476 T=   290. E= -.32881060E+03 F= -.32884931E+03 E0= -.32887986E+03  EK= 0.26629E+01 SP= -.26E+01 SK= 0.11E-01
       N       E                     dE             d eps       ncg     rms          rms(c)
DAV:   1    -0.328833816023E+03    0.15490E-01   -0.66860E-03  2864   0.880E-01    0.441E-02
RMM:   2    -0.328834062210E+03   -0.24619E-03   -0.25454E-03  1669   0.700E-02    0.186E-02
RMM:   3    -0.328834080963E+03   -0.18753E-04   -0.20943E-04  1847   0.188E-02    0.177E-02
RMM:   4    -0.328834081544E+03   -0.58096E-06   -0.19394E-05  1057   0.645E-03    0.118E-02
RMM:   5    -0.328834081696E+03   -0.15223E-06   -0.65290E-06  1002   0.400E-03
  477 T=   293. E= -.32881036E+03 F= -.32883408E+03 E0= -.32886434E+03  EK= 0.26863E+01 SP= -.27E+01 SK= 0.12E-01
       N       E                     dE             d eps       ncg     rms          rms(c)
DAV:   1    -0.328828197879E+03    0.58837E-02   -0.78538E-03  2864   0.875E-01    0.455E-02
RMM:   2    -0.328828477895E+03   -0.28002E-03   -0.28866E-03  1682   0.733E-02    0.184E-02
RMM:   3    -0.328828501123E+03   -0.23228E-04   -0.25442E-04  1896   0.200E-02    0.174E-02
RMM:   4    -0.328828501837E+03   -0.71376E-06   -0.20858E-05  1071   0.654E-03    0.111E-02
RMM:   5    -0.328828502089E+03   -0.25224E-06   -0.63763E-06  1002   0.401E-03
  478 T=   297. E= -.32881028E+03 F= -.32882850E+03 E0= -.32885842E+03  EK= 0.27212E+01 SP= -.27E+01 SK= 0.13E-01
       N       E                     dE             d eps       ncg     rms          rms(c)
DAV:   1    -0.328834855955E+03   -0.63541E-02   -0.81105E-03  2912   0.876E-01    0.436E-02
RMM:   2    -0.328835121443E+03   -0.26549E-03   -0.27398E-03  1675   0.714E-02    0.181E-02
RMM:   3    -0.328835143144E+03   -0.21701E-04   -0.23787E-04  1851   0.194E-02    0.169E-02
RMM:   4    -0.328835143830E+03   -0.68626E-06   -0.20841E-05  1076   0.656E-03    0.108E-02
RMM:   5    -0.328835144065E+03   -0.23527E-06   -0.61654E-06  1002   0.396E-03
  479 T=   302. E= -.32881052E+03 F= -.32883514E+03 E0= -.32886469E+03  EK= 0.27694E+01 SP= -.28E+01 SK= 0.13E-01
       N       E                     dE             d eps       ncg     rms          rms(c)
DAV:   1    -0.328854873747E+03   -0.19730E-01   -0.91639E-03  2880   0.882E-01    0.429E-02
RMM:   2    -0.328855137985E+03   -0.26424E-03   -0.27231E-03  1676   0.716E-02    0.169E-02
RMM:   3    -0.328855160188E+03   -0.22204E-04   -0.23977E-04  1831   0.193E-02    0.163E-02
RMM:   4    -0.328855161218E+03   -0.10300E-05   -0.20110E-05  1072   0.649E-03    0.112E-02
RMM:   5    -0.328855161471E+03   -0.25280E-06   -0.61875E-06  1003   0.395E-03
  480 T=   308. E= -.32881113E+03 F= -.32885516E+03 E0= -.32888433E+03  EK= 0.28311E+01 SP= -.28E+01 SK= 0.12E-01
       N       E                     dE             d eps       ncg     rms          rms(c)
DAV:   1    -0.328887590790E+03   -0.32430E-01   -0.89191E-03  2880   0.895E-01    0.425E-02
RMM:   2    -0.328887843521E+03   -0.25273E-03   -0.26113E-03  1686   0.695E-02    0.157E-02
RMM:   3    -0.328887865139E+03   -0.21619E-04   -0.23450E-04  1841   0.190E-02    0.152E-02
RMM:   4    -0.328887866144E+03   -0.10043E-05   -0.19371E-05  1070   0.638E-03    0.105E-02
RMM:   5    -0.328887866432E+03   -0.28838E-06   -0.61781E-06  1004   0.395E-03
  481 T=   316. E= -.32881197E+03 F= -.32888787E+03 E0= -.32891666E+03  EK= 0.29042E+01 SP= -.28E+01 SK= 0.11E-01
       N       E                     dE             d eps       ncg     rms          rms(c)
DAV:   1    -0.328929016368E+03   -0.41150E-01   -0.97001E-03  2880   0.913E-01    0.428E-02
RMM:   2    -0.328929305681E+03   -0.28931E-03   -0.29738E-03  1692   0.721E-02    0.162E-02
RMM:   3    -0.328929330884E+03   -0.25203E-04   -0.26998E-04  1874   0.200E-02    0.156E-02
RMM:   4    -0.328929332119E+03   -0.12352E-05   -0.21488E-05  1075   0.652E-03    0.107E-02
RMM:   5    -0.328929332477E+03   -0.35811E-06   -0.62643E-06  1004   0.395E-03
  482 T=   325. E= -.32881289E+03 F= -.32892933E+03 E0= -.32895776E+03  EK= 0.29831E+01 SP= -.29E+01 SK= 0.81E-02
       N       E                     dE             d eps       ncg     rms          rms(c)
DAV:   1    -0.328973234732E+03   -0.43903E-01   -0.10116E-02  2896   0.935E-01    0.452E-02
RMM:   2    -0.328973511386E+03   -0.27665E-03   -0.28493E-03  1674   0.723E-02    0.164E-02
RMM:   3    -0.328973536102E+03   -0.24717E-04   -0.26210E-04  1866   0.198E-02    0.157E-02
RMM:   4    -0.328973537066E+03   -0.96392E-06   -0.19609E-05  1061   0.646E-03    0.102E-02
RMM:   5    -0.328973537499E+03   -0.43284E-06   -0.61593E-06  1004   0.396E-03
  483 T=   333. E= -.32881376E+03 F= -.32897354E+03 E0= -.32900162E+03  EK= 0.30596E+01 SP= -.29E+01 SK= 0.52E-02
       N       E                     dE             d eps       ncg     rms          rms(c)
DAV:   1    -0.329014468857E+03   -0.40932E-01   -0.11160E-02  2800   0.957E-01    0.464E-02
RMM:   2    -0.329014765695E+03   -0.29684E-03   -0.30589E-03  1677   0.748E-02    0.192E-02
RMM:   3    -0.329014790166E+03   -0.24471E-04   -0.26831E-04  1868   0.203E-02    0.181E-02
RMM:   4    -0.329014791068E+03   -0.90224E-06   -0.21716E-05  1075   0.669E-03    0.122E-02
RMM:   5    -0.329014791372E+03   -0.30393E-06   -0.68981E-06  1003   0.414E-03
  484 T=   341. E= -.32881477E+03 F= -.32901479E+03 E0= -.32904256E+03  EK= 0.31253E+01 SP= -.29E+01 SK= 0.24E-02
       N       E                     dE             d eps       ncg     rms          rms(c)
DAV:   1    -0.329045707439E+03   -0.30916E-01   -0.99110E-03  2864   0.976E-01    0.464E-02
RMM:   2    -0.329046018401E+03   -0.31096E-03   -0.32068E-03  1700   0.748E-02    0.199E-02
RMM:   3    -0.329046045100E+03   -0.26699E-04   -0.29160E-04  1890   0.205E-02    0.182E-02
RMM:   4    -0.329046045997E+03   -0.89646E-06   -0.21633E-05  1070   0.660E-03    0.116E-02
RMM:   5    -0.329046046471E+03   -0.47451E-06   -0.67403E-06  1003   0.409E-03
  485 T=   346. E= -.32881538E+03 F= -.32904605E+03 E0= -.32907353E+03  EK= 0.31713E+01 SP= -.29E+01 SK= 0.51E-03
       N       E                     dE             d eps       ncg     rms          rms(c)
DAV:   1    -0.329061788816E+03   -0.15743E-01   -0.10516E-02  2912   0.989E-01    0.462E-02
RMM:   2    -0.329062092024E+03   -0.30321E-03   -0.31334E-03  1673   0.773E-02    0.213E-02
RMM:   3    -0.329062116545E+03   -0.24521E-04   -0.27013E-04  1883   0.209E-02    0.197E-02
RMM:   4    -0.329062117134E+03   -0.58937E-06   -0.23585E-05  1090   0.688E-03    0.127E-02
RMM:   5    -0.329062117445E+03   -0.31038E-06   -0.76411E-06  1000   0.427E-03
  486 T=   348. E= -.32881575E+03 F= -.32906212E+03 E0= -.32908935E+03  EK= 0.31907E+01 SP= -.29E+01 SK= 0.36E-04
       N       E                     dE             d eps       ncg     rms          rms(c)
DAV:   1    -0.329060173019E+03    0.19441E-02   -0.96288E-03  2896   0.996E-01    0.471E-02
RMM:   2    -0.329060464384E+03   -0.29136E-03   -0.30159E-03  1675   0.750E-02    0.194E-02
RMM:   3    -0.329060489237E+03   -0.24853E-04   -0.27016E-04  1883   0.205E-02    0.179E-02
RMM:   4    -0.329060490099E+03   -0.86276E-06   -0.23540E-05  1092   0.680E-03    0.111E-02
RMM:   5    -0.329060490462E+03   -0.36215E-06   -0.66490E-06  1001   0.409E-03
  487 T=   347. E= -.32881604E+03 F= -.32906049E+03 E0= -.32908752E+03  EK= 0.31800E+01 SP= -.29E+01 SK= 0.12E-02
       N       E                     dE             d eps       ncg     rms          rms(c)
DAV:   1    -0.329039518138E+03    0.20972E-01   -0.88813E-03  2896   0.996E-01    0.463E-02
RMM:   2    -0.329039823022E+03   -0.30488E-03   -0.31529E-03  1680   0.757E-02    0.201E-02
RMM:   3    -0.329039848955E+03   -0.25933E-04   -0.28428E-04  1915   0.209E-02    0.187E-02
RMM:   4    -0.329039849462E+03   -0.50753E-06   -0.22968E-05  1087   0.678E-03    0.118E-02
RMM:   5    -0.329039849772E+03   -0.31000E-06   -0.71215E-06  1003   0.419E-03
  488 T=   342. E= -.32881573E+03 F= -.32903985E+03 E0= -.32906673E+03  EK= 0.31389E+01 SP= -.29E+01 SK= 0.39E-02
       N       E                     dE             d eps       ncg     rms          rms(c)
DAV:   1    -0.329001103224E+03    0.38746E-01   -0.85568E-03  2896   0.989E-01    0.448E-02
RMM:   2    -0.329001413715E+03   -0.31049E-03   -0.32109E-03  1681   0.756E-02    0.184E-02
RMM:   3    -0.329001441400E+03   -0.27685E-04   -0.29534E-04  1924   0.212E-02    0.174E-02
RMM:   4    -0.329001442376E+03   -0.97529E-06   -0.22846E-05  1087   0.677E-03    0.118E-02
RMM:   5    -0.329001442686E+03   -0.31045E-06   -0.70902E-06  1002   0.417E-03
  489 T=   335. E= -.32881515E+03 F= -.32900144E+03 E0= -.32902821E+03  EK= 0.30700E+01 SP= -.29E+01 SK= 0.73E-02
       N       E                     dE             d eps       ncg     rms          rms(c)
DAV:   1    -0.328947187846E+03    0.54255E-01   -0.84078E-03  2864   0.973E-01    0.470E-02
RMM:   2    -0.328947500677E+03   -0.31283E-03   -0.32331E-03  1676   0.764E-02    0.163E-02
RMM:   3    -0.328947527821E+03   -0.27144E-04   -0.28822E-04  1917   0.213E-02    0.159E-02
RMM:   4    -0.328947529045E+03   -0.12234E-05   -0.23306E-05  1095   0.679E-03    0.109E-02
RMM:   5    -0.328947529391E+03   -0.34601E-06   -0.63156E-06  1002   0.403E-03
  490 T=   324. E= -.32881443E+03 F= -.32894753E+03 E0= -.32897424E+03  EK= 0.29780E+01 SP= -.29E+01 SK= 0.11E-01
       N       E                     dE             d eps       ncg     rms          rms(c)
DAV:   1    -0.328881317376E+03    0.66212E-01   -0.79132E-03  2848   0.953E-01    0.425E-02
RMM:   2    -0.328881619028E+03   -0.30165E-03   -0.31080E-03  1680   0.756E-02    0.174E-02
RMM:   3    -0.328881645056E+03   -0.26028E-04   -0.27765E-04  1906   0.210E-02    0.169E-02
RMM:   4    -0.328881646393E+03   -0.13368E-05   -0.23095E-05  1092   0.675E-03    0.124E-02
RMM:   5    -0.328881646667E+03   -0.27364E-06   -0.66770E-06  1002   0.411E-03
  491 T=   313. E= -.32881359E+03 F= -.32888165E+03 E0= -.32890834E+03  EK= 0.28694E+01 SP= -.28E+01 SK= 0.13E-01
       N       E                     dE             d eps       ncg     rms          rms(c)
DAV:   1    -0.328807925725E+03    0.73721E-01   -0.69981E-03  2848   0.929E-01    0.441E-02
RMM:   2    -0.328808215521E+03   -0.28980E-03   -0.29943E-03  1678   0.741E-02    0.151E-02
RMM:   3    -0.328808242559E+03   -0.27038E-04   -0.28353E-04  1932   0.209E-02    0.151E-02
RMM:   4    -0.328808243871E+03   -0.13117E-05   -0.21493E-05  1084   0.660E-03    0.110E-02
RMM:   5    -0.328808244175E+03   -0.30457E-06   -0.61700E-06  1004   0.398E-03
  492 T=   300. E= -.32881245E+03 F= -.32880824E+03 E0= -.32883494E+03  EK= 0.27524E+01 SP= -.28E+01 SK= 0.14E-01
       N       E                     dE             d eps       ncg     rms          rms(c)
DAV:   1    -0.328732072302E+03    0.76172E-01   -0.69559E-03  2896   0.902E-01    0.432E-02
RMM:   2    -0.328732378704E+03   -0.30640E-03   -0.31494E-03  1687   0.749E-02    0.152E-02
RMM:   3    -0.328732406657E+03   -0.27953E-04   -0.29458E-04  1943   0.212E-02    0.151E-02
RMM:   4    -0.328732407964E+03   -0.13072E-05   -0.21791E-05  1085   0.658E-03    0.107E-02
RMM:   5    -0.328732408263E+03   -0.29950E-06   -0.60332E-06  1001   0.393E-03
  493 T=   287. E= -.32881135E+03 F= -.32873241E+03 E0= -.32875913E+03  EK= 0.26348E+01 SP= -.27E+01 SK= 0.13E-01
       N       E                     dE             d eps       ncg     rms          rms(c)
DAV:   1    -0.328657372457E+03    0.75036E-01   -0.71116E-03  2864   0.875E-01    0.423E-02
RMM:   2    -0.328657664523E+03   -0.29207E-03   -0.29991E-03  1676   0.746E-02    0.154E-02
RMM:   3    -0.328657688792E+03   -0.24269E-04   -0.25569E-04  1896   0.205E-02    0.151E-02
RMM:   4    -0.328657690080E+03   -0.12883E-05   -0.20487E-05  1073   0.662E-03    0.104E-02
RMM:   5    -0.328657690497E+03   -0.41685E-06   -0.61684E-06  1002   0.398E-03
  494 T=   275. E= -.32881032E+03 F= -.32865769E+03 E0= -.32868444E+03  EK= 0.25228E+01 SP= -.27E+01 SK= 0.11E-01
       N       E                     dE             d eps       ncg     rms          rms(c)
DAV:   1    -0.328587003757E+03    0.70686E-01   -0.58017E-03  2816   0.850E-01    0.402E-02
RMM:   2    -0.328587256106E+03   -0.25235E-03   -0.26050E-03  1681   0.692E-02    0.149E-02
RMM:   3    -0.328587277294E+03   -0.21189E-04   -0.22654E-04  1869   0.193E-02    0.145E-02
RMM:   4    -0.328587278367E+03   -0.10731E-05   -0.18757E-05  1053   0.640E-03    0.105E-02
RMM:   5    -0.328587278688E+03   -0.32035E-06   -0.65189E-06  1004   0.402E-03
  495 T=   264. E= -.32880957E+03 F= -.32858728E+03 E0= -.32861404E+03  EK= 0.24214E+01 SP= -.27E+01 SK= 0.71E-02
       N       E                     dE             d eps       ncg     rms          rms(c)
DAV:   1    -0.328524156208E+03    0.63122E-01   -0.57518E-03  2880   0.827E-01    0.388E-02
RMM:   2    -0.328524411866E+03   -0.25566E-03   -0.26270E-03  1676   0.689E-02    0.144E-02
RMM:   3    -0.328524435101E+03   -0.23235E-04   -0.24304E-04  1887   0.194E-02    0.140E-02
RMM:   4    -0.328524436408E+03   -0.13075E-05   -0.19397E-05  1062   0.639E-03    0.101E-02
RMM:   5    -0.328524436792E+03   -0.38395E-06   -0.58846E-06  1002   0.390E-03
  496 T=   254. E= -.32880929E+03 F= -.32852444E+03 E0= -.32855121E+03  EK= 0.23354E+01 SP= -.26E+01 SK= 0.35E-02
       N       E                     dE             d eps       ncg     rms          rms(c)
DAV:   1    -0.328470119427E+03    0.54317E-01   -0.64391E-03  2816   0.807E-01    0.409E-02
RMM:   2    -0.328470393119E+03   -0.27369E-03   -0.28057E-03  1674   0.709E-02    0.156E-02
RMM:   3    -0.328470414825E+03   -0.21706E-04   -0.23163E-04  1858   0.196E-02    0.148E-02
RMM:   4    -0.328470416169E+03   -0.13436E-05   -0.21064E-05  1073   0.661E-03    0.969E-03
RMM:   5    -0.328470416663E+03   -0.49476E-06   -0.62533E-06  1001   0.398E-03
  497 T=   247. E= -.32880890E+03 F= -.32847042E+03 E0= -.32849718E+03  EK= 0.22678E+01 SP= -.26E+01 SK= 0.84E-03
       N       E                     dE             d eps       ncg     rms          rms(c)
DAV:   1    -0.328425858525E+03    0.44558E-01   -0.62241E-03  2800   0.792E-01    0.400E-02
RMM:   2    -0.328426132629E+03   -0.27410E-03   -0.28060E-03  1679   0.698E-02    0.161E-02
RMM:   3    -0.328426155079E+03   -0.22450E-04   -0.24190E-04  1853   0.195E-02    0.150E-02
RMM:   4    -0.328426156333E+03   -0.12540E-05   -0.21103E-05  1078   0.656E-03    0.995E-03
RMM:   5    -0.328426156746E+03   -0.41336E-06   -0.60805E-06  1003   0.396E-03
  498 T=   242. E= -.32880852E+03 F= -.32842616E+03 E0= -.32845291E+03  EK= 0.22200E+01 SP= -.26E+01 SK= 0.25E-04
       N       E                     dE             d eps       ncg     rms          rms(c)
DAV:   1    -0.328392124696E+03    0.34032E-01   -0.49030E-03  2816   0.782E-01    0.388E-02
RMM:   2    -0.328392352186E+03   -0.22749E-03   -0.23400E-03  1685   0.643E-02    0.148E-02
RMM:   3    -0.328392372124E+03   -0.19938E-04   -0.21475E-04  1840   0.182E-02    0.139E-02
RMM:   4    -0.328392373313E+03   -0.11881E-05   -0.19160E-05  1060   0.624E-03    0.963E-03
RMM:   5    -0.328392373655E+03   -0.34238E-06   -0.55775E-06  1002   0.379E-03
  499 T=   239. E= -.32880794E+03 F= -.32839237E+03 E0= -.32841911E+03  EK= 0.21935E+01 SP= -.26E+01 SK= 0.17E-02
       N       E                     dE             d eps       ncg     rms          rms(c)
DAV:   1    -0.328370063377E+03    0.22310E-01   -0.42752E-03  2864   0.777E-01    0.362E-02
RMM:   2    -0.328370273006E+03   -0.20963E-03   -0.21562E-03  1674   0.623E-02    0.154E-02
RMM:   3    -0.328370290221E+03   -0.17215E-04   -0.18739E-04  1806   0.174E-02    0.144E-02
RMM:   4    -0.328370291284E+03   -0.10625E-05   -0.18758E-05  1056   0.624E-03    0.984E-03
RMM:   5    -0.328370291613E+03   -0.32932E-06   -0.59413E-06   998   0.384E-03
  500 T=   239. E= -.32880808E+03 F= -.32837029E+03 E0= -.32839702E+03  EK= 0.21890E+01 SP= -.26E+01 SK= 0.63E-02
       N       E                     dE             d eps       ncg     rms          rms(c)
DAV:   1    -0.328358899265E+03    0.11392E-01   -0.46823E-03  2880   0.777E-01    0.389E-02
RMM:   2    -0.328359111483E+03   -0.21222E-03   -0.21850E-03  1671   0.635E-02    0.149E-02
RMM:   3    -0.328359127626E+03   -0.16143E-04   -0.17755E-04  1782   0.174E-02    0.140E-02
RMM:   4    -0.328359128800E+03   -0.11742E-05   -0.19035E-05  1056   0.638E-03    0.955E-03
RMM:   5    -0.328359129204E+03   -0.40402E-06   -0.59035E-06  1003   0.387E-03
  501 T=   240. E= -.32880798E+03 F= -.32835913E+03 E0= -.32838586E+03  EK= 0.22069E+01 SP= -.27E+01 SK= 0.14E-01
       N       E                     dE             d eps       ncg     rms          rms(c)
DAV:   1    -0.328358546941E+03    0.58186E-03   -0.40993E-03  2896   0.783E-01    0.381E-02
RMM:   2    -0.328358759746E+03   -0.21280E-03   -0.21900E-03  1671   0.632E-02    0.159E-02
RMM:   3    -0.328358776487E+03   -0.16741E-04   -0.18540E-04  1817   0.175E-02    0.149E-02
RMM:   4    -0.328358777388E+03   -0.90111E-06   -0.18050E-05  1049   0.618E-03    0.105E-02
RMM:   5    -0.328358777635E+03   -0.24743E-06   -0.58809E-06  1001   0.382E-03
  502 T=   245. E= -.32880821E+03 F= -.32835878E+03 E0= -.32838552E+03  EK= 0.22465E+01 SP= -.27E+01 SK= 0.23E-01
       N       E                     dE             d eps       ncg     rms          rms(c)
DAV:   1    -0.328368174985E+03   -0.93976E-02   -0.44815E-03  2848   0.795E-01    0.391E-02
RMM:   2    -0.328368395990E+03   -0.22101E-03   -0.22718E-03  1669   0.642E-02    0.161E-02
RMM:   3    -0.328368412884E+03   -0.16893E-04   -0.18752E-04  1807   0.176E-02    0.150E-02
RMM:   4    -0.328368413876E+03   -0.99216E-06   -0.18518E-05  1050   0.626E-03    0.101E-02
RMM:   5    -0.328368414221E+03   -0.34545E-06   -0.61430E-06  1002   0.390E-03
  503 T=   251. E= -.32880872E+03 F= -.32836841E+03 E0= -.32839517E+03  EK= 0.23072E+01 SP= -.28E+01 SK= 0.34E-01
       N       E                     dE             d eps       ncg     rms          rms(c)
DAV:   1    -0.328386738576E+03   -0.18325E-01   -0.38284E-03  2832   0.811E-01    0.400E-02
RMM:   2    -0.328386962003E+03   -0.22343E-03   -0.22999E-03  1672   0.643E-02    0.160E-02
RMM:   3    -0.328386979524E+03   -0.17520E-04   -0.19357E-04  1817   0.178E-02    0.149E-02
RMM:   4    -0.328386980355E+03   -0.83150E-06   -0.18565E-05  1055   0.630E-03    0.102E-02
RMM:   5    -0.328386980628E+03   -0.27299E-06   -0.62147E-06  1004   0.393E-03
  504 T=   260. E= -.32880917E+03 F= -.32838698E+03 E0= -.32841375E+03  EK= 0.23878E+01 SP= -.29E+01 SK= 0.44E-01
       N       E                     dE             d eps       ncg     rms          rms(c)
DAV:   1    -0.328412851885E+03   -0.25872E-01   -0.37926E-03  2896   0.830E-01    0.394E-02
RMM:   2    -0.328413063509E+03   -0.21162E-03   -0.21780E-03  1669   0.636E-02    0.160E-02
RMM:   3    -0.328413080637E+03   -0.17128E-04   -0.18603E-04  1803   0.175E-02    0.150E-02
RMM:   4    -0.328413081603E+03   -0.96544E-06   -0.17701E-05  1049   0.616E-03    0.105E-02
RMM:   5    -0.328413081920E+03   -0.31740E-06   -0.61925E-06  1001   0.387E-03
  505 T=   271. E= -.32880970E+03 F= -.32841308E+03 E0= -.32843985E+03  EK= 0.24862E+01 SP= -.29E+01 SK= 0.54E-01
       N       E                     dE             d eps       ncg     rms          rms(c)
DAV:   1    -0.328445316642E+03   -0.32235E-01   -0.34676E-03  2912   0.853E-01    0.400E-02
RMM:   2    -0.328445518549E+03   -0.20191E-03   -0.20848E-03  1669   0.623E-02    0.153E-02
RMM:   3    -0.328445534724E+03   -0.16175E-04   -0.17724E-04  1767   0.171E-02    0.143E-02
RMM:   4    -0.328445535532E+03   -0.80810E-06   -0.17587E-05  1047   0.624E-03    0.956E-03
RMM:   5    -0.328445535842E+03   -0.31044E-06   -0.60367E-06   999   0.391E-03
  506 T=   283. E= -.32881061E+03 F= -.32844554E+03 E0= -.32847228E+03  EK= 0.25998E+01 SP= -.30E+01 SK= 0.61E-01
       N       E                     dE             d eps       ncg     rms          rms(c)
DAV:   1    -0.328481973087E+03   -0.36438E-01   -0.37344E-03  2848   0.878E-01    0.397E-02
RMM:   2    -0.328482170333E+03   -0.19725E-03   -0.20369E-03  1668   0.627E-02    0.155E-02
RMM:   3    -0.328482186194E+03   -0.15860E-04   -0.17304E-04  1775   0.171E-02    0.148E-02
RMM:   4    -0.328482187134E+03   -0.94082E-06   -0.17178E-05  1042   0.616E-03    0.104E-02
RMM:   5    -0.328482187458E+03   -0.32340E-06   -0.61154E-06   997   0.389E-03
  507 T=   297. E= -.32881160E+03 F= -.32848219E+03 E0= -.32850888E+03  EK= 0.27250E+01 SP= -.31E+01 SK= 0.64E-01
       N       E                     dE             d eps       ncg     rms          rms(c)
DAV:   1    -0.328519512469E+03   -0.37325E-01   -0.37816E-03  2912   0.904E-01    0.418E-02
RMM:   2    -0.328519736686E+03   -0.22422E-03   -0.23133E-03  1668   0.651E-02    0.152E-02
RMM:   3    -0.328519755184E+03   -0.18498E-04   -0.19984E-04  1820   0.180E-02    0.145E-02
RMM:   4    -0.328519756190E+03   -0.10064E-05   -0.18784E-05  1060   0.630E-03    0.100E-02
RMM:   5    -0.328519756505E+03   -0.31437E-06   -0.61247E-06  1001   0.393E-03
  508 T=   311. E= -.32881269E+03 F= -.32851976E+03 E0= -.32854635E+03  EK= 0.28560E+01 SP= -.32E+01 SK= 0.62E-01
       N       E                     dE             d eps       ncg     rms          rms(c)
DAV:   1    -0.328554064452E+03   -0.34308E-01   -0.49363E-03  2864   0.930E-01    0.450E-02
RMM:   2    -0.328554331065E+03   -0.26661E-03   -0.27394E-03  1668   0.700E-02    0.157E-02
RMM:   3    -0.328554352027E+03   -0.20961E-04   -0.22556E-04  1848   0.192E-02    0.151E-02
RMM:   4    -0.328554353155E+03   -0.11281E-05   -0.20391E-05  1078   0.650E-03    0.103E-02
RMM:   5    -0.328554353474E+03   -0.31949E-06   -0.62181E-06   998   0.397E-03
  509 T=   325. E= -.32881354E+03 F= -.32855435E+03 E0= -.32858080E+03  EK= 0.29860E+01 SP= -.33E+01 SK= 0.57E-01
       N       E                     dE             d eps       ncg     rms          rms(c)
DAV:   1    -0.328582829267E+03   -0.28476E-01   -0.63195E-03  2800   0.954E-01    0.462E-02
RMM:   2    -0.328583147744E+03   -0.31848E-03   -0.32653E-03  1670   0.756E-02    0.169E-02
RMM:   3    -0.328583172310E+03   -0.24566E-04   -0.26305E-04  1863   0.207E-02    0.166E-02
RMM:   4    -0.328583173731E+03   -0.14208E-05   -0.22906E-05  1088   0.681E-03    0.125E-02
RMM:   5    -0.328583173897E+03   -0.16631E-06   -0.69326E-06  1003   0.416E-03
  510 T=   339. E= -.32881471E+03 F= -.32858317E+03 E0= -.32860942E+03  EK= 0.31076E+01 SP= -.34E+01 SK= 0.48E-01
       N       E                     dE             d eps       ncg     rms          rms(c)
DAV:   1    -0.328601856380E+03   -0.18683E-01   -0.53961E-03  2848   0.974E-01    0.471E-02
RMM:   2    -0.328602138098E+03   -0.28172E-03   -0.29026E-03  1669   0.733E-02    0.160E-02
RMM:   3    -0.328602160138E+03   -0.22039E-04   -0.23496E-04  1870   0.200E-02    0.156E-02
RMM:   4    -0.328602161348E+03   -0.12099E-05   -0.20779E-05  1075   0.661E-03    0.107E-02
RMM:   5    -0.328602161710E+03   -0.36219E-06   -0.64454E-06  1003   0.404E-03
  511 T=   350. E= -.32881535E+03 F= -.32860216E+03 E0= -.32862816E+03  EK= 0.32134E+01 SP= -.35E+01 SK= 0.37E-01
       N       E                     dE             d eps       ncg     rms          rms(c)
DAV:   1    -0.328608588835E+03   -0.64275E-02   -0.55437E-03  2848   0.987E-01    0.471E-02
RMM:   2    -0.328608867031E+03   -0.27820E-03   -0.28730E-03  1668   0.739E-02    0.189E-02
RMM:   3    -0.328608889684E+03   -0.22653E-04   -0.25034E-04  1885   0.204E-02    0.184E-02
RMM:   4    -0.328608890500E+03   -0.81653E-06   -0.21648E-05  1084   0.671E-03    0.133E-02
RMM:   5    -0.328608890544E+03   -0.43459E-07   -0.73859E-06  1004   0.425E-03
  512 T=   359. E= -.32881567E+03 F= -.32860889E+03 E0= -.32863459E+03  EK= 0.32965E+01 SP= -.35E+01 SK= 0.25E-01
       N       E                     dE             d eps       ncg     rms          rms(c)
DAV:   1    -0.328601954625E+03    0.69359E-02   -0.56265E-03  2880   0.994E-01    0.482E-02
RMM:   2    -0.328602241685E+03   -0.28706E-03   -0.29733E-03  1674   0.744E-02    0.197E-02
RMM:   3    -0.328602266847E+03   -0.25162E-04   -0.27150E-04  1898   0.206E-02    0.190E-02
RMM:   4    -0.328602267865E+03   -0.10176E-05   -0.22699E-05  1095   0.673E-03    0.133E-02
RMM:   5    -0.328602268055E+03   -0.18975E-06   -0.72169E-06  1006   0.421E-03
  513 T=   365. E= -.32881573E+03 F= -.32860227E+03 E0= -.32862763E+03  EK= 0.33520E+01 SP= -.36E+01 SK= 0.14E-01
       N       E                     dE             d eps       ncg     rms          rms(c)
DAV:   1    -0.328583453337E+03    0.18815E-01   -0.67740E-03  2832   0.994E-01    0.518E-02
RMM:   2    -0.328583778141E+03   -0.32480E-03   -0.33590E-03  1666   0.790E-02    0.202E-02
RMM:   3    -0.328583803611E+03   -0.25470E-04   -0.28047E-04  1892   0.215E-02    0.197E-02
RMM:   4    -0.328583804404E+03   -0.79283E-06   -0.24064E-05  1087   0.703E-03    0.141E-02
RMM:   5    -0.328583804367E+03    0.36842E-07   -0.82597E-06  1005   0.443E-03
  514 T=   368. E= -.32881594E+03 F= -.32858380E+03 E0= -.32860880E+03  EK= 0.33783E+01 SP= -.36E+01 SK= 0.62E-02
       N       E                     dE             d eps       ncg     rms          rms(c)
DAV:   1    -0.328554995466E+03    0.28809E-01   -0.64954E-03  2848   0.988E-01    0.524E-02
RMM:   2    -0.328555302719E+03   -0.30725E-03   -0.31795E-03  1666   0.780E-02    0.204E-02
RMM:   3    -0.328555326346E+03   -0.23627E-04   -0.26063E-04  1886   0.210E-02    0.193E-02
RMM:   4    -0.328555327123E+03   -0.77698E-06   -0.24172E-05  1094   0.702E-03    0.125E-02
RMM:   5    -0.328555327361E+03   -0.23810E-06   -0.71848E-06  1005   0.425E-03
  515 T=   368. E= -.32881563E+03 F= -.32855533E+03 E0= -.32857994E+03  EK= 0.33763E+01 SP= -.36E+01 SK= 0.14E-02
       N       E                     dE             d eps       ncg     rms          rms(c)
DAV:   1    -0.328521510702E+03    0.33816E-01   -0.60094E-03  2928   0.977E-01    0.493E-02
RMM:   2    -0.328521824168E+03   -0.31347E-03   -0.32429E-03  1673   0.788E-02    0.228E-02
RMM:   3    -0.328521849792E+03   -0.25624E-04   -0.28367E-04  1908   0.213E-02    0.215E-02
RMM:   4    -0.328521850009E+03   -0.21748E-06   -0.22636E-05  1082   0.692E-03    0.144E-02
RMM:   5    -0.328521850041E+03   -0.32003E-07   -0.78397E-06  1006   0.437E-03
  516 T=   365. E= -.32881513E+03 F= -.32852185E+03 E0= -.32854606E+03  EK= 0.33507E+01 SP= -.36E+01 SK= 0.14E-04
       N       E                     dE             d eps       ncg     rms          rms(c)
DAV:   1    -0.328489779648E+03    0.32070E-01   -0.65517E-03  2912   0.962E-01    0.504E-02
RMM:   2    -0.328490089351E+03   -0.30970E-03   -0.32089E-03  1669   0.795E-02    0.224E-02
RMM:   3    -0.328490114697E+03   -0.25346E-04   -0.27709E-04  1898   0.212E-02    0.208E-02
RMM:   4    -0.328490115318E+03   -0.62058E-06   -0.24009E-05  1090   0.702E-03    0.131E-02
RMM:   5    -0.328490115558E+03   -0.24047E-06   -0.73402E-06  1006   0.426E-03
  517 T=   361. E= -.32881477E+03 F= -.32849012E+03 E0= -.32851393E+03  EK= 0.33089E+01 SP= -.36E+01 SK= 0.18E-02
       N       E                     dE             d eps       ncg     rms          rms(c)
DAV:   1    -0.328465381164E+03    0.24734E-01   -0.66895E-03  2928   0.947E-01    0.518E-02
RMM:   2    -0.328465676940E+03   -0.29578E-03   -0.30653E-03  1676   0.781E-02    0.205E-02
RMM:   3    -0.328465701206E+03   -0.24266E-04   -0.26807E-04  1856   0.207E-02    0.190E-02
RMM:   4    -0.328465701717E+03   -0.51080E-06   -0.22587E-05  1078   0.694E-03    0.123E-02
RMM:   5    -0.328465701953E+03   -0.23643E-06   -0.67067E-06  1005   0.415E-03
  518 T=   355. E= -.32881405E+03 F= -.32846570E+03 E0= -.32848912E+03  EK= 0.32585E+01 SP= -.36E+01 SK= 0.61E-02
       N       E                     dE             d eps       ncg     rms          rms(c)
DAV:   1    -0.328453731392E+03    0.11970E-01   -0.69688E-03  2896   0.934E-01    0.478E-02
RMM:   2    -0.328454022942E+03   -0.29155E-03   -0.30089E-03  1679   0.765E-02    0.211E-02
RMM:   3    -0.328454047628E+03   -0.24686E-04   -0.26962E-04  1860   0.204E-02    0.195E-02
RMM:   4    -0.328454048365E+03   -0.73704E-06   -0.22707E-05  1080   0.689E-03    0.126E-02
RMM:   5    -0.328454048645E+03   -0.27971E-06   -0.70046E-06  1003   0.420E-03
  519 T=   349. E= -.32881345E+03 F= -.32845405E+03 E0= -.32847708E+03  EK= 0.32065E+01 SP= -.36E+01 SK= 0.12E-01
       N       E                     dE             d eps       ncg     rms          rms(c)
DAV:   1    -0.328458805999E+03   -0.47576E-02   -0.68255E-03  2896   0.924E-01    0.488E-02
RMM:   2    -0.328459112131E+03   -0.30613E-03   -0.31595E-03  1684   0.766E-02    0.178E-02
RMM:   3    -0.328459139313E+03   -0.27182E-04   -0.29346E-04  1889   0.208E-02    0.170E-02
RMM:   4    -0.328459140281E+03   -0.96854E-06   -0.22007E-05  1085   0.670E-03    0.118E-02
RMM:   5    -0.328459140488E+03   -0.20653E-06   -0.66189E-06  1003   0.410E-03
  520 T=   344. E= -.32881320E+03 F= -.32845914E+03 E0= -.32848179E+03  EK= 0.31586E+01 SP= -.35E+01 SK= 0.19E-01
       N       E                     dE             d eps       ncg     rms          rms(c)
DAV:   1    -0.328481474821E+03   -0.22335E-01   -0.66759E-03  2864   0.919E-01    0.451E-02
RMM:   2    -0.328481758117E+03   -0.28330E-03   -0.29186E-03  1672   0.735E-02    0.174E-02
RMM:   3    -0.328481782347E+03   -0.24230E-04   -0.25920E-04  1867   0.202E-02    0.165E-02
RMM:   4    -0.328481783383E+03   -0.10368E-05   -0.21609E-05  1080   0.665E-03    0.108E-02
RMM:   5    -0.328481783740E+03   -0.35711E-06   -0.65622E-06  1003   0.405E-03
  521 T=   340. E= -.32881295E+03 F= -.32848178E+03 E0= -.32850408E+03  EK= 0.31177E+01 SP= -.35E+01 SK= 0.27E-01
       N       E                     dE             d eps       ncg     rms          rms(c)
DAV:   1    -0.328520446086E+03   -0.38663E-01   -0.69734E-03  2848   0.920E-01    0.434E-02
RMM:   2    -0.328520715193E+03   -0.26911E-03   -0.27769E-03  1669   0.727E-02    0.163E-02
RMM:   3    -0.328520737757E+03   -0.22564E-04   -0.24214E-04  1868   0.198E-02    0.158E-02
RMM:   4    -0.328520738668E+03   -0.91164E-06   -0.20285E-05  1060   0.656E-03    0.108E-02
RMM:   5    -0.328520738952E+03   -0.28334E-06   -0.64569E-06  1001   0.403E-03
  522 T=   336. E= -.32881302E+03 F= -.32852074E+03 E0= -.32854270E+03  EK= 0.30833E+01 SP= -.34E+01 SK= 0.35E-01
       N       E                     dE             d eps       ncg     rms          rms(c)
DAV:   1    -0.328572114200E+03   -0.51376E-01   -0.55885E-03  2896   0.927E-01    0.419E-02
RMM:   2    -0.328572341421E+03   -0.22722E-03   -0.23521E-03  1675   0.684E-02    0.157E-02
RMM:   3    -0.328572360762E+03   -0.19341E-04   -0.20854E-04  1830   0.185E-02    0.151E-02
RMM:   4    -0.328572361606E+03   -0.84399E-06   -0.18271E-05  1054   0.635E-03    0.100E-02
RMM:   5    -0.328572361939E+03   -0.33275E-06   -0.60174E-06  1002   0.391E-03
  523 T=   333. E= -.32881341E+03 F= -.32857236E+03 E0= -.32859401E+03  EK= 0.30530E+01 SP= -.33E+01 SK= 0.44E-01
       N       E                     dE             d eps       ncg     rms          rms(c)
DAV:   1    -0.328630610710E+03   -0.58249E-01   -0.48005E-03  2912   0.936E-01    0.432E-02
RMM:   2    -0.328630847556E+03   -0.23685E-03   -0.24522E-03  1677   0.677E-02    0.157E-02
RMM:   3    -0.328630868202E+03   -0.20647E-04   -0.22345E-04  1851   0.188E-02    0.150E-02
RMM:   4    -0.328630868915E+03   -0.71324E-06   -0.18582E-05  1056   0.635E-03    0.102E-02
RMM:   5    -0.328630869184E+03   -0.26892E-06   -0.60684E-06  1001   0.394E-03
  524 T=   329. E= -.32881372E+03 F= -.32863087E+03 E0= -.32865223E+03  EK= 0.30223E+01 SP= -.33E+01 SK= 0.52E-01
       N       E                     dE             d eps       ncg     rms          rms(c)
DAV:   1    -0.328689734763E+03   -0.58866E-01   -0.58461E-03  2896   0.944E-01    0.428E-02
RMM:   2    -0.328689997773E+03   -0.26301E-03   -0.27088E-03  1672   0.717E-02    0.180E-02
RMM:   3    -0.328690018484E+03   -0.20711E-04   -0.22477E-04  1834   0.193E-02    0.169E-02
RMM:   4    -0.328690019348E+03   -0.86422E-06   -0.20057E-05  1064   0.660E-03    0.112E-02
RMM:   5    -0.328690019704E+03   -0.35600E-06   -0.65003E-06  1000   0.405E-03
  525 T=   325. E= -.32881425E+03 F= -.32869002E+03 E0= -.32871112E+03  EK= 0.29858E+01 SP= -.32E+01 SK= 0.60E-01
       N       E                     dE             d eps       ncg     rms          rms(c)
DAV:   1    -0.328743137760E+03   -0.53118E-01   -0.57409E-03  2976   0.951E-01    0.460E-02
RMM:   2    -0.328743368678E+03   -0.23092E-03   -0.23949E-03  1668   0.703E-02    0.177E-02
RMM:   3    -0.328743387233E+03   -0.18555E-04   -0.20431E-04  1826   0.187E-02    0.163E-02
RMM:   4    -0.328743387646E+03   -0.41297E-06   -0.18000E-05  1041   0.650E-03    0.958E-03
RMM:   5    -0.328743388111E+03   -0.46432E-06   -0.63701E-06  1000   0.401E-03
  526 T=   320. E= -.32881461E+03 F= -.32874339E+03 E0= -.32876424E+03  EK= 0.29388E+01 SP= -.31E+01 SK= 0.67E-01
       N       E                     dE             d eps       ncg     rms          rms(c)
DAV:   1    -0.328786088768E+03   -0.42701E-01   -0.45640E-03  2912   0.954E-01    0.422E-02
RMM:   2    -0.328786312897E+03   -0.22413E-03   -0.23256E-03  1671   0.668E-02    0.201E-02
RMM:   3    -0.328786330902E+03   -0.18005E-04   -0.20392E-04  1861   0.183E-02    0.184E-02
RMM:   4    -0.328786330902E+03    0.50204E-09   -0.18121E-05  1045   0.631E-03    0.115E-02
RMM:   5    -0.328786331195E+03   -0.29303E-06   -0.72024E-06  1000   0.412E-03
  527 T=   314. E= -.32881464E+03 F= -.32878633E+03 E0= -.32880694E+03  EK= 0.28787E+01 SP= -.30E+01 SK= 0.72E-01
       N       E                     dE             d eps       ncg     rms          rms(c)
DAV:   1    -0.328816625915E+03   -0.30295E-01   -0.52631E-03  2928   0.951E-01    0.458E-02
RMM:   2    -0.328816861216E+03   -0.23530E-03   -0.24433E-03  1670   0.687E-02    0.181E-02
RMM:   3    -0.328816880043E+03   -0.18827E-04   -0.20746E-04  1852   0.187E-02    0.167E-02
RMM:   4    -0.328816880606E+03   -0.56232E-06   -0.18576E-05  1054   0.637E-03    0.104E-02
RMM:   5    -0.328816880950E+03   -0.34449E-06   -0.64953E-06  1002   0.398E-03
  528 T=   306. E= -.32881459E+03 F= -.32881688E+03 E0= -.32883723E+03  EK= 0.28054E+01 SP= -.29E+01 SK= 0.76E-01
       N       E                     dE             d eps       ncg     rms          rms(c)
DAV:   1    -0.328833729650E+03   -0.16849E-01   -0.54199E-03  2960   0.942E-01    0.434E-02
RMM:   2    -0.328833945527E+03   -0.21588E-03   -0.22439E-03  1667   0.670E-02    0.179E-02
RMM:   3    -0.328833962346E+03   -0.16819E-04   -0.18823E-04  1815   0.181E-02    0.167E-02
RMM:   4    -0.328833962668E+03   -0.32251E-06   -0.17395E-05  1042   0.641E-03    0.109E-02
RMM:   5    -0.328833962933E+03   -0.26502E-06   -0.64139E-06  1000   0.397E-03
  529 T=   296. E= -.32881410E+03 F= -.32883396E+03 E0= -.32885405E+03  EK= 0.27208E+01 SP= -.28E+01 SK= 0.76E-01
       N       E                     dE             d eps       ncg     rms          rms(c)
DAV:   1    -0.328838160804E+03   -0.41981E-02   -0.53339E-03  2944   0.929E-01    0.436E-02
RMM:   2    -0.328838385607E+03   -0.22480E-03   -0.23327E-03  1673   0.670E-02    0.170E-02
RMM:   3    -0.328838404089E+03   -0.18481E-04   -0.20188E-04  1855   0.185E-02    0.163E-02
RMM:   4    -0.328838404682E+03   -0.59337E-06   -0.16875E-05  1041   0.622E-03    0.112E-02
RMM:   5    -0.328838404939E+03   -0.25709E-06   -0.64180E-06   999   0.394E-03
  530 T=   286. E= -.32881335E+03 F= -.32883840E+03 E0= -.32885820E+03  EK= 0.26278E+01 SP= -.27E+01 SK= 0.73E-01
       N       E                     dE             d eps       ncg     rms          rms(c)
DAV:   1    -0.328832741610E+03    0.56631E-02   -0.55757E-03  2864   0.911E-01    0.437E-02
RMM:   2    -0.328832992026E+03   -0.25042E-03   -0.25928E-03  1674   0.688E-02    0.172E-02
RMM:   3    -0.328833012663E+03   -0.20637E-04   -0.22508E-04  1866   0.191E-02    0.166E-02
RMM:   4    -0.328833013340E+03   -0.67675E-06   -0.18416E-05  1056   0.636E-03    0.116E-02
RMM:   5    -0.328833013544E+03   -0.20453E-06   -0.67458E-06  1002   0.408E-03
  531 T=   276. E= -.32881281E+03 F= -.32883301E+03 E0= -.32885250E+03  EK= 0.25311E+01 SP= -.26E+01 SK= 0.67E-01
       N       E                     dE             d eps       ncg     rms          rms(c)
DAV:   1    -0.328820370276E+03    0.12643E-01   -0.55523E-03  2864   0.890E-01    0.433E-02
RMM:   2    -0.328820593180E+03   -0.22290E-03   -0.23140E-03  1669   0.659E-02    0.166E-02
RMM:   3    -0.328820611538E+03   -0.18359E-04   -0.20122E-04  1851   0.183E-02    0.161E-02
RMM:   4    -0.328820612150E+03   -0.61161E-06   -0.16466E-05  1038   0.616E-03    0.111E-02
RMM:   5    -0.328820612474E+03   -0.32449E-06   -0.65985E-06  1000   0.398E-03
  532 T=   265. E= -.32881191E+03 F= -.32882061E+03 E0= -.32883977E+03  EK= 0.24361E+01 SP= -.25E+01 SK= 0.58E-01
       N       E                     dE             d eps       ncg     rms          rms(c)
DAV:   1    -0.328805586098E+03    0.15026E-01   -0.51853E-03  2848   0.867E-01    0.413E-02
RMM:   2    -0.328805800008E+03   -0.21391E-03   -0.22198E-03  1671   0.648E-02    0.168E-02
RMM:   3    -0.328805817679E+03   -0.17671E-04   -0.19569E-04  1834   0.181E-02    0.163E-02
RMM:   4    -0.328805818228E+03   -0.54932E-06   -0.17321E-05  1038   0.633E-03    0.113E-02
RMM:   5    -0.328805818441E+03   -0.21277E-06   -0.68442E-06   999   0.406E-03
  533 T=   256. E= -.32881101E+03 F= -.32880582E+03 E0= -.32882463E+03  EK= 0.23485E+01 SP= -.24E+01 SK= 0.47E-01
       N       E                     dE             d eps       ncg     rms          rms(c)
DAV:   1    -0.328793060548E+03    0.12758E-01   -0.51331E-03  2864   0.844E-01    0.408E-02
RMM:   2    -0.328793255372E+03   -0.19482E-03   -0.20240E-03  1669   0.624E-02    0.155E-02
RMM:   3    -0.328793271734E+03   -0.16362E-04   -0.17906E-04  1804   0.173E-02    0.148E-02
RMM:   4    -0.328793272385E+03   -0.65122E-06   -0.16088E-05  1032   0.610E-03    0.970E-03
RMM:   5    -0.328793272723E+03   -0.33794E-06   -0.61532E-06   998   0.385E-03
  534 T=   248. E= -.32881046E+03 F= -.32879327E+03 E0= -.32881171E+03  EK= 0.22737E+01 SP= -.23E+01 SK= 0.35E-01
       N       E                     dE             d eps       ncg     rms          rms(c)
DAV:   1    -0.328786795738E+03    0.64766E-02   -0.50601E-03  2928   0.824E-01    0.377E-02
RMM:   2    -0.328786977515E+03   -0.18178E-03   -0.18927E-03  1671   0.607E-02    0.165E-02
RMM:   3    -0.328786992402E+03   -0.14887E-04   -0.16660E-04  1748   0.167E-02    0.155E-02
RMM:   4    -0.328786992826E+03   -0.42338E-06   -0.15939E-05  1029   0.616E-03    0.103E-02
RMM:   5    -0.328786993121E+03   -0.29483E-06   -0.64218E-06   999   0.395E-03
  535 T=   242. E= -.32880987E+03 F= -.32878699E+03 E0= -.32880504E+03  EK= 0.22167E+01 SP= -.23E+01 SK= 0.23E-01
       N       E                     dE             d eps       ncg     rms          rms(c)
DAV:   1    -0.328791110000E+03   -0.41172E-02   -0.54967E-03  2832   0.809E-01    0.377E-02
RMM:   2    -0.328791299591E+03   -0.18959E-03   -0.19667E-03  1672   0.608E-02    0.156E-02
RMM:   3    -0.328791315119E+03   -0.15528E-04   -0.17149E-04  1783   0.168E-02    0.147E-02
RMM:   4    -0.328791315706E+03   -0.58718E-06   -0.15266E-05  1029   0.601E-03    0.972E-03
RMM:   5    -0.328791316012E+03   -0.30558E-06   -0.61351E-06  1000   0.390E-03
  536 T=   238. E= -.32880960E+03 F= -.32879132E+03 E0= -.32880896E+03  EK= 0.21816E+01 SP= -.22E+01 SK= 0.13E-01
       N       E                     dE             d eps       ncg     rms          rms(c)
DAV:   1    -0.328808230034E+03   -0.16914E-01   -0.57486E-03  2864   0.800E-01    0.365E-02
RMM:   2    -0.328808426891E+03   -0.19686E-03   -0.20333E-03  1679   0.617E-02    0.142E-02
RMM:   3    -0.328808443563E+03   -0.16672E-04   -0.18203E-04  1792   0.171E-02    0.134E-02
RMM:   4    -0.328808444312E+03   -0.74868E-06   -0.16006E-05  1037   0.610E-03    0.899E-03
RMM:   5    -0.328808444682E+03   -0.37003E-06   -0.61170E-06  1001   0.390E-03
  537 T=   237. E= -.32880956E+03 F= -.32880844E+03 E0= -.32882567E+03  EK= 0.21706E+01 SP= -.22E+01 SK= 0.59E-02
       N       E                     dE             d eps       ncg     rms          rms(c)
DAV:   1    -0.328839020375E+03   -0.30576E-01   -0.56685E-03  2864   0.799E-01    0.348E-02
RMM:   2    -0.328839220504E+03   -0.20013E-03   -0.20643E-03  1675   0.614E-02    0.141E-02
RMM:   3    -0.328839237598E+03   -0.17094E-04   -0.18418E-04  1797   0.171E-02    0.133E-02
RMM:   4    -0.328839238467E+03   -0.86896E-06   -0.16114E-05  1035   0.600E-03    0.940E-03
RMM:   5    -0.328839238810E+03   -0.34232E-06   -0.61320E-06   999   0.386E-03
  538 T=   238. E= -.32880970E+03 F= -.32883924E+03 E0= -.32885605E+03  EK= 0.21846E+01 SP= -.22E+01 SK= 0.15E-02
       N       E                     dE             d eps       ncg     rms          rms(c)
DAV:   1    -0.328882344925E+03   -0.43106E-01   -0.62603E-03  2848   0.805E-01    0.352E-02
RMM:   2    -0.328882558944E+03   -0.21402E-03   -0.22026E-03  1672   0.636E-02    0.138E-02
RMM:   3    -0.328882576806E+03   -0.17862E-04   -0.18867E-04  1780   0.174E-02    0.128E-02
RMM:   4    -0.328882577864E+03   -0.10574E-05   -0.16709E-05  1038   0.618E-03    0.875E-03
RMM:   5    -0.328882578312E+03   -0.44890E-06   -0.58898E-06   998   0.386E-03
  539 T=   242. E= -.32881028E+03 F= -.32888258E+03 E0= -.32889899E+03  EK= 0.22217E+01 SP= -.21E+01 SK= 0.20E-05
       N       E                     dE             d eps       ncg     rms          rms(c)
DAV:   1    -0.328935320834E+03   -0.52743E-01   -0.65309E-03  2848   0.818E-01    0.379E-02
RMM:   2    -0.328935541216E+03   -0.22038E-03   -0.22655E-03  1676   0.647E-02    0.151E-02
RMM:   3    -0.328935559727E+03   -0.18510E-04   -0.19875E-04  1789   0.177E-02    0.137E-02
RMM:   4    -0.328935560607E+03   -0.88024E-06   -0.17249E-05  1044   0.624E-03    0.856E-03
RMM:   5    -0.328935561090E+03   -0.48287E-06   -0.59565E-06   998   0.389E-03
  540 T=   248. E= -.32881093E+03 F= -.32893556E+03 E0= -.32895161E+03  EK= 0.22791E+01 SP= -.22E+01 SK= 0.10E-02
       N       E                     dE             d eps       ncg     rms          rms(c)
DAV:   1    -0.328994090157E+03   -0.58530E-01   -0.60561E-03  2832   0.837E-01    0.386E-02
RMM:   2    -0.328994331348E+03   -0.24119E-03   -0.24756E-03  1684   0.663E-02    0.152E-02
RMM:   3    -0.328994352110E+03   -0.20762E-04   -0.22230E-04  1828   0.184E-02    0.139E-02
RMM:   4    -0.328994353056E+03   -0.94657E-06   -0.17873E-05  1053   0.625E-03    0.903E-03
RMM:   5    -0.328994353480E+03   -0.42392E-06   -0.58342E-06  1001   0.386E-03
  541 T=   256. E= -.32881157E+03 F= -.32899435E+03 E0= -.32901007E+03  EK= 0.23522E+01 SP= -.22E+01 SK= 0.38E-02
       N       E                     dE             d eps       ncg     rms          rms(c)
DAV:   1    -0.329054058946E+03   -0.59706E-01   -0.55970E-03  2816   0.858E-01    0.383E-02
RMM:   2    -0.329054307164E+03   -0.24822E-03   -0.25509E-03  1681   0.668E-02    0.165E-02
RMM:   3    -0.329054328140E+03   -0.20977E-04   -0.22377E-04  1826   0.185E-02    0.147E-02
RMM:   4    -0.329054329158E+03   -0.10175E-05   -0.19686E-05  1064   0.633E-03    0.905E-03
RMM:   5    -0.329054329636E+03   -0.47807E-06   -0.60589E-06  1003   0.390E-03
  542 T=   265. E= -.32881250E+03 F= -.32905433E+03 E0= -.32906978E+03  EK= 0.24354E+01 SP= -.22E+01 SK= 0.73E-02
       N       E                     dE             d eps       ncg     rms          rms(c)
DAV:   1    -0.329110097650E+03   -0.55768E-01   -0.59514E-03  2848   0.881E-01    0.409E-02
RMM:   2    -0.329110363302E+03   -0.26565E-03   -0.27320E-03  1671   0.697E-02    0.175E-02
RMM:   3    -0.329110385629E+03   -0.22326E-04   -0.24020E-04  1864   0.194E-02    0.159E-02
RMM:   4    -0.329110386453E+03   -0.82424E-06   -0.20429E-05  1074   0.645E-03    0.102E-02
RMM:   5    -0.329110386818E+03   -0.36528E-06   -0.62374E-06   998   0.394E-03
  543 T=   275. E= -.32881320E+03 F= -.32911039E+03 E0= -.32912565E+03  EK= 0.25227E+01 SP= -.22E+01 SK= 0.11E-01
       N       E                     dE             d eps       ncg     rms          rms(c)
DAV:   1    -0.329157190193E+03   -0.46804E-01   -0.67812E-03  2832   0.905E-01    0.429E-02
RMM:   2    -0.329157465623E+03   -0.27543E-03   -0.28305E-03  1672   0.720E-02    0.178E-02
RMM:   3    -0.329157487568E+03   -0.21944E-04   -0.23678E-04  1849   0.195E-02    0.164E-02
RMM:   4    -0.329157488488E+03   -0.92032E-06   -0.19731E-05  1058   0.646E-03    0.107E-02
RMM:   5    -0.329157488894E+03   -0.40596E-06   -0.63986E-06  1003   0.400E-03
  544 T=   284. E= -.32881379E+03 F= -.32915749E+03 E0= -.32917265E+03  EK= 0.26076E+01 SP= -.23E+01 SK= 0.14E-01
       N       E                     dE             d eps       ncg     rms          rms(c)
DAV:   1    -0.329191431405E+03   -0.33943E-01   -0.62632E-03  2832   0.926E-01    0.443E-02
RMM:   2    -0.329191707527E+03   -0.27612E-03   -0.28465E-03  1677   0.720E-02    0.187E-02
RMM:   3    -0.329191729695E+03   -0.22168E-04   -0.24347E-04  1860   0.198E-02    0.174E-02
RMM:   4    -0.329191730499E+03   -0.80412E-06   -0.21246E-05  1069   0.657E-03    0.116E-02
RMM:   5    -0.329191730791E+03   -0.29204E-06   -0.67264E-06  1004   0.406E-03
  545 T=   292. E= -.32881461E+03 F= -.32919173E+03 E0= -.32920688E+03  EK= 0.26841E+01 SP= -.23E+01 SK= 0.15E-01
       N       E                     dE             d eps       ncg     rms          rms(c)
DAV:   1    -0.329209341904E+03   -0.17611E-01   -0.54092E-03  2880   0.942E-01    0.449E-02
RMM:   2    -0.329209616947E+03   -0.27504E-03   -0.28377E-03  1682   0.708E-02    0.180E-02
RMM:   3    -0.329209640853E+03   -0.23906E-04   -0.25954E-04  1882   0.199E-02    0.170E-02
RMM:   4    -0.329209641651E+03   -0.79807E-06   -0.20627E-05  1072   0.655E-03    0.115E-02
RMM:   5    -0.329209641932E+03   -0.28123E-06   -0.61800E-06  1006   0.397E-03
  546 T=   299. E= -.32881523E+03 F= -.32920964E+03 E0= -.32922487E+03  EK= 0.27472E+01 SP= -.24E+01 SK= 0.16E-01
       N       E                     dE             d eps       ncg     rms          rms(c)
DAV:   1    -0.329209019414E+03    0.62224E-03   -0.57963E-03  2896   0.952E-01    0.441E-02
RMM:   2    -0.329209297969E+03   -0.27855E-03   -0.28762E-03  1676   0.711E-02    0.189E-02
RMM:   3    -0.329209320968E+03   -0.23000E-04   -0.25171E-04  1850   0.198E-02    0.179E-02
RMM:   4    -0.329209321717E+03   -0.74863E-06   -0.21589E-05  1080   0.672E-03    0.119E-02
RMM:   5    -0.329209322027E+03   -0.31039E-06   -0.68373E-06  1006   0.412E-03
  547 T=   304. E= -.32881525E+03 F= -.32920932E+03 E0= -.32922471E+03  EK= 0.27938E+01 SP= -.24E+01 SK= 0.16E-01
       N       E                     dE             d eps       ncg     rms          rms(c)
DAV:   1    -0.329191952129E+03    0.17370E-01   -0.62709E-03  2848   0.958E-01    0.475E-02
RMM:   2    -0.329192239344E+03   -0.28722E-03   -0.29724E-03  1676   0.736E-02    0.180E-02
RMM:   3    -0.329192262043E+03   -0.22699E-04   -0.25118E-04  1882   0.203E-02    0.172E-02
RMM:   4    -0.329192262901E+03   -0.85796E-06   -0.23160E-05  1088   0.677E-03    0.117E-02
RMM:   5    -0.329192263081E+03   -0.17962E-06   -0.64501E-06  1006   0.402E-03
  548 T=   308. E= -.32881519E+03 F= -.32919226E+03 E0= -.32920791E+03  EK= 0.28234E+01 SP= -.25E+01 SK= 0.15E-01
       N       E                     dE             d eps       ncg     rms          rms(c)
DAV:   1    -0.329160912187E+03    0.31351E-01   -0.50588E-03  2880   0.961E-01    0.434E-02
RMM:   2    -0.329161189819E+03   -0.27763E-03   -0.28627E-03  1684   0.715E-02    0.181E-02
RMM:   3    -0.329161213355E+03   -0.23536E-04   -0.25552E-04  1882   0.200E-02    0.174E-02
RMM:   4    -0.329161214430E+03   -0.10752E-05   -0.21995E-05  1081   0.659E-03    0.124E-02
RMM:   5    -0.329161214621E+03   -0.19087E-06   -0.66945E-06  1004   0.406E-03
  549 T=   309. E= -.32881540E+03 F= -.32916121E+03 E0= -.32917718E+03  EK= 0.28372E+01 SP= -.25E+01 SK= 0.14E-01
       N       E                     dE             d eps       ncg     rms          rms(c)
DAV:   1    -0.329118098515E+03    0.43116E-01   -0.57531E-03  2848   0.959E-01    0.472E-02
RMM:   2    -0.329118392969E+03   -0.29445E-03   -0.30382E-03  1672   0.743E-02    0.158E-02
RMM:   3    -0.329118417849E+03   -0.24880E-04   -0.26612E-04  1894   0.206E-02    0.158E-02
RMM:   4    -0.329118419031E+03   -0.11824E-05   -0.21698E-05  1080   0.666E-03    0.115E-02
RMM:   5    -0.329118419280E+03   -0.24805E-06   -0.63826E-06  1004   0.401E-03
  550 T=   309. E= -.32881539E+03 F= -.32911842E+03 E0= -.32913475E+03  EK= 0.28375E+01 SP= -.25E+01 SK= 0.12E-01
       N       E                     dE             d eps       ncg     rms          rms(c)
DAV:   1    -0.329065951934E+03    0.52467E-01   -0.58742E-03  2896   0.954E-01    0.446E-02
RMM:   2    -0.329066236198E+03   -0.28426E-03   -0.29216E-03  1672   0.739E-02    0.165E-02
RMM:   3    -0.329066259986E+03   -0.23788E-04   -0.25345E-04  1877   0.203E-02    0.163E-02
RMM:   4    -0.329066261293E+03   -0.13068E-05   -0.21943E-05  1071   0.671E-03    0.117E-02
RMM:   5    -0.329066261630E+03   -0.33668E-06   -0.67036E-06  1003   0.407E-03
  551 T=   308. E= -.32881490E+03 F= -.32906626E+03 E0= -.32908298E+03  EK= 0.28268E+01 SP= -.26E+01 SK= 0.11E-01
       N       E                     dE             d eps       ncg     rms          rms(c)
DAV:   1    -0.329007764468E+03    0.58497E-01   -0.56495E-03  2880   0.948E-01    0.464E-02
RMM:   2    -0.329008045057E+03   -0.28059E-03   -0.28902E-03  1679   0.731E-02    0.158E-02
RMM:   3    -0.329008068013E+03   -0.22956E-04   -0.24736E-04  1877   0.201E-02    0.155E-02
RMM:   4    -0.329008069114E+03   -0.11012E-05   -0.21119E-05  1080   0.661E-03    0.106E-02
RMM:   5    -0.329008069387E+03   -0.27305E-06   -0.60817E-06  1003   0.398E-03
  552 T=   306. E= -.32881438E+03 F= -.32900807E+03 E0= -.32902519E+03  EK= 0.28079E+01 SP= -.26E+01 SK= 0.10E-01
       N       E                     dE             d eps       ncg     rms          rms(c)
DAV:   1    -0.328946256207E+03    0.61813E-01   -0.59093E-03  2848   0.939E-01    0.458E-02
RMM:   2    -0.328946562664E+03   -0.30646E-03   -0.31421E-03  1673   0.753E-02    0.168E-02
RMM:   3    -0.328946587349E+03   -0.24686E-04   -0.26383E-04  1904   0.208E-02    0.168E-02
RMM:   4    -0.328946588651E+03   -0.13015E-05   -0.22001E-05  1088   0.657E-03    0.123E-02
RMM:   5    -0.328946588843E+03   -0.19191E-06   -0.62894E-06  1003   0.397E-03
  553 T=   303. E= -.32881402E+03 F= -.32894659E+03 E0= -.32896408E+03  EK= 0.27839E+01 SP= -.27E+01 SK= 0.96E-02
       N       E                     dE             d eps       ncg     rms          rms(c)
DAV:   1    -0.328883676859E+03    0.62912E-01   -0.66641E-03  2864   0.930E-01    0.481E-02
RMM:   2    -0.328883986617E+03   -0.30976E-03   -0.31816E-03  1669   0.768E-02    0.172E-02
RMM:   3    -0.328884011639E+03   -0.25023E-04   -0.26741E-04  1890   0.209E-02    0.169E-02
RMM:   4    -0.328884013011E+03   -0.13712E-05   -0.23065E-05  1093   0.672E-03    0.117E-02
RMM:   5    -0.328884013326E+03   -0.31534E-06   -0.61114E-06  1001   0.395E-03
  554 T=   300. E= -.32881388E+03 F= -.32888401E+03 E0= -.32890184E+03  EK= 0.27576E+01 SP= -.27E+01 SK= 0.94E-02
       N       E                     dE             d eps       ncg     rms          rms(c)
DAV:   1    -0.328821166021E+03    0.62847E-01   -0.58670E-03  2880   0.919E-01    0.470E-02
RMM:   2    -0.328821449410E+03   -0.28339E-03   -0.29138E-03  1682   0.739E-02    0.185E-02
RMM:   3    -0.328821473125E+03   -0.23715E-04   -0.25749E-04  1890   0.202E-02    0.177E-02
RMM:   4    -0.328821474030E+03   -0.90508E-06   -0.21014E-05  1081   0.654E-03    0.118E-02
RMM:   5    -0.328821474315E+03   -0.28453E-06   -0.62277E-06  1002   0.399E-03
  555 T=   298. E= -.32881368E+03 F= -.32882147E+03 E0= -.32883958E+03  EK= 0.27308E+01 SP= -.27E+01 SK= 0.95E-02
       N       E                     dE             d eps       ncg     rms          rms(c)
DAV:   1    -0.328760784817E+03    0.60689E-01   -0.55275E-03  2848   0.907E-01    0.457E-02
RMM:   2    -0.328761078036E+03   -0.29322E-03   -0.30199E-03  1670   0.737E-02    0.197E-02
RMM:   3    -0.328761102226E+03   -0.24189E-04   -0.26223E-04  1870   0.204E-02    0.188E-02
RMM:   4    -0.328761103288E+03   -0.10620E-05   -0.22867E-05  1091   0.673E-03    0.135E-02
RMM:   5    -0.328761103429E+03   -0.14168E-06   -0.68846E-06  1005   0.414E-03
  556 T=   295. E= -.32881314E+03 F= -.32876110E+03 E0= -.32877942E+03  EK= 0.27068E+01 SP= -.28E+01 SK= 0.10E-01
       N       E                     dE             d eps       ncg     rms          rms(c)
DAV:   1    -0.328706343444E+03    0.54760E-01   -0.57422E-03  2864   0.896E-01    0.472E-02
RMM:   2    -0.328706617004E+03   -0.27356E-03   -0.28289E-03  1667   0.728E-02    0.191E-02
RMM:   3    -0.328706638253E+03   -0.21249E-04   -0.23165E-04  1837   0.197E-02    0.181E-02
RMM:   4    -0.328706639242E+03   -0.98947E-06   -0.21757E-05  1076   0.674E-03    0.123E-02
RMM:   5    -0.328706639468E+03   -0.22599E-06   -0.67028E-06  1002   0.410E-03
  557 T=   293. E= -.32881299E+03 F= -.32870664E+03 E0= -.32872511E+03  EK= 0.26892E+01 SP= -.28E+01 SK= 0.11E-01
       N       E                     dE             d eps       ncg     rms          rms(c)
DAV:   1    -0.328658958711E+03    0.47681E-01   -0.60410E-03  2832   0.887E-01    0.468E-02
RMM:   2    -0.328659245355E+03   -0.28664E-03   -0.29527E-03  1672   0.744E-02    0.203E-02
RMM:   3    -0.328659267116E+03   -0.21761E-04   -0.24027E-04  1855   0.200E-02    0.192E-02
RMM:   4    -0.328659267826E+03   -0.70953E-06   -0.20578E-05  1067   0.665E-03    0.134E-02
RMM:   5    -0.328659267995E+03   -0.16915E-06   -0.70193E-06  1002   0.417E-03
  558 T=   292. E= -.32881288E+03 F= -.32865927E+03 E0= -.32867783E+03  EK= 0.26799E+01 SP= -.28E+01 SK= 0.12E-01
       N       E                     dE             d eps       ncg     rms          rms(c)
DAV:   1    -0.328620377455E+03    0.38890E-01   -0.58702E-03  2864   0.880E-01    0.449E-02
RMM:   2    -0.328620668137E+03   -0.29068E-03   -0.29947E-03  1683   0.730E-02    0.207E-02
RMM:   3    -0.328620691833E+03   -0.23695E-04   -0.25716E-04  1848   0.199E-02    0.193E-02
RMM:   4    -0.328620692764E+03   -0.93108E-06   -0.21238E-05  1079   0.664E-03    0.132E-02
RMM:   5    -0.328620693062E+03   -0.29854E-06   -0.69261E-06  1000   0.418E-03
  559 T=   292. E= -.32881279E+03 F= -.32862069E+03 E0= -.32863931E+03  EK= 0.26812E+01 SP= -.29E+01 SK= 0.13E-01
       N       E                     dE             d eps       ncg     rms          rms(c)
DAV:   1    -0.328592589472E+03    0.28103E-01   -0.67432E-03  2832   0.875E-01    0.499E-02
RMM:   2    -0.328592910345E+03   -0.32087E-03   -0.32993E-03  1665   0.772E-02    0.197E-02
RMM:   3    -0.328592935438E+03   -0.25093E-04   -0.27289E-04  1866   0.210E-02    0.188E-02
RMM:   4    -0.328592936479E+03   -0.10415E-05   -0.24032E-05  1094   0.695E-03    0.130E-02
RMM:   5    -0.328592936673E+03   -0.19430E-06   -0.69382E-06   997   0.417E-03
  560 T=   294. E= -.32881244E+03 F= -.32859294E+03 E0= -.32861156E+03  EK= 0.26954E+01 SP= -.29E+01 SK= 0.14E-01
       N       E                     dE             d eps       ncg     rms          rms(c)
DAV:   1    -0.328578478581E+03    0.14458E-01   -0.67687E-03  2848   0.875E-01    0.487E-02
RMM:   2    -0.328578782705E+03   -0.30412E-03   -0.31195E-03  1666   0.767E-02    0.209E-02
RMM:   3    -0.328578805120E+03   -0.22415E-04   -0.24342E-04  1800   0.203E-02    0.196E-02
RMM:   4    -0.328578806134E+03   -0.10140E-05   -0.23219E-05  1092   0.698E-03    0.125E-02
RMM:   5    -0.328578806443E+03   -0.30904E-06   -0.66920E-06   993   0.418E-03
  561 T=   297. E= -.32881262E+03 F= -.32857881E+03 E0= -.32859743E+03  EK= 0.27244E+01 SP= -.30E+01 SK= 0.14E-01
       N       E                     dE             d eps       ncg     rms          rms(c)
DAV:   1    -0.328577952507E+03    0.85363E-03   -0.61644E-03  2912   0.880E-01    0.470E-02
RMM:   2    -0.328578252016E+03   -0.29951E-03   -0.30786E-03  1674   0.754E-02    0.197E-02
RMM:   3    -0.328578276772E+03   -0.24756E-04   -0.26745E-04  1850   0.204E-02    0.186E-02
RMM:   4    -0.328578277581E+03   -0.80868E-06   -0.21545E-05  1079   0.681E-03    0.128E-02
RMM:   5    -0.328578277811E+03   -0.22943E-06   -0.66620E-06   999   0.417E-03
  562 T=   302. E= -.32881288E+03 F= -.32857828E+03 E0= -.32859688E+03  EK= 0.27682E+01 SP= -.30E+01 SK= 0.15E-01
       N       E                     dE             d eps       ncg     rms          rms(c)
DAV:   1    -0.328589680675E+03   -0.11403E-01   -0.66671E-03  2864   0.889E-01    0.472E-02
RMM:   2    -0.328590010046E+03   -0.32937E-03   -0.33694E-03  1669   0.774E-02    0.184E-02
RMM:   3    -0.328590037223E+03   -0.27176E-04   -0.28662E-04  1841   0.211E-02    0.175E-02
RMM:   4    -0.328590038679E+03   -0.14564E-05   -0.23462E-05  1094   0.702E-03    0.122E-02
RMM:   5    -0.328590039087E+03   -0.40780E-06   -0.66493E-06   998   0.420E-03
  563 T=   308. E= -.32881341E+03 F= -.32859004E+03 E0= -.32860864E+03  EK= 0.28245E+01 SP= -.31E+01 SK= 0.14E-01
       N       E                     dE             d eps       ncg     rms          rms(c)
DAV:   1    -0.328611108508E+03   -0.21070E-01   -0.65049E-03  2928   0.903E-01    0.475E-02
RMM:   2    -0.328611405767E+03   -0.29726E-03   -0.30525E-03  1666   0.755E-02    0.174E-02
RMM:   3    -0.328611428498E+03   -0.22731E-04   -0.24532E-04  1819   0.202E-02    0.166E-02
RMM:   4    -0.328611429690E+03   -0.11918E-05   -0.22945E-05  1091   0.689E-03    0.114E-02
RMM:   5    -0.328611430001E+03   -0.31100E-06   -0.65227E-06   995   0.412E-03
  564 T=   315. E= -.32881396E+03 F= -.32861143E+03 E0= -.32863004E+03  EK= 0.28895E+01 SP= -.31E+01 SK= 0.12E-01
       N       E                     dE             d eps       ncg     rms          rms(c)
DAV:   1    -0.328637651257E+03   -0.26222E-01   -0.61704E-03  2912   0.919E-01    0.456E-02
RMM:   2    -0.328637959137E+03   -0.30788E-03   -0.31530E-03  1671   0.759E-02    0.174E-02
RMM:   3    -0.328637985614E+03   -0.26478E-04   -0.28148E-04  1852   0.206E-02    0.168E-02
RMM:   4    -0.328637986843E+03   -0.12285E-05   -0.21749E-05  1079   0.669E-03    0.119E-02
RMM:   5    -0.328637987197E+03   -0.35433E-06   -0.66343E-06  1001   0.411E-03
  565 T=   322. E= -.32881443E+03 F= -.32863799E+03 E0= -.32865664E+03  EK= 0.29572E+01 SP= -.31E+01 SK= 0.99E-02
       N       E                     dE             d eps       ncg     rms          rms(c)
DAV:   1    -0.328664542859E+03   -0.26556E-01   -0.59702E-03  2816   0.937E-01    0.485E-02
RMM:   2    -0.328664880772E+03   -0.33791E-03   -0.34655E-03  1673   0.776E-02    0.170E-02
RMM:   3    -0.328664910191E+03   -0.29419E-04   -0.31230E-04  1901   0.216E-02    0.165E-02
RMM:   4    -0.328664911334E+03   -0.11434E-05   -0.22691E-05  1083   0.677E-03    0.115E-02
RMM:   5    -0.328664911656E+03   -0.32156E-06   -0.66178E-06  1003   0.412E-03
  566 T=   329. E= -.32881528E+03 F= -.32866491E+03 E0= -.32868362E+03  EK= 0.30204E+01 SP= -.32E+01 SK= 0.70E-02
       N       E                     dE             d eps       ncg     rms          rms(c)
DAV:   1    -0.328685165895E+03   -0.20255E-01   -0.74703E-03  2816   0.953E-01    0.497E-02
RMM:   2    -0.328685532350E+03   -0.36645E-03   -0.37475E-03  1667   0.812E-02    0.192E-02
RMM:   3    -0.328685562132E+03   -0.29782E-04   -0.31632E-04  1878   0.223E-02    0.184E-02
RMM:   4    -0.328685563661E+03   -0.15286E-05   -0.26782E-05  1114   0.722E-03    0.124E-02
RMM:   5    -0.328685564094E+03   -0.43319E-06   -0.72001E-06  1004   0.430E-03
  567 T=   335. E= -.32881596E+03 F= -.32868556E+03 E0= -.32870434E+03  EK= 0.30709E+01 SP= -.32E+01 SK= 0.41E-02
       N       E                     dE             d eps       ncg     rms          rms(c)
DAV:   1    -0.328694230130E+03   -0.86665E-02   -0.63949E-03  2848   0.965E-01    0.487E-02
RMM:   2    -0.328694554382E+03   -0.32425E-03   -0.33390E-03  1669   0.779E-02    0.196E-02
RMM:   3    -0.328694580114E+03   -0.25732E-04   -0.27957E-04  1879   0.213E-02    0.187E-02
RMM:   4    -0.328694581181E+03   -0.10671E-05   -0.23519E-05  1095   0.692E-03    0.128E-02
RMM:   5    -0.328694581513E+03   -0.33249E-06   -0.71201E-06  1003   0.423E-03
  568 T=   338. E= -.32881650E+03 F= -.32869458E+03 E0= -.32871342E+03  EK= 0.31015E+01 SP= -.32E+01 SK= 0.18E-02
       N       E                     dE             d eps       ncg     rms          rms(c)
DAV:   1    -0.328688714854E+03    0.58663E-02   -0.66938E-03  2816   0.971E-01    0.497E-02
RMM:   2    -0.328689022634E+03   -0.30778E-03   -0.31787E-03  1669   0.779E-02    0.196E-02
RMM:   3    -0.328689047111E+03   -0.24476E-04   -0.26625E-04  1872   0.211E-02    0.191E-02
RMM:   4    -0.328689048178E+03   -0.10668E-05   -0.22530E-05  1086   0.688E-03    0.136E-02
RMM:   5    -0.328689048441E+03   -0.26346E-06   -0.75003E-06  1001   0.429E-03
  569 T=   339. E= -.32881709E+03 F= -.32868905E+03 E0= -.32870792E+03  EK= 0.31080E+01 SP= -.32E+01 SK= 0.34E-03
       N       E                     dE             d eps       ncg     rms          rms(c)
DAV:   1    -0.328666073300E+03    0.22975E-01   -0.63362E-03  2848   0.971E-01    0.512E-02
RMM:   2    -0.328666372597E+03   -0.29930E-03   -0.31018E-03  1678   0.752E-02    0.197E-02
RMM:   3    -0.328666397690E+03   -0.25094E-04   -0.27544E-04  1896   0.209E-02    0.187E-02
RMM:   4    -0.328666398502E+03   -0.81132E-06   -0.23677E-05  1092   0.689E-03    0.113E-02
RMM:   5    -0.328666398955E+03   -0.45329E-06   -0.71328E-06  1004   0.422E-03
  570 T=   337. E= -.32881699E+03 F= -.32866640E+03 E0= -.32868529E+03  EK= 0.30883E+01 SP= -.32E+01 SK= 0.21E-04
       N       E                     dE             d eps       ncg     rms          rms(c)
DAV:   1    -0.328626262404E+03    0.40136E-01   -0.80934E-03  2880   0.964E-01    0.501E-02
RMM:   2    -0.328626632336E+03   -0.36993E-03   -0.38006E-03  1679   0.814E-02    0.213E-02
RMM:   3    -0.328626661441E+03   -0.29105E-04   -0.31761E-04  1914   0.225E-02    0.207E-02
RMM:   4    -0.328626662715E+03   -0.12737E-05   -0.26772E-05  1130   0.713E-03    0.148E-02
RMM:   5    -0.328626662852E+03   -0.13790E-06   -0.76437E-06  1006   0.433E-03
  571 T=   332. E= -.32881634E+03 F= -.32862666E+03 E0= -.32864557E+03  EK= 0.30427E+01 SP= -.32E+01 SK= 0.65E-03
       N       E                     dE             d eps       ncg     rms          rms(c)
DAV:   1    -0.328572776193E+03    0.53887E-01   -0.75133E-03  2832   0.951E-01    0.498E-02
RMM:   2    -0.328573121473E+03   -0.34528E-03   -0.35637E-03  1677   0.799E-02    0.206E-02
RMM:   3    -0.328573150826E+03   -0.29353E-04   -0.31651E-04  1935   0.222E-02    0.201E-02
RMM:   4    -0.328573151993E+03   -0.11669E-05   -0.24154E-05  1107   0.689E-03    0.139E-02
RMM:   5    -0.328573152227E+03   -0.23411E-06   -0.70425E-06  1004   0.418E-03
  572 T=   324. E= -.32881557E+03 F= -.32857315E+03 E0= -.32859211E+03  EK= 0.29759E+01 SP= -.32E+01 SK= 0.18E-02
       N       E                     dE             d eps       ncg     rms          rms(c)
DAV:   1    -0.328510943109E+03    0.62209E-01   -0.64306E-03  2928   0.931E-01    0.530E-02
RMM:   2    -0.328511255354E+03   -0.31225E-03   -0.32378E-03  1687   0.771E-02    0.192E-02
RMM:   3    -0.328511280844E+03   -0.25490E-04   -0.28462E-04  1917   0.212E-02    0.187E-02
RMM:   4    -0.328511281575E+03   -0.73042E-06   -0.24680E-05  1101   0.696E-03    0.120E-02
RMM:   5    -0.328511281752E+03   -0.17757E-06   -0.69528E-06  1005   0.417E-03
  573 T=   315. E= -.32881470E+03 F= -.32851128E+03 E0= -.32853037E+03  EK= 0.28952E+01 SP= -.32E+01 SK= 0.30E-02
       N       E                     dE             d eps       ncg     rms          rms(c)
DAV:   1    -0.328446001959E+03    0.65280E-01   -0.63115E-03  2832   0.908E-01    0.478E-02
RMM:   2    -0.328446343279E+03   -0.34132E-03   -0.35130E-03  1688   0.780E-02    0.202E-02
RMM:   3    -0.328446372783E+03   -0.29504E-04   -0.31864E-04  1943   0.219E-02    0.196E-02
RMM:   4    -0.328446373902E+03   -0.11192E-05   -0.23892E-05  1104   0.673E-03    0.137E-02
RMM:   5    -0.328446374114E+03   -0.21231E-06   -0.69000E-06  1004   0.417E-03
  574 T=   306. E= -.32881373E+03 F= -.32844637E+03 E0= -.32846567E+03  EK= 0.28086E+01 SP= -.32E+01 SK= 0.38E-02
       N       E                     dE             d eps       ncg     rms          rms(c)
DAV:   1    -0.328384918596E+03    0.61455E-01   -0.76290E-03  2832   0.885E-01    0.510E-02
RMM:   2    -0.328385241130E+03   -0.32253E-03   -0.33333E-03  1671   0.799E-02    0.182E-02
RMM:   3    -0.328385265375E+03   -0.24245E-04   -0.26418E-04  1897   0.213E-02    0.179E-02
RMM:   4    -0.328385266679E+03   -0.13040E-05   -0.23866E-05  1103   0.686E-03    0.123E-02
RMM:   5    -0.328385266912E+03   -0.23237E-06   -0.64325E-06  1002   0.401E-03
  575 T=   297. E= -.32881300E+03 F= -.32838527E+03 E0= -.32840489E+03  EK= 0.27248E+01 SP= -.32E+01 SK= 0.39E-02
       N       E                     dE             d eps       ncg     rms          rms(c)
DAV:   1    -0.328334008743E+03    0.51258E-01   -0.69846E-03  2864   0.864E-01    0.459E-02
RMM:   2    -0.328334314767E+03   -0.30602E-03   -0.31527E-03  1676   0.775E-02    0.191E-02
RMM:   3    -0.328334341104E+03   -0.26337E-04   -0.28473E-04  1922   0.210E-02    0.185E-02
RMM:   4    -0.328334341917E+03   -0.81294E-06   -0.21185E-05  1084   0.664E-03    0.126E-02
RMM:   5    -0.328334342110E+03   -0.19259E-06   -0.66444E-06  1002   0.407E-03
  576 T=   289. E= -.32881256E+03 F= -.32833434E+03 E0= -.32835438E+03  EK= 0.26522E+01 SP= -.31E+01 SK= 0.34E-02
       N       E                     dE             d eps       ncg     rms          rms(c)
DAV:   1    -0.328297251021E+03    0.37091E-01   -0.67701E-03  2896   0.849E-01    0.485E-02
RMM:   2    -0.328297568105E+03   -0.31708E-03   -0.32645E-03  1686   0.780E-02    0.158E-02
RMM:   3    -0.328297595422E+03   -0.27317E-04   -0.28993E-04  1909   0.211E-02    0.155E-02
RMM:   4    -0.328297596774E+03   -0.13517E-05   -0.22573E-05  1090   0.677E-03    0.107E-02
RMM:   5    -0.328297597122E+03   -0.34753E-06   -0.61107E-06  1004   0.398E-03
  577 T=   283. E= -.32881218E+03 F= -.32829760E+03 E0= -.32831813E+03  EK= 0.25966E+01 SP= -.31E+01 SK= 0.24E-02
       N       E                     dE             d eps       ncg     rms          rms(c)
DAV:   1    -0.328277658628E+03    0.19938E-01   -0.68143E-03  2816   0.838E-01    0.446E-02
RMM:   2    -0.328277952458E+03   -0.29383E-03   -0.30184E-03  1677   0.760E-02    0.170E-02
RMM:   3    -0.328277976179E+03   -0.23721E-04   -0.25507E-04  1890   0.204E-02    0.164E-02
RMM:   4    -0.328277977173E+03   -0.99386E-06   -0.19870E-05  1063   0.658E-03    0.114E-02
RMM:   5    -0.328277977475E+03   -0.30219E-06   -0.63465E-06  1006   0.401E-03
  578 T=   279. E= -.32881172E+03 F= -.32827798E+03 E0= -.32829906E+03  EK= 0.25622E+01 SP= -.31E+01 SK= 0.14E-02
       N       E                     dE             d eps       ncg     rms          rms(c)
DAV:   1    -0.328276411086E+03    0.15661E-02   -0.56370E-03  2848   0.836E-01    0.431E-02
RMM:   2    -0.328276684383E+03   -0.27330E-03   -0.28121E-03  1673   0.726E-02    0.162E-02
RMM:   3    -0.328276707492E+03   -0.23109E-04   -0.24582E-04  1864   0.196E-02    0.159E-02
RMM:   4    -0.328276708579E+03   -0.10869E-05   -0.19122E-05  1067   0.647E-03    0.116E-02
RMM:   5    -0.328276708842E+03   -0.26247E-06   -0.59337E-06  1006   0.393E-03
  579 T=   278. E= -.32881175E+03 F= -.32827671E+03 E0= -.32829838E+03  EK= 0.25502E+01 SP= -.31E+01 SK= 0.60E-03
       N       E                     dE             d eps       ncg     rms          rms(c)
DAV:   1    -0.328291273988E+03   -0.14565E-01   -0.65127E-03  2816   0.841E-01    0.474E-02
RMM:   2    -0.328291588445E+03   -0.31446E-03   -0.32198E-03  1678   0.763E-02    0.172E-02
RMM:   3    -0.328291615051E+03   -0.26606E-04   -0.28309E-04  1903   0.208E-02    0.166E-02
RMM:   4    -0.328291616300E+03   -0.12489E-05   -0.21100E-05  1074   0.666E-03    0.114E-02
RMM:   5    -0.328291616708E+03   -0.40774E-06   -0.61644E-06  1003   0.398E-03
  580 T=   279. E= -.32881197E+03 F= -.32829162E+03 E0= -.32831389E+03  EK= 0.25588E+01 SP= -.31E+01 SK= 0.13E-03
       N       E                     dE             d eps       ncg     rms          rms(c)
DAV:   1    -0.328319025356E+03   -0.27409E-01   -0.87362E-03  2832   0.853E-01    0.496E-02
RMM:   2    -0.328319352354E+03   -0.32700E-03   -0.33479E-03  1679   0.800E-02    0.191E-02
RMM:   3    -0.328319378282E+03   -0.25928E-04   -0.28274E-04  1891   0.211E-02    0.182E-02
RMM:   4    -0.328319379402E+03   -0.11191E-05   -0.22085E-05  1075   0.679E-03    0.125E-02
RMM:   5    -0.328319379712E+03   -0.31055E-06   -0.63893E-06  1005   0.404E-03
  581 T=   282. E= -.32881237E+03 F= -.32831938E+03 E0= -.32834227E+03  EK= 0.25846E+01 SP= -.31E+01 SK= 0.90E-06
       N       E                     dE             d eps       ncg     rms          rms(c)
DAV:   1    -0.328355627035E+03   -0.36248E-01   -0.62564E-03  2848   0.869E-01    0.470E-02
RMM:   2    -0.328355928634E+03   -0.30160E-03   -0.30963E-03  1682   0.753E-02    0.188E-02
RMM:   3    -0.328355953988E+03   -0.25354E-04   -0.27278E-04  1897   0.204E-02    0.178E-02
RMM:   4    -0.328355955150E+03   -0.11617E-05   -0.21795E-05  1082   0.665E-03    0.126E-02
RMM:   5    -0.328355955434E+03   -0.28437E-06   -0.62768E-06  1005   0.399E-03
  582 T=   286. E= -.32881300E+03 F= -.32835596E+03 E0= -.32837945E+03  EK= 0.26228E+01 SP= -.31E+01 SK= 0.12E-03
       N       E                     dE             d eps       ncg     rms          rms(c)
DAV:   1    -0.328396749168E+03   -0.40794E-01   -0.67970E-03  2880   0.885E-01    0.520E-02
RMM:   2    -0.328397063618E+03   -0.31445E-03   -0.32257E-03  1677   0.775E-02    0.175E-02
RMM:   3    -0.328397089363E+03   -0.25745E-04   -0.27721E-04  1894   0.210E-02    0.170E-02
RMM:   4    -0.328397090620E+03   -0.12574E-05   -0.22552E-05  1084   0.682E-03    0.116E-02
RMM:   5    -0.328397091009E+03   -0.38893E-06   -0.65112E-06  1001   0.405E-03
  583 T=   291. E= -.32881377E+03 F= -.32839709E+03 E0= -.32842118E+03  EK= 0.26686E+01 SP= -.31E+01 SK= 0.33E-03
       N       E                     dE             d eps       ncg     rms          rms(c)
DAV:   1    -0.328437559295E+03   -0.40469E-01   -0.66446E-03  2832   0.902E-01    0.472E-02
RMM:   2    -0.328437849698E+03   -0.29040E-03   -0.29865E-03  1669   0.744E-02    0.195E-02
RMM:   3    -0.328437872914E+03   -0.23216E-04   -0.25435E-04  1867   0.203E-02    0.186E-02
RMM:   4    -0.328437873856E+03   -0.94254E-06   -0.21907E-05  1070   0.684E-03    0.127E-02
RMM:   5    -0.328437874234E+03   -0.37769E-06   -0.72112E-06  1007   0.421E-03
  584 T=   296. E= -.32881453E+03 F= -.32843787E+03 E0= -.32846256E+03  EK= 0.27162E+01 SP= -.31E+01 SK= 0.49E-03
       N       E                     dE             d eps       ncg     rms          rms(c)
DAV:   1    -0.328472391744E+03   -0.34518E-01   -0.64395E-03  2880   0.918E-01    0.476E-02
RMM:   2    -0.328472650035E+03   -0.25829E-03   -0.26702E-03  1667   0.714E-02    0.184E-02
RMM:   3    -0.328472670699E+03   -0.20664E-04   -0.22481E-04  1864   0.194E-02    0.178E-02
RMM:   4    -0.328472671626E+03   -0.92696E-06   -0.19804E-05  1064   0.653E-03    0.119E-02
RMM:   5    -0.328472672100E+03   -0.47469E-06   -0.65745E-06  1005   0.401E-03
  585 T=   301. E= -.32881493E+03 F= -.32847267E+03 E0= -.32849795E+03  EK= 0.27592E+01 SP= -.31E+01 SK= 0.54E-03
       N       E                     dE             d eps       ncg     rms          rms(c)
DAV:   1    -0.328498523858E+03   -0.25852E-01   -0.61966E-03  2944   0.930E-01    0.506E-02
RMM:   2    -0.328498748927E+03   -0.22507E-03   -0.23447E-03  1671   0.681E-02    0.168E-02
RMM:   3    -0.328498766202E+03   -0.17276E-04   -0.19524E-04  1786   0.183E-02    0.163E-02
RMM:   4    -0.328498766837E+03   -0.63443E-06   -0.19079E-05  1058   0.661E-03    0.113E-02
RMM:   5    -0.328498767069E+03   -0.23234E-06   -0.61944E-06  1003   0.395E-03
  586 T=   304. E= -.32881513E+03 F= -.32849877E+03 E0= -.32852463E+03  EK= 0.27937E+01 SP= -.31E+01 SK= 0.47E-03
       N       E                     dE             d eps       ncg     rms          rms(c)
DAV:   1    -0.328514669233E+03   -0.15902E-01   -0.61110E-03  2928   0.939E-01    0.447E-02
RMM:   2    -0.328514919690E+03   -0.25046E-03   -0.25897E-03  1677   0.702E-02    0.206E-02
RMM:   3    -0.328514940195E+03   -0.20505E-04   -0.22410E-04  1817   0.192E-02    0.202E-02
RMM:   4    -0.328514941143E+03   -0.94780E-06   -0.19435E-05  1061   0.655E-03    0.160E-02
RMM:   5    -0.328514941190E+03   -0.47548E-07   -0.76665E-06  1001   0.427E-03
  587 T=   307. E= -.32881539E+03 F= -.32851494E+03 E0= -.32854138E+03  EK= 0.28173E+01 SP= -.31E+01 SK= 0.33E-03
       N       E                     dE             d eps       ncg     rms          rms(c)
DAV:   1    -0.328520153319E+03   -0.52122E-02   -0.66875E-03  2928   0.943E-01    0.560E-02
RMM:   2    -0.328520436301E+03   -0.28298E-03   -0.29366E-03  1672   0.737E-02    0.170E-02
RMM:   3    -0.328520460204E+03   -0.23903E-04   -0.26083E-04  1852   0.202E-02    0.173E-02
RMM:   4    -0.328520461178E+03   -0.97379E-06   -0.20973E-05  1070   0.676E-03    0.124E-02
RMM:   5    -0.328520461404E+03   -0.22624E-06   -0.62055E-06  1001   0.401E-03
  588 T=   308. E= -.32881542E+03 F= -.32852046E+03 E0= -.32854745E+03  EK= 0.28288E+01 SP= -.31E+01 SK= 0.18E-03
       N       E                     dE             d eps       ncg     rms          rms(c)
DAV:   1    -0.328516555040E+03    0.39061E-02   -0.74342E-03  2944   0.943E-01    0.492E-02
RMM:   2    -0.328516843495E+03   -0.28846E-03   -0.29625E-03  1668   0.753E-02    0.219E-02
RMM:   3    -0.328516865324E+03   -0.21829E-04   -0.24334E-04  1825   0.201E-02    0.213E-02
RMM:   4    -0.328516866144E+03   -0.82035E-06   -0.22922E-05  1080   0.694E-03    0.148E-02
RMM:   5    -0.328516866357E+03   -0.21217E-06   -0.73564E-06  1003   0.427E-03
  589 T=   308. E= -.32881512E+03 F= -.32851687E+03 E0= -.32854436E+03  EK= 0.28297E+01 SP= -.31E+01 SK= 0.72E-04
       N       E                     dE             d eps       ncg     rms          rms(c)
DAV:   1    -0.328506309418E+03    0.10557E-01   -0.69407E-03  2928   0.940E-01    0.570E-02
RMM:   2    -0.328506613370E+03   -0.30395E-03   -0.31448E-03  1679   0.777E-02    0.202E-02
RMM:   3    -0.328506638496E+03   -0.25126E-04   -0.27745E-04  1870   0.209E-02    0.200E-02
RMM:   4    -0.328506639286E+03   -0.78944E-06   -0.23038E-05  1083   0.693E-03    0.137E-02
RMM:   5    -0.328506639511E+03   -0.22504E-06   -0.67247E-06  1004   0.413E-03
  590 T=   308. E= -.32881472E+03 F= -.32850664E+03 E0= -.32853457E+03  EK= 0.28221E+01 SP= -.31E+01 SK= 0.13E-04
       N       E                     dE             d eps       ncg     rms          rms(c)
DAV:   1    -0.328493185651E+03    0.13454E-01   -0.66936E-03  2880   0.933E-01    0.545E-02
RMM:   2    -0.328493507744E+03   -0.32209E-03   -0.33105E-03  1681   0.792E-02    0.210E-02
RMM:   3    -0.328493533640E+03   -0.25897E-04   -0.28747E-04  1892   0.213E-02    0.206E-02
RMM:   4    -0.328493534475E+03   -0.83449E-06   -0.23164E-05  1087   0.688E-03    0.142E-02
RMM:   5    -0.328493534648E+03   -0.17294E-06   -0.68157E-06  1001   0.414E-03
  591 T=   306. E= -.32881426E+03 F= -.32849353E+03 E0= -.32852183E+03  EK= 0.28100E+01 SP= -.31E+01 SK= 0.37E-06
       N       E                     dE             d eps       ncg     rms          rms(c)
DAV:   1    -0.328482135368E+03    0.11399E-01   -0.71210E-03  2848   0.926E-01    0.526E-02
RMM:   2    -0.328482458890E+03   -0.32352E-03   -0.33267E-03  1668   0.802E-02    0.203E-02
RMM:   3    -0.328482484358E+03   -0.25468E-04   -0.27958E-04  1898   0.213E-02    0.199E-02
RMM:   4    -0.328482485326E+03   -0.96769E-06   -0.24140E-05  1096   0.690E-03    0.138E-02
RMM:   5    -0.328482485462E+03   -0.13584E-06   -0.67253E-06  1001   0.408E-03
  592 T=   305. E= -.32881433E+03 F= -.32848249E+03 E0= -.32851106E+03  EK= 0.27979E+01 SP= -.31E+01 SK= 0.16E-04
       N       E                     dE             d eps       ncg     rms          rms(c)
DAV:   1    -0.328475289948E+03    0.71954E-02   -0.81078E-03  2800   0.920E-01    0.516E-02
RMM:   2    -0.328475640078E+03   -0.35013E-03   -0.35843E-03  1675   0.826E-02    0.177E-02
RMM:   3    -0.328475669378E+03   -0.29300E-04   -0.31241E-04  1921   0.221E-02    0.179E-02
RMM:   4    -0.328475670668E+03   -0.12901E-05   -0.24377E-05  1102   0.693E-03    0.129E-02
RMM:   5    -0.328475670880E+03   -0.21180E-06   -0.65790E-06  1003   0.411E-03
  593 T=   304. E= -.32881422E+03 F= -.32847567E+03 E0= -.32850445E+03  EK= 0.27891E+01 SP= -.31E+01 SK= 0.45E-04
       N       E                     dE             d eps       ncg     rms          rms(c)
DAV:   1    -0.328475000445E+03    0.67022E-03   -0.71001E-03  2816   0.917E-01    0.495E-02
RMM:   2    -0.328475352719E+03   -0.35227E-03   -0.36043E-03  1672   0.810E-02    0.164E-02
RMM:   3    -0.328475382913E+03   -0.30194E-04   -0.31784E-04  1921   0.222E-02    0.168E-02
RMM:   4    -0.328475384248E+03   -0.13347E-05   -0.23960E-05  1099   0.691E-03    0.122E-02
RMM:   5    -0.328475384494E+03   -0.24620E-06   -0.64236E-06  1004   0.407E-03
  594 T=   304. E= -.32881447E+03 F= -.32847538E+03 E0= -.32850430E+03  EK= 0.27857E+01 SP= -.31E+01 SK= 0.81E-04
       N       E                     dE             d eps       ncg     rms          rms(c)
DAV:   1    -0.328481446084E+03   -0.60618E-02   -0.77711E-03  2848   0.913E-01    0.479E-02
RMM:   2    -0.328481780515E+03   -0.33443E-03   -0.34241E-03  1669   0.818E-02    0.179E-02
RMM:   3    -0.328481807304E+03   -0.26789E-04   -0.28544E-04  1885   0.218E-02    0.181E-02
RMM:   4    -0.328481808741E+03   -0.14373E-05   -0.24100E-05  1097   0.699E-03    0.137E-02
RMM:   5    -0.328481808974E+03   -0.23295E-06   -0.69499E-06  1003   0.419E-03
  595 T=   304. E= -.32881437E+03 F= -.32848181E+03 E0= -.32851080E+03  EK= 0.27884E+01 SP= -.31E+01 SK= 0.13E-03
       N       E                     dE             d eps       ncg     rms          rms(c)
DAV:   1    -0.328495185082E+03   -0.13376E-01   -0.69683E-03  2864   0.914E-01    0.498E-02
RMM:   2    -0.328495504813E+03   -0.31973E-03   -0.32871E-03  1680   0.785E-02    0.177E-02
RMM:   3    -0.328495532319E+03   -0.27506E-04   -0.29660E-04  1901   0.213E-02    0.171E-02
RMM:   4    -0.328495533364E+03   -0.10450E-05   -0.22698E-05  1093   0.674E-03    0.116E-02
RMM:   5    -0.328495533608E+03   -0.24391E-06   -0.60542E-06  1001   0.397E-03
  596 T=   305. E= -.32881475E+03 F= -.32849553E+03 E0= -.32852456E+03  EK= 0.27971E+01 SP= -.31E+01 SK= 0.19E-03
       N       E                     dE             d eps       ncg     rms          rms(c)
DAV:   1    -0.328513075573E+03   -0.17542E-01   -0.78639E-03  2832   0.917E-01    0.505E-02
RMM:   2    -0.328513454145E+03   -0.37857E-03   -0.38674E-03  1685   0.823E-02    0.212E-02
RMM:   3    -0.328513484561E+03   -0.30417E-04   -0.32995E-04  1918   0.223E-02    0.200E-02
RMM:   4    -0.328513485771E+03   -0.12099E-05   -0.25560E-05  1102   0.695E-03    0.139E-02
RMM:   5    -0.328513485996E+03   -0.22482E-06   -0.69561E-06  1003   0.416E-03
  597 T=   306. E= -.32881500E+03 F= -.32851349E+03 E0= -.32854252E+03  EK= 0.28091E+01 SP= -.31E+01 SK= 0.30E-03
       N       E                     dE             d eps       ncg     rms          rms(c)
DAV:   1    -0.328532344958E+03   -0.18859E-01   -0.73752E-03  2848   0.920E-01    0.507E-02
RMM:   2    -0.328532695979E+03   -0.35102E-03   -0.35922E-03  1686   0.807E-02    0.216E-02
RMM:   3    -0.328532723260E+03   -0.27281E-04   -0.29601E-04  1897   0.216E-02    0.200E-02
RMM:   4    -0.328532724499E+03   -0.12395E-05   -0.25143E-05  1099   0.703E-03    0.130E-02
RMM:   5    -0.328532724841E+03   -0.34161E-06   -0.66857E-06  1000   0.415E-03
  598 T=   307. E= -.32881538E+03 F= -.32853272E+03 E0= -.32856175E+03  EK= 0.28207E+01 SP= -.31E+01 SK= 0.46E-03
       N       E                     dE             d eps       ncg     rms          rms(c)
DAV:   1    -0.328550088461E+03   -0.17364E-01   -0.74279E-03  2864   0.924E-01    0.490E-02
RMM:   2    -0.328550435296E+03   -0.34683E-03   -0.35551E-03  1673   0.812E-02    0.231E-02
RMM:   3    -0.328550463428E+03   -0.28132E-04   -0.30433E-04  1922   0.220E-02    0.216E-02
RMM:   4    -0.328550464270E+03   -0.84208E-06   -0.24590E-05  1107   0.700E-03    0.139E-02
RMM:   5    -0.328550464576E+03   -0.30598E-06   -0.73696E-06  1003   0.428E-03
  599 T=   308. E= -.32881542E+03 F= -.32855046E+03 E0= -.32857948E+03  EK= 0.28295E+01 SP= -.31E+01 SK= 0.68E-03
       N       E                     dE             d eps       ncg     rms          rms(c)
DAV:   1    -0.328565823301E+03   -0.15359E-01   -0.78479E-03  2864   0.926E-01    0.540E-02
RMM:   2    -0.328566176400E+03   -0.35310E-03   -0.36207E-03  1686   0.819E-02    0.194E-02
RMM:   3    -0.328566206148E+03   -0.29748E-04   -0.31987E-04  1924   0.223E-02    0.184E-02
RMM:   4    -0.328566207294E+03   -0.11461E-05   -0.25400E-05  1108   0.709E-03    0.116E-02
RMM:   5    -0.328566207629E+03   -0.33456E-06   -0.66385E-06  1003   0.416E-03
  600 T=   309. E= -.32881579E+03 F= -.32856621E+03 E0= -.32859521E+03  EK= 0.28340E+01 SP= -.31E+01 SK= 0.99E-03
       N       E                     dE             d eps       ncg     rms          rms(c)
DAV:   1    -0.328577043367E+03   -0.10836E-01   -0.80996E-03  2864   0.929E-01    0.486E-02
RMM:   2    -0.328577380833E+03   -0.33747E-03   -0.34540E-03  1676   0.809E-02    0.203E-02
RMM:   3    -0.328577409115E+03   -0.28282E-04   -0.30178E-04  1915   0.221E-02    0.193E-02
RMM:   4    -0.328577410367E+03   -0.12520E-05   -0.24569E-05  1107   0.704E-03    0.128E-02
RMM:   5    -0.328577410730E+03   -0.36334E-06   -0.66960E-06  1001   0.415E-03
  601 T=   309. E= -.32881562E+03 F= -.32857741E+03 E0= -.32860640E+03  EK= 0.28324E+01 SP= -.31E+01 SK= 0.14E-02
       N       E                     dE             d eps       ncg     rms          rms(c)
DAV:   1    -0.328583800772E+03   -0.63904E-02   -0.74555E-03  2848   0.929E-01    0.491E-02
RMM:   2    -0.328584144273E+03   -0.34350E-03   -0.35230E-03  1686   0.800E-02    0.193E-02
RMM:   3    -0.328584174053E+03   -0.29781E-04   -0.31854E-04  1939   0.221E-02    0.188E-02
RMM:   4    -0.328584175302E+03   -0.12488E-05   -0.23694E-05  1095   0.686E-03    0.133E-02
RMM:   5    -0.328584175513E+03   -0.21090E-06   -0.68093E-06  1003   0.414E-03
  602 T=   308. E= -.32881580E+03 F= -.32858418E+03 E0= -.32861316E+03  EK= 0.28241E+01 SP= -.31E+01 SK= 0.17E-02
       N       E                     dE             d eps       ncg     rms          rms(c)
DAV:   1    -0.328586131588E+03   -0.19563E-02   -0.81979E-03  2816   0.929E-01    0.519E-02
RMM:   2    -0.328586469560E+03   -0.33797E-03   -0.34628E-03  1675   0.797E-02    0.174E-02
RMM:   3    -0.328586498375E+03   -0.28815E-04   -0.30813E-04  1913   0.219E-02    0.169E-02
RMM:   4    -0.328586499656E+03   -0.12812E-05   -0.23894E-05  1088   0.696E-03    0.105E-02
RMM:   5    -0.328586500085E+03   -0.42916E-06   -0.66188E-06  1002   0.414E-03
  603 T=   306. E= -.32881557E+03 F= -.32858650E+03 E0= -.32861548E+03  EK= 0.28100E+01 SP= -.30E+01 SK= 0.21E-02
