 vasp.5.4.4.18Apr17-6-g9f103f2a35 (build Jul 14 2017 04:35:57) complex          
  
 executed on             LinuxIFC date 2017.12.17  20:58:48
 running on   16 total cores
 distrk:  each k-point on   16 cores,    1 groups
 distr:  one band on NCORES_PER_BAND=   1 cores,   16 groups


--------------------------------------------------------------------------------------------------------


 INCAR:
 POTCAR:    PAW_PBE P 06Sep2000                   
 POTCAR:    PAW_PBE In 08Apr2002                  

 ----------------------------------------------------------------------------- 
|                                                                             |
|           W    W    AA    RRRRR   N    N  II  N    N   GGGG   !!!           |
|           W    W   A  A   R    R  NN   N  II  NN   N  G    G  !!!           |
|           W    W  A    A  R    R  N N  N  II  N N  N  G       !!!           |
|           W WW W  AAAAAA  RRRRR   N  N N  II  N  N N  G  GGG   !            |
|           WW  WW  A    A  R   R   N   NN  II  N   NN  G    G                |
|           W    W  A    A  R    R  N    N  II  N    N   GGGG   !!!           |
|                                                                             |
|      For optimal performance we recommend to set                            |
|        NCORE= 4 - approx SQRT( number of cores)                             |
|      NCORE specifies how many cores store one orbital (NPAR=cpu/NCORE).     |
|      This setting can  greatly improve the performance of VASP for DFT.     |
|      The default,   NCORE=1            might be grossly inefficient         |
|      on modern multi-core architectures or massively parallel machines.     |
|      Do your own testing !!!!                                               |
|      Unfortunately you need to use the default for GW and RPA calculations. |
|      (for HF NCORE is supported but not extensively tested yet)             |
|                                                                             |
 ----------------------------------------------------------------------------- 

 POTCAR:    PAW_PBE P 06Sep2000                   
   VRHFIN =P : s2p3                                                             
   LEXCH  = PE                                                                  
   EATOM  =   176.0430 eV,   12.9388 Ry                                         
                                                                                
   TITEL  = PAW_PBE P 06Sep2000                                                 
   LULTRA =        F    use ultrasoft PP ?                                      
   IUNSCR =        1    unscreen: 0-lin 1-nonlin 2-no                           
   RPACOR =    1.500    partial core radius                                     
   POMASS =   30.974; ZVAL   =    5.000    mass and valenz                      
   RCORE  =    1.900    outmost cutoff radius                                   
   RWIGS  =    2.330; RWIGS  =    1.233    wigner-seitz radius (au A)           
   ENMAX  =  255.040; ENMIN  =  191.280 eV                                      
   ICORE  =        2    local potential                                         
   LCOR   =        T    correct aug charges                                     
   LPAW   =        T    paw PP                                                  
   EAUG   =  342.924                                                            
   DEXC   =    0.000                                                            
   RMAX   =    1.935    core radius for proj-oper                               
   RAUG   =    1.300    factor for augmentation sphere                          
   RDEP   =    1.931    radius for radial grids                                 
   RDEPT  =    1.794    core radius for aug-charge                              
                                                                                
   Atomic configuration                                                         
    6 entries                                                                   
     n  l   j            E        occ.                                          
     1  0  0.50     -2084.0982   2.0000                                         
     2  0  0.50      -173.9859   2.0000                                         
     2  1  1.50      -124.4865   6.0000                                         
     3  0  0.50       -13.9692   2.0000                                         
     3  1  0.50        -5.5067   3.0000                                         
     3  2  1.50        -5.4423   0.0000                                         
   Description                                                                  
     l       E           TYP  RCUT    TYP  RCUT                                 
     0    -13.9691527     23  1.900                                             
     0    -11.7794650     23  1.900                                             
     1     -5.5066937     23  1.900                                             
     1     -0.2556953     23  1.900                                             
     2     -5.4423304     23  1.900                                             
  local pseudopotential read in
  partial core-charges read in
  partial kinetic energy density read in
  atomic valenz-charges read in
  non local Contribution for L=           0  read in
    real space projection operators read in
  non local Contribution for L=           0  read in
    real space projection operators read in
  non local Contribution for L=           1  read in
    real space projection operators read in
  non local Contribution for L=           1  read in
    real space projection operators read in
    PAW grid and wavefunctions read in
 
   number of l-projection  operators is LMAX  =           4
   number of lm-projection operators is LMMAX =           8
 
 POTCAR:    PAW_PBE In 08Apr2002                  
   VRHFIN =In: s2p1                                                             
   LEXCH  = PE                                                                  
   EATOM  =    53.7908 eV,    3.9535 Ry                                         
                                                                                
   TITEL  = PAW_PBE In 08Apr2002                                                
   LULTRA =        F    use ultrasoft PP ?                                      
   IUNSCR =        1    unscreen: 0-lin 1-nonlin 2-no                           
   RPACOR =    2.400    partial core radius                                     
   POMASS =  114.820; ZVAL   =    3.000    mass and valenz                      
   RCORE  =    3.100    outmost cutoff radius                                   
   RWIGS  =    3.170; RWIGS  =    1.677    wigner-seitz radius (au A)           
   ENMAX  =   95.934; ENMIN  =   71.951 eV                                      
   ICORE  =        3    local potential                                         
   LCOR   =        T    correct aug charges                                     
   LPAW   =        T    paw PP                                                  
   EAUG   =  237.125                                                            
   DEXC   =    0.000                                                            
   RMAX   =    3.168    core radius for proj-oper                               
   RAUG   =    1.300    factor for augmentation sphere                          
   RDEP   =    3.187    radius for radial grids                                 
   RDEPT  =    2.711    core radius for aug-charge                              
                                                                                
   Atomic configuration                                                         
   13 entries                                                                   
     n  l   j            E        occ.                                          
     1  0  0.50    -27747.9169   2.0000                                         
     2  0  0.50     -4154.4438   2.0000                                         
     2  1  1.50     -3728.4305   6.0000                                         
     3  0  0.50      -788.3680   2.0000                                         
     3  1  1.50      -648.9215   6.0000                                         
     3  2  2.50      -432.5893  10.0000                                         
     4  0  0.50      -119.6363   2.0000                                         
     4  1  1.50       -78.1086   6.0000                                         
     4  2  2.50       -18.6227  10.0000                                         
     5  0  0.50        -8.2107   2.0000                                         
     5  1  0.50        -2.5185   1.0000                                         
     5  2  2.50        -1.3606   0.0000                                         
     4  3  2.50        -2.7212   0.0000                                         
   Description                                                                  
     l       E           TYP  RCUT    TYP  RCUT                                 
     0     -8.2107306     23  3.100                                             
     0     -6.1485975     23  3.100                                             
     1     -2.5184867     23  3.100                                             
     1      3.2427302     23  3.100                                             
     2     -1.3605826     23  3.100                                             
     3     -1.3605826     23  3.100                                             
  local pseudopotential read in
  partial core-charges read in
  partial kinetic energy density read in
  atomic valenz-charges read in
  non local Contribution for L=           0  read in
    real space projection operators read in
  non local Contribution for L=           0  read in
    real space projection operators read in
  non local Contribution for L=           1  read in
    real space projection operators read in
  non local Contribution for L=           1  read in
    real space projection operators read in
  non local Contribution for L=           2  read in
    real space projection operators read in
    PAW grid and wavefunctions read in
 
   number of l-projection  operators is LMAX  =           5
   number of lm-projection operators is LMMAX =          13
 
 Optimization of the real space projectors (new method)

 maximal supplied QI-value         = 19.84
 optimisation between [QCUT,QGAM] = [ 11.31, 22.82] = [ 35.82,145.81] Ry 
 Optimized for a Real-space Cutoff    1.16 Angstroem

   l    n(q)    QCUT    max X(q) W(low)/X(q) W(high)/X(q)  e(spline) 
   0      8    11.310   160.924    0.33E-03    0.34E-03    0.44E-07
   0      8    11.310   130.086    0.32E-03    0.34E-03    0.44E-07
   1      7    11.310    74.434    0.30E-03    0.36E-03    0.84E-07
   1      7    11.310    49.120    0.29E-03    0.35E-03    0.82E-07
 Optimization of the real space projectors (new method)

 maximal supplied QI-value         = 12.09
 optimisation between [QCUT,QGAM] = [ 11.37, 22.86] = [ 36.19,146.31] Ry 
 Optimized for a Real-space Cutoff    1.66 Angstroem

   l    n(q)    QCUT    max X(q) W(low)/X(q) W(high)/X(q)  e(spline) 
   0     11    11.369   106.980    0.13E-03    0.70E-04    0.20E-05
   0     11    11.369    81.086    0.14E-03    0.77E-04    0.22E-05
   1     11    11.369    53.097    0.15E-03    0.30E-03    0.86E-06
   1     11    11.369    32.621    0.14E-03    0.28E-03    0.81E-06
   2     10    11.369     8.820    0.13E-03    0.44E-04    0.34E-06
  PAW_PBE P 06Sep2000                   :
 energy of atom  1       EATOM= -176.0430
 kinetic energy error for atom=    0.0013 (will be added to EATOM!!)
  PAW_PBE In 08Apr2002                  :
 energy of atom  2       EATOM=  -53.7908
 kinetic energy error for atom=    0.0000 (will be added to EATOM!!)
 
 
 POSCAR:   Supercell 331 from POSCAR             
  positions in direct lattice
  No initial velocities read in
 exchange correlation table for  LEXCH =        8
   RHO(1)=    0.500       N(1)  =     2000
   RHO(2)=  100.500       N(2)  =     4000

 VTST: version 3.1, (03/28/14)

 CHAIN: initializing optimizer
 
 OPT: Using VASP Dynamics algorithm
 CHAIN: Read ICHAIN            0
 
 POSCAR:   Supercell 331 from POSCAR             
  positions in direct lattice
  No initial velocities read in
 


--------------------------------------------------------------------------------------------------------


 ion  position               nearest neighbor table
   1  0.317  0.089  0.550-  37 2.23  47 2.24  71 2.68  65 2.96
   2  0.651  0.089  0.550-  38 2.23  48 2.24  72 2.68  66 2.96
   3  0.984  0.089  0.550-  39 2.23  46 2.24  70 2.68  64 2.96
   4  0.317  0.422  0.550-  40 2.23  50 2.24  65 2.68  68 2.96
   5  0.651  0.422  0.550-  41 2.23  51 2.24  66 2.68  69 2.96
   6  0.984  0.422  0.550-  42 2.23  49 2.24  64 2.68  67 2.96
   7  0.317  0.756  0.550-  43 2.23  53 2.24  68 2.68  71 2.96
   8  0.651  0.756  0.550-  44 2.23  54 2.24  69 2.68  72 2.96
   9  0.984  0.756  0.550-  45 2.23  52 2.24  67 2.68  70 2.96
  10  0.002  0.231  0.429-  46 2.22  57 2.67  64 2.70  55 2.76
  11  0.335  0.231  0.429-  47 2.22  55 2.67  65 2.70  56 2.76
  12  0.669  0.231  0.429-  48 2.22  56 2.67  66 2.70  57 2.76
  13  0.002  0.565  0.429-  49 2.22  60 2.67  67 2.70  58 2.76
  14  0.335  0.565  0.429-  50 2.22  58 2.67  68 2.70  59 2.76
  15  0.669  0.565  0.429-  51 2.22  59 2.67  69 2.70  60 2.76
  16  0.002  0.898  0.429-  52 2.22  63 2.67  70 2.70  61 2.76
  17  0.335  0.898  0.429-  53 2.22  61 2.67  71 2.70  62 2.76
  18  0.669  0.898  0.429-  54 2.22  62 2.67  72 2.70  63 2.76
  19  0.151  0.089  0.450-  46 2.23  37 2.24  61 2.68  55 2.96
  20  0.484  0.089  0.450-  47 2.23  38 2.24  62 2.68  56 2.96
  21  0.817  0.089  0.450-  48 2.23  39 2.24  63 2.68  57 2.96
  22  0.151  0.422  0.450-  49 2.23  40 2.24  55 2.68  58 2.96
  23  0.484  0.422  0.450-  50 2.23  41 2.24  56 2.68  59 2.96
  24  0.817  0.422  0.450-  51 2.23  42 2.24  57 2.68  60 2.96
  25  0.151  0.756  0.450-  52 2.23  43 2.24  58 2.68  61 2.96
  26  0.484  0.756  0.450-  53 2.23  44 2.24  59 2.68  62 2.96
  27  0.817  0.756  0.450-  54 2.23  45 2.24  60 2.68  63 2.96
  28  0.169  0.231  0.571-  37 2.22  64 2.67  55 2.70  65 2.76
  29  0.502  0.231  0.571-  38 2.22  65 2.67  56 2.70  66 2.76
  30  0.835  0.231  0.571-  39 2.22  66 2.67  57 2.70  64 2.76
  31  0.169  0.565  0.571-  40 2.22  67 2.67  58 2.70  68 2.76
  32  0.502  0.565  0.571-  41 2.22  68 2.67  59 2.70  69 2.76
  33  0.835  0.565  0.571-  42 2.22  69 2.67  60 2.70  67 2.76
  34  0.169  0.898  0.571-  43 2.22  70 2.67  61 2.70  71 2.76
  35  0.502  0.898  0.571-  44 2.22  71 2.67  62 2.70  72 2.76
  36  0.835  0.898  0.571-  45 2.22  72 2.67  63 2.70  70 2.76
  37  0.177  0.101  0.553-  28 2.22   1 2.23  19 2.24
  38  0.510  0.101  0.553-  29 2.22   2 2.23  20 2.24
  39  0.844  0.101  0.553-  30 2.22   3 2.23  21 2.24
  40  0.177  0.435  0.553-  31 2.22   4 2.23  22 2.24
  41  0.510  0.435  0.553-  32 2.22   5 2.23  23 2.24
  42  0.844  0.435  0.553-  33 2.22   6 2.23  24 2.24
  43  0.177  0.768  0.553-  34 2.22   7 2.23  25 2.24
  44  0.510  0.768  0.553-  35 2.22   8 2.23  26 2.24
  45  0.844  0.768  0.553-  36 2.22   9 2.23  27 2.24
  46  0.010  0.101  0.447-  10 2.22  19 2.23   3 2.24
  47  0.344  0.101  0.447-  11 2.22  20 2.23   1 2.24
  48  0.677  0.101  0.447-  12 2.22  21 2.23   2 2.24
  49  0.010  0.435  0.447-  13 2.22  22 2.23   6 2.24
  50  0.344  0.435  0.447-  14 2.22  23 2.23   4 2.24
  51  0.677  0.435  0.447-  15 2.22  24 2.23   5 2.24
  52  0.010  0.768  0.447-  16 2.22  25 2.23   9 2.24
  53  0.344  0.768  0.447-  17 2.22  26 2.23   7 2.24
  54  0.677  0.768  0.447-  18 2.22  27 2.23   8 2.24
  55  0.170  0.263  0.446-  11 2.67  22 2.68  28 2.70  10 2.76  19 2.96  65 3.50  64 3.50
  56  0.504  0.263  0.446-  12 2.67  23 2.68  29 2.70  11 2.76  20 2.96  66 3.50  65 3.50
  57  0.837  0.263  0.446-  10 2.67  24 2.68  30 2.70  12 2.76  21 2.96  64 3.50  66 3.50
  58  0.170  0.597  0.446-  14 2.67  25 2.68  31 2.70  13 2.76  22 2.96  68 3.50  67 3.50
  59  0.504  0.597  0.446-  15 2.67  26 2.68  32 2.70  14 2.76  23 2.96  69 3.50  68 3.50
  60  0.837  0.597  0.446-  13 2.67  27 2.68  33 2.70  15 2.76  24 2.96  67 3.50  69 3.50
  61  0.170  0.930  0.446-  17 2.67  19 2.68  34 2.70  16 2.76  25 2.96  71 3.50  70 3.50
  62  0.504  0.930  0.446-  18 2.67  20 2.68  35 2.70  17 2.76  26 2.96  72 3.50  71 3.50
  63  0.837  0.930  0.446-  16 2.67  21 2.68  36 2.70  18 2.76  27 2.96  70 3.50  72 3.50
  64  0.004  0.263  0.554-  28 2.67   6 2.68  10 2.70  30 2.76   3 2.96  57 3.50  55 3.50
  65  0.337  0.263  0.554-  29 2.67   4 2.68  11 2.70  28 2.76   1 2.96  55 3.50  56 3.50
  66  0.670  0.263  0.554-  30 2.67   5 2.68  12 2.70  29 2.76   2 2.96  56 3.50  57 3.50
  67  0.004  0.597  0.554-  31 2.67   9 2.68  13 2.70  33 2.76   6 2.96  60 3.50  58 3.50
  68  0.337  0.597  0.554-  32 2.67   7 2.68  14 2.70  31 2.76   4 2.96  58 3.50  59 3.50
  69  0.670  0.597  0.554-  33 2.67   8 2.68  15 2.70  32 2.76   5 2.96  59 3.50  60 3.50
  70  0.004  0.930  0.554-  34 2.67   3 2.68  16 2.70  36 2.76   9 2.96  63 3.50  61 3.50
  71  0.337  0.930  0.554-  35 2.67   1 2.68  17 2.70  34 2.76   7 2.96  61 3.50  62 3.50
  72  0.670  0.930  0.554-  36 2.67   2 2.68  18 2.70  35 2.76   8 2.96  62 3.50  63 3.50
 
  LATTYP: Found a simple monoclinic cell.
 ALAT       =    23.5835103808
 B/A-ratio  =     0.9014040350
 C/A-ratio  =     1.5470965569
 COS(beta)  =    -0.9508522463
  
  Lattice vectors:
  
 A1 = ( -16.1603696456, -17.1762747649,   0.0000169294)
 A2 = (  -0.0000034176,   0.0000078726, -21.2582714172)
 A3 = (  32.0011829982,  17.5256990284,  -0.0000330481)


Analysis of symmetry for initial positions (statically):
=====================================================================
 Subroutine PRICEL returns following result:
 
  LATTYP: Found a simple monoclinic cell.
 ALAT       =     7.8611703612
 B/A-ratio  =     2.7042120245
 C/A-ratio  =     1.5470965569
 COS(beta)  =    -0.9508522463
  
  Lattice vectors:
  
 A1 = (  -5.3867900424,  -5.7254250923,   0.0000056431)
 A2 = (  -0.0000034176,   0.0000078726, -21.2582714172)
 A3 = (  10.6670613173,   5.8418998502,  -0.0000110160)
 
   9 primitive cells build up your supercell.
 

 Routine SETGRP: Setting up the symmetry group for a 
 simple monoclinic supercell.


 Subroutine GETGRP returns: Found  2 space group operations
 (whereof  1 operations were pure point group operations)
 out of a pool of  4 trial point group operations.


The static configuration has the point symmetry C_1 .
 The point group associated with its full space group is C_1h.


Analysis of symmetry for dynamics (positions and initial velocities):
=====================================================================
 Subroutine PRICEL returns:
 Original cell was already a primitive cell.
 

 Routine SETGRP: Setting up the symmetry group for a 
 simple monoclinic supercell.


 Subroutine GETGRP returns: Found  1 space group operations
 (whereof  1 operations were pure point group operations)
 out of a pool of  4 trial point group operations.


The dynamic configuration has the point symmetry C_1 .


 Subroutine INISYM returns: Found  1 space group operations
 (whereof  1 operations are pure point group operations),
 and found     1 'primitive' translations

 
 
 KPOINTS: Auto                                    

Automatic generation of k-mesh.
Space group operators:
 irot       det(A)        alpha          n_x          n_y          n_z        tau_x        tau_y        tau_z
    1     1.000000     0.000002     1.000000     0.000000     0.000000     0.000000     0.000000     0.000000
 
 Subroutine IBZKPT returns following result:
 ===========================================
 
 Found      4 irreducible k-points:
 
 Following reciprocal coordinates:
            Coordinates               Weight
  0.000000  0.000000  0.000000      1.000000
  0.500000  0.000000 -0.000000      1.000000
  0.000000  0.500000  0.000000      1.000000
  0.500000  0.500000  0.000000      1.000000
 
 Following cartesian coordinates:
            Coordinates               Weight
  0.000000  0.000000  0.000000      1.000000
  0.031577 -0.000600 -0.000000      1.000000
 -0.000656  0.029727  0.000000      1.000000
  0.030922  0.029127  0.000000      1.000000
 


--------------------------------------------------------------------------------------------------------




 Dimension of arrays:
   k-points           NKPTS =      4   k-points in BZ     NKDIM =      4   number of bands    NBANDS=    208
   number of dos      NEDOS =    301   number of ions     NIONS =     72
   non local maximal  LDIM  =      5   non local SUM 2l+1 LMDIM =     13
   total plane-waves  NPLWV = ******
   max r-space proj   IRMAX =   3553   max aug-charges    IRDMAX=  20847
   dimension x,y,z NGX =    90 NGY =   96 NGZ =  120
   dimension x,y,z NGXF=   180 NGYF=  192 NGZF=  240
   support grid    NGXF=   180 NGYF=  192 NGZF=  240
   ions per type =              54  18
   NGX,Y,Z   is equivalent  to a cutoff of   9.44,  9.48,  9.38 a.u.
   NGXF,Y,Z  is equivalent  to a cutoff of  18.89, 18.97, 18.77 a.u.

 SYSTEM =  qvasp                                   
 POSCAR =    Supercell 331 from POSCAR             

 Startparameter for this run:
   NWRITE =      2    write-flag & timer
   PREC   = normal    normal or accurate (medium, high low for compatibility)
   ISTART =      0    job   : 0-new  1-cont  2-samecut
   ICHARG =      2    charge: 1-file 2-atom 10-const
   ISPIN  =      1    spin polarized calculation?
   LNONCOLLINEAR =      F non collinear calculations
   LSORBIT =      F    spin-orbit coupling
   INIWAV =      1    electr: 0-lowe 1-rand  2-diag
   LASPH  =      F    aspherical Exc in radial PAW
   METAGGA=      F    non-selfconsistent MetaGGA calc.

 Electronic Relaxation 1
   ENCUT  =  500.0 eV  36.75 Ry    6.06 a.u.  28.89 30.68 38.76*2*pi/ulx,y,z
   ENINI  =  500.0     initial cutoff
   ENAUG  =  342.9 eV  augmentation charge cutoff
   NELM   =     60;   NELMIN=  5; NELMDL=  0     # of ELM steps 
   EDIFF  = 0.1E-04   stopping-criterion for ELM
   LREAL  =      T    real-space projection
   NLSPLINE    = F    spline interpolate recip. space projectors
   LCOMPAT=      F    compatible to vasp.4.4
   GGA_COMPAT  = T    GGA compatible to vasp.4.4-vasp.4.6
   LMAXPAW     = -100 max onsite density
   LMAXMIX     =    2 max onsite mixed and CHGCAR
   VOSKOWN=      0    Vosko Wilk Nusair interpolation
   ROPT   =   -0.00050  -0.00050
 Ionic relaxation
   EDIFFG = 0.1E-03   stopping-criterion for IOM
   NSW    =   5000    number of steps for IOM
   NBLOCK =      1;   KBLOCK =     50    inner block; outer block 
   IBRION =      0    ionic relax: 0-MD 1-quasi-New 2-CG
   NFREE  =      0    steps in history (QN), initial steepest desc. (CG)
   ISIF   =      2    stress and relaxation
   IWAVPR =     12    prediction:  0-non 1-charg 2-wave 3-comb
   ISYM   =      2    0-nonsym 1-usesym 2-fastsym
   LCORR  =      T    Harris-Foulkes like correction to forces

   POTIM  = 2.0000    time-step for ionic-motion
   TEIN   =  300.0    initial temperature
   TEBEG  =  300.0;   TEEND  = 300.0 temperature during run
   SMASS  =   0.07    Nose mass-parameter (am)
   estimated Nose-frequenzy (Omega)   =  0.79E+14 period in steps = 40.00 mass=   0.131E-27a.u.
   SCALEE = 1.0000    scale energy and forces
   NPACO  =    256;   APACO  = 16.0  distance and # of slots for P.C.
   PSTRESS=    0.0 pullay stress

  Mass of Ions in am
   POMASS =  30.97114.82
  Ionic Valenz
   ZVAL   =   5.00  3.00
  Atomic Wigner-Seitz radii
   RWIGS  =  -1.00 -1.00
  virtual crystal weights 
   VCA    =   1.00  1.00
   NELECT =     324.0000    total number of electrons
   NUPDOWN=      -1.0000    fix difference up-down

 DOS related values:
   EMIN   =  10.00;   EMAX   =-10.00  energy-range for DOS
   EFERMI =   0.00
   ISMEAR =     1;   SIGMA  =   0.20  broadening in eV -4-tet -1-fermi 0-gaus

 Electronic relaxation 2 (details)
   IALGO  =     68    algorithm
   LDIAG  =      T    sub-space diagonalisation (order eigenvalues)
   LSUBROT=      F    optimize rotation matrix (better conditioning)
   TURBO    =      0    0=normal 1=particle mesh
   IRESTART =      0    0=no restart 2=restart with 2 vectors
   NREBOOT  =      0    no. of reboots
   NMIN     =      0    reboot dimension
   EREF     =   0.00    reference energy to select bands
   IMIX   =      4    mixing-type and parameters
     AMIX     =   0.40;   BMIX     =  1.00
     AMIX_MAG =   1.60;   BMIX_MAG =  1.00
     AMIN     =   0.10
     WC   =   100.;   INIMIX=   1;  MIXPRE=   1;  MAXMIX= -45

 Intra band minimization:
   WEIMIN = 0.0010     energy-eigenvalue tresh-hold
   EBREAK =  0.12E-07  absolut break condition
   DEPER  =   0.30     relativ break condition  

   TIME   =   0.40     timestep for ELM

  volume/ion in A,a.u.               =      78.67       530.87
  Fermi-wavevector in a.u.,A,eV,Ry     =   0.630785  1.192010  5.413611  0.397889
  Thomas-Fermi vector in A             =   1.693536
 
 Write flags
   LWAVE        =      F    write WAVECAR
   LDOWNSAMPLE  =      F    k-point downsampling of WAVECAR
   LCHARG       =      F    write CHGCAR
   LVTOT        =      F    write LOCPOT, total local potential
   LVHAR        =      F    write LOCPOT, Hartree potential only
   LELF         =      F    write electronic localiz. function (ELF)
   LORBIT       =      0    0 simple, 1 ext, 2 COOP (PROOUT), +10 PAW based schemes


 Dipole corrections
   LMONO  =      F    monopole corrections only (constant potential shift)
   LDIPOL =      F    correct potential (dipole corrections)
   IDIPOL =      0    1-x, 2-y, 3-z, 4-all directions 
   EPSILON=  1.0000000 bulk dielectric constant

 Exchange correlation treatment:
   GGA     =    --    GGA type
   LEXCH   =     8    internal setting for exchange type
   VOSKOWN=      0    Vosko Wilk Nusair interpolation
   LHFCALC =     F    Hartree Fock is set to
   LHFONE  =     F    Hartree Fock one center treatment
   AEXX    =    0.0000 exact exchange contribution

 Linear response parameters
   LEPSILON=     F    determine dielectric tensor
   LRPA    =     F    only Hartree local field effects (RPA)
   LNABLA  =     F    use nabla operator in PAW spheres
   LVEL    =     F    velocity operator in full k-point grid
   LINTERFAST=   F  fast interpolation
   KINTER  =     0    interpolate to denser k-point grid
   CSHIFT  =0.1000    complex shift for real part using Kramers Kronig
   OMEGAMAX=  -1.0    maximum frequency
   DEG_THRESHOLD= 0.2000000E-02 threshold for treating states as degnerate
   RTIME   =   -0.100 relaxation time in fs
  (WPLASMAI=    0.000 imaginary part of plasma frequency in eV, 0.658/RTIME)
   DFIELD  = 0.0000000 0.0000000 0.0000000 field for delta impulse in time
 
 Orbital magnetization related:
   ORBITALMAG=     F  switch on orbital magnetization
   LCHIMAG   =     F  perturbation theory with respect to B field
   DQ        =  0.001000  dq finite difference perturbation B field
   LLRAUG    =     F  two centre corrections for induced B field



--------------------------------------------------------------------------------------------------------


 molecular dynamics for ions
   using nose mass (canonical ensemble)
 charge density and potential will be updated during run
 non-spin polarized calculation
 RMM-DIIS sequential band-by-band and
  variant of blocked Davidson during initial phase
 perform sub-space diagonalisation
    before iterative eigenvector-optimisation
 modified Broyden-mixing scheme, WC =      100.0
 initial mixing is a Kerker type mixing with AMIX =  0.4000 and BMIX =      1.0000
 Hartree-type preconditioning will be used
 using additional bands           46
 real space projection scheme for non local part
 use partial core corrections
 calculate Harris-corrections to forces 
   (improved forces if not selfconsistent)
 use gradient corrections 
 use of overlap-Matrix (Vanderbilt PP)
 Methfessel and Paxton  Order N= 1 SIGMA  =   0.20


--------------------------------------------------------------------------------------------------------


  energy-cutoff  :      500.00
  volume of cell :     5664.04
      direct lattice vectors                 reciprocal lattice vectors
    15.840813353  0.349424263 -0.000016119     0.063154528 -0.001199359 -0.000000011
     0.319556293 16.826850501 -0.000000811    -0.001311459  0.059453733  0.000000022
     0.000003418 -0.000007873 21.258271417     0.000000048  0.000000001  0.047040513

  length of vectors
    15.844666768 16.829884552 21.258271417     0.063165915  0.059468196  0.047040513


 
 k-points in units of 2pi/SCALE and weight: Auto                                    
   0.00000000  0.00000000  0.00000000       0.250
   0.03157726 -0.00059968 -0.00000001       0.250
  -0.00065573  0.02972687  0.00000001       0.250
   0.03092153  0.02912719  0.00000001       0.250
 
 k-points in reciprocal lattice and weights: Auto                                    
   0.00000000  0.00000000  0.00000000       0.250
   0.50000000  0.00000000 -0.00000000       0.250
   0.00000000  0.50000000  0.00000000       0.250
   0.50000000  0.50000000  0.00000000       0.250
 
 position of ions in fractional coordinates (direct lattice) 
   0.31748963  0.08899698  0.54975461
   0.65082297  0.08899698  0.54975461
   0.98415632  0.08899698  0.54975461
   0.31748963  0.42233032  0.54975461
   0.65082297  0.42233032  0.54975461
   0.98415632  0.42233032  0.54975461
   0.31748963  0.75566367  0.54975461
   0.65082297  0.75566367  0.54975461
   0.98415632  0.75566367  0.54975461
   0.00200836  0.23128795  0.42921129
   0.33534171  0.23128795  0.42921129
   0.66867505  0.23128795  0.42921129
   0.00200836  0.56462129  0.42921129
   0.33534171  0.56462129  0.42921129
   0.66867505  0.56462129  0.42921129
   0.00200836  0.89795463  0.42921129
   0.33534171  0.89795463  0.42921129
   0.66867505  0.89795463  0.42921129
   0.15082287  0.08899704  0.45025026
   0.48415622  0.08899704  0.45025026
   0.81748956  0.08899704  0.45025026
   0.15082287  0.42233038  0.45025026
   0.48415622  0.42233038  0.45025026
   0.81748956  0.42233038  0.45025026
   0.15082287  0.75566372  0.45025026
   0.48415622  0.75566372  0.45025026
   0.81748956  0.75566372  0.45025026
   0.16867494  0.23128794  0.57079371
   0.50200829  0.23128794  0.57079371
   0.83534163  0.23128794  0.57079371
   0.16867494  0.56462129  0.57079371
   0.50200829  0.56462129  0.57079371
   0.83534163  0.56462129  0.57079371
   0.16867494  0.89795463  0.57079371
   0.50200829  0.89795463  0.57079371
   0.83534163  0.89795463  0.57079371
   0.17693624  0.10126813  0.55320282
   0.51026959  0.10126813  0.55320282
   0.84360293  0.10126813  0.55320282
   0.17693624  0.43460147  0.55320282
   0.51026959  0.43460147  0.55320282
   0.84360293  0.43460147  0.55320282
   0.17693624  0.76793482  0.55320282
   0.51026959  0.76793482  0.55320282
   0.84360293  0.76793482  0.55320282
   0.01026946  0.10126801  0.44680231
   0.34360281  0.10126801  0.44680231
   0.67693615  0.10126801  0.44680231
   0.01026946  0.43460136  0.44680231
   0.34360281  0.43460136  0.44680231
   0.67693615  0.43460136  0.44680231
   0.01026946  0.76793470  0.44680231
   0.34360281  0.76793470  0.44680231
   0.67693615  0.76793470  0.44680231
   0.17023257  0.26338697  0.44613160
   0.50356592  0.26338697  0.44613160
   0.83689926  0.26338697  0.44613160
   0.17023257  0.59672031  0.44613160
   0.50356592  0.59672031  0.44613160
   0.83689926  0.59672031  0.44613160
   0.17023257  0.93005366  0.44613160
   0.50356592  0.93005366  0.44613160
   0.83689926  0.93005366  0.44613160
   0.00356591  0.26338695  0.55387343
   0.33689925  0.26338695  0.55387343
   0.67023260  0.26338695  0.55387343
   0.00356591  0.59672030  0.55387343
   0.33689925  0.59672030  0.55387343
   0.67023260  0.59672030  0.55387343
   0.00356591  0.93005364  0.55387343
   0.33689925  0.93005364  0.55387343
   0.67023260  0.93005364  0.55387343
 
 position of ions in cartesian coordinates  (Angst):
   5.05773542  1.60847315 11.68682753
  10.33800670  1.72494791 11.68682216
  15.61827797  1.84142267 11.68681678
   5.16425419  7.21742349 11.68682726
  10.44452546  7.33389824 11.68682189
  15.72479674  7.45037300 11.68681651
   5.27077296 12.82637382 11.68682699
  10.55104423 12.94284858 11.68682162
  15.83131551 13.05932334 11.68681624
   0.10572511  3.89254609  9.12428978
   5.38599639  4.00902085  9.12428440
  10.66626766  4.12549560  9.12427903
   0.21224388  9.50149642  9.12428951
   5.49251516  9.61797118  9.12428413
  10.77278643  9.73444594  9.12427876
   0.31876265 15.11044676  9.12428924
   5.59903392 15.22692151  9.12428386
  10.87930520 15.34339627  9.12427849
   2.41759807  1.55023749  9.57153980
   7.69786935  1.66671224  9.57153443
  12.97814062  1.78318700  9.57152906
   2.52411684  7.15918782  9.57153953
   7.80438811  7.27566258  9.57153416
  13.08465939  7.39213734  9.57152878
   2.63063561 12.76813816  9.57153926
   7.91090688 12.88461291  9.57153389
  13.19117816 13.00108767  9.57152851
   2.74585977  3.95078225 12.13408464
   8.02613105  4.06725701 12.13407926
  13.30640232  4.18373177 12.13407389
   2.85237854  9.55973259 12.13408437
   8.13264982  9.67620734 12.13407899
  13.41292109  9.79268210 12.13407362
   2.95889731 15.16868292 12.13408410
   8.23916858 15.28515768 12.13407872
  13.51943986 15.40163244 12.13407335
   2.83517678  1.76584513 11.76013267
   8.11544805  1.88231989 11.76012729
  13.39571933  1.99879465 11.76012192
   2.94169555  7.37479547 11.76013240
   8.22196682  7.49127023 11.76012702
  13.50223810  7.60774498 11.76012165
   3.04821432 12.98374580 11.76013213
   8.32848559 13.10022056 11.76012675
  13.60875686 13.21669532 11.76012138
   0.19503900  1.70760658  9.49824456
   5.47531027  1.82408134  9.49823919
  10.75558155  1.94055609  9.49823382
   0.30155777  7.31655691  9.49824429
   5.58182904  7.43303167  9.49823892
  10.86210031  7.54950643  9.49823355
   0.40807653 12.92550725  9.49824402
   5.68834781 13.04198201  9.49823865
  10.96861908 13.15845676  9.49823328
   2.78079092  4.49145304  9.48398372
   8.06106220  4.60792780  9.48397835
  13.34133347  4.72440256  9.48397298
   2.88730969 10.10040338  9.48398345
   8.16758096 10.21687813  9.48397808
  13.44785224 10.33335289  9.48397271
   2.99382846 15.70935371  9.48398318
   8.27409973 15.82582847  9.48397781
  13.55437101 15.94230323  9.48397244
   0.14065577  4.43321452 11.77439146
   5.42092704  4.54968928 11.77438609
  10.70119832  4.66616404 11.77438071
   0.24717454 10.04216486 11.77439119
   5.52744581 10.15863961 11.77438582
  10.80771708 10.27511437 11.77438044
   0.35369330 15.65111519 11.77439092
   5.63396458 15.76758995 11.77438555
  10.91423585 15.88406471 11.77438017
 


--------------------------------------------------------------------------------------------------------


 k-point  1 :   0.0000 0.0000 0.0000  plane waves:  143773
 k-point  2 :   0.5000 0.0000-0.0000  plane waves:  143900
 k-point  3 :   0.0000 0.5000 0.0000  plane waves:  143790
 k-point  4 :   0.5000 0.5000 0.0000  plane waves:  143836

 maximum and minimum number of plane-waves per node :    143900   143773

 maximum number of plane-waves:    143900
 maximum index in each direction: 
   IXMAX=   28   IYMAX=   30   IZMAX=   38
   IXMIN=  -29   IYMIN=  -31   IZMIN=  -38


 serial   3D FFT for wavefunctions
 parallel 3D FFT for charge:
    minimum data exchange during FFTs selected (reduces bandwidth)


 total amount of memory used by VASP MPI-rank0   261961. kBytes
=======================================================================

   base      :      30000. kBytes
   nonlr-proj:      15727. kBytes
   fftplans  :      22603. kBytes
   grid      :      72760. kBytes
   one-center:        584. kBytes
   wavefun   :     120287. kBytes
 
     INWAV:  cpu time    0.0000: real time    0.0001
 Broyden mixing: mesh for mixing (old mesh)
   NGX = 57   NGY = 61   NGZ = 77
  (NGX  =180   NGY  =192   NGZ  =240)
  gives a total of 267729 points

 initial charge density was supplied:
 charge density of overlapping atoms calculated
 number of electron     324.0000000 magnetization 
 keeping initial charge density in first step


--------------------------------------------------------------------------------------------------------


 Maximum index for non-local projection operator         3390
 Maximum index for augmentation-charges         1861 (set IRDMAX)


--------------------------------------------------------------------------------------------------------


 First call to EWALD:  gamma=   0.099
 Maximum number of real-space cells 3x 3x 2
 Maximum number of reciprocal cells 2x 3x 3

    FEWALD:  cpu time    0.0080: real time    0.0114


--------------------------------------- Iteration      1(   1)  ---------------------------------------


    POTLOK:  cpu time    0.8959: real time    0.9108
    SETDIJ:  cpu time    0.0230: real time    0.0340
     EDDAV:  cpu time   45.2621: real time   45.3551
       DOS:  cpu time    0.0040: real time    0.0083
    --------------------------------------------
      LOOP:  cpu time   46.1850: real time   46.3084

 eigenvalue-minimisations  :  1664
 total energy-change (2. order) : 0.2312464E+04  (-0.9425998E+04)
 number of electron     324.0000000 magnetization 
 augmentation part      324.0000000 magnetization 

 Free energy of the ion-electron system (eV)
  ---------------------------------------------------
  alpha Z        PSCENC =        60.85720697
  Ewald energy   TEWEN  =     29071.43130706
  -Hartree energ DENC   =    -37830.53993693
  -exchange      EXHF   =         0.00000000
  -V(xc)+E(xc)   XCENC  =      -831.70322860
  PAW double counting   =      9243.05100925    -7733.50330603
  entropy T*S    EENTRO =         0.00306949
  eigenvalues    EBANDS =      -141.62028192
  atomic energy  EATOM  =     10474.48818271
  Solvation  Ediel_sol  =         0.00000000
  ---------------------------------------------------
  free energy    TOTEN  =      2312.46402200 eV

  energy without entropy =     2312.46095251  energy(sigma->0) =     2312.46299883


--------------------------------------------------------------------------------------------------------




--------------------------------------- Iteration      1(   2)  ---------------------------------------


     EDDAV:  cpu time   61.5037: real time   61.9588
       DOS:  cpu time    0.0010: real time    0.0008
    --------------------------------------------
      LOOP:  cpu time   61.5047: real time   61.9596

 eigenvalue-minimisations  :  2496
 total energy-change (2. order) :-0.2256287E+04  (-0.2180336E+04)
 number of electron     324.0000000 magnetization 
 augmentation part      324.0000000 magnetization 

