Sn8 S12
1.0
   3.7634732400000002   -0.0000000000000000    0.0000000000000000
   0.0000000000000000    9.1177935800000007    0.0000000000000000
   0.0000000000000000    0.0000000000000000   14.4736518099999998
Sn S
8 12
direct
   0.7500000000000000    0.8408265500000001    0.0509805100000000 Sn
   0.2500000000000000    0.1591734500000000    0.9490194900000000 Sn
   0.7500000000000000    0.3408265500000000    0.4490194900000000 Sn
   0.2500000000000000    0.6591734500000000    0.5509805100000000 Sn
   0.7500000000000000    0.4699624000000000    0.8355369600000000 Sn
   0.2500000000000000    0.5300376000000000    0.1644630400000000 Sn
   0.7500000000000000    0.9699624000000000    0.6644630400000000 Sn
   0.2500000000000000    0.0300375999999990    0.3355369600000000 Sn
   0.7500000000000000    0.9791875400000000    0.8960155999999990 S
   0.2500000000000000    0.0208124600000000    0.1039843999999990 S
   0.7500000000000000    0.4791875400000000    0.6039844000000000 S
   0.2500000000000000    0.5208124600000000    0.3960155999999990 S
   0.7500000000000000    0.3327995900000000    0.0017461400000000 S
   0.2500000000000000    0.6672004100000000    0.9982538600000000 S
   0.7500000000000000    0.8327995900000000    0.4982538600000000 S
   0.2500000000000000    0.1672004100000000    0.5017461400000001 S
   0.7500000000000000    0.7197013200000000    0.2075249800000000 S
   0.2500000000000000    0.2802986800000000    0.7924750200000000 S
   0.7500000000000000    0.2197013200000000    0.2924750200000000 S
   0.2500000000000000    0.7802986800000000    0.7075249800000000 S
