   8   8   1   0
  0.7866722E+02  0.5281556E-09  0.5609962E-09  0.2125827E-08  0.5000000E-15
  1.000000000000000E-004
  CAR 
 AlN 0001 surface 2x2 Ga_T4              
      2.93695651    -16.91563261  800     -1.95165038      1.00000000
    -16.916  0.0000E+00  0.0000E+00
    -16.891  0.0000E+00  0.0000E+00
    -16.866  0.0000E+00  0.0000E+00
    -16.841  0.0000E+00  0.0000E+00
    -16.816  0.0000E+00  0.0000E+00
    -16.791  0.0000E+00  0.0000E+00
    -16.767  0.0000E+00  0.0000E+00
    -16.742  0.0000E+00  0.0000E+00
    -16.717  0.0000E+00  0.0000E+00
    -16.692  0.0000E+00  0.0000E+00
    -16.667  0.0000E+00  0.0000E+00
    -16.642  0.0000E+00  0.0000E+00
    -16.617  0.0000E+00  0.0000E+00
    -16.593  0.0000E+00  0.0000E+00
    -16.568  0.0000E+00  0.0000E+00
    -16.543  0.0000E+00  0.0000E+00
    -16.518  0.0000E+00  0.0000E+00
    -16.493  0.0000E+00  0.0000E+00
    -16.468  0.0000E+00  0.0000E+00
    -16.444  0.0000E+00  0.0000E+00
    -16.419  0.0000E+00  0.0000E+00
    -16.394  0.0000E+00  0.0000E+00
    -16.369  0.0000E+00  0.0000E+00
    -16.344  0.0000E+00  0.0000E+00
    -16.319  0.0000E+00  0.0000E+00
    -16.294  0.0000E+00  0.0000E+00
    -16.270  0.0000E+00  0.0000E+00
    -16.245  0.0000E+00  0.0000E+00
    -16.220  0.0000E+00  0.0000E+00
    -16.195  0.0000E+00  0.0000E+00
    -16.170  0.0000E+00  0.0000E+00
    -16.145  0.0000E+00  0.0000E+00
    -16.121  0.0000E+00  0.0000E+00
    -16.096  0.0000E+00  0.0000E+00
    -16.071  0.0000E+00  0.0000E+00
    -16.046  0.0000E+00  0.0000E+00
    -16.021  0.0000E+00  0.0000E+00
    -15.996  0.2749E+01  0.2960E-01
    -15.971  0.2375E+01  0.9106E-01
    -15.947  0.2691E+01  0.1536E+00
    -15.922  0.2646E+01  0.2200E+00
    -15.897  0.2804E+01  0.2875E+00
    -15.872  0.3034E+01  0.3598E+00
    -15.847  0.3482E+01  0.4411E+00
    -15.822  0.4389E+01  0.5360E+00
    -15.798  0.3259E+01  0.6444E+00
    -15.773  0.2997E+01  0.7222E+00
    -15.748  0.2500E+01  0.7920E+00
    -15.723  0.2425E+01  0.8531E+00
    -15.698  0.2255E+01  0.9112E+00
    -15.673  0.2110E+01  0.9654E+00
    -15.648  0.1923E+01  0.1015E+01
    -15.624  0.1886E+01  0.1063E+01
    -15.599  0.1849E+01  0.1109E+01
    -15.574  0.1809E+01  0.1154E+01
    -15.549  0.1718E+01  0.1198E+01
    -15.524  0.1598E+01  0.1239E+01
    -15.499  0.1571E+01  0.1279E+01
    -15.475  0.1547E+01  0.1318E+01
    -15.450  0.1525E+01  0.1356E+01
    -15.425  0.1500E+01  0.1393E+01
    -15.400  0.1471E+01  0.1430E+01
    -15.375  0.1410E+01  0.1466E+01
    -15.350  0.1375E+01  0.1501E+01
    -15.325  0.1354E+01  0.1535E+01
    -15.301  0.1338E+01  0.1568E+01
    -15.276  0.1322E+01  0.1601E+01
    -15.251  0.1307E+01  0.1634E+01
    -15.226  0.1290E+01  0.1666E+01
    -15.201  0.1268E+01  0.1698E+01
    -15.176  0.1241E+01  0.1729E+01
    -15.152  0.1241E+01  0.1760E+01
    -15.127  0.1771E+01  0.1818E+01
    -15.102  0.1382E+01  0.1856E+01
    -15.077  0.1181E+01  0.1888E+01
    -15.052  0.1067E+01  0.1916E+01
    -15.027  0.9960E+00  0.1941E+01
    -15.002  0.1047E+01  0.1966E+01
    -14.978  0.2344E+00  0.2000E+01
    -14.953  0.0000E+00  0.2000E+01
    -14.928  0.0000E+00  0.2000E+01
    -14.903  0.1559E+01  0.2020E+01
    -14.878  0.1085E+01  0.2048E+01
    -14.853  0.1018E+01  0.2073E+01
    -14.829  0.1078E+01  0.2099E+01
    -14.804  0.1235E+01  0.2127E+01
    -14.779  0.1351E+01  0.2159E+01
    -14.754  0.3235E+01  0.2201E+01
    -14.729  0.1088E+01  0.2244E+01
    -14.704  0.1089E+01  0.2271E+01
    -14.679  0.1089E+01  0.2298E+01
    -14.655  0.1090E+01  0.2325E+01
    -14.630  0.1092E+01  0.2352E+01
    -14.605  0.1093E+01  0.2380E+01
    -14.580  0.1095E+01  0.2407E+01
    -14.555  0.1096E+01  0.2434E+01
    -14.530  0.1098E+01  0.2461E+01
    -14.505  0.1101E+01  0.2488E+01
    -14.481  0.1101E+01  0.2516E+01
    -14.456  0.1101E+01  0.2543E+01
    -14.431  0.1101E+01  0.2571E+01
    -14.406  0.1118E+01  0.2598E+01
    -14.381  0.1134E+01  0.2626E+01
    -14.356  0.1146E+01  0.2654E+01
    -14.332  0.1157E+01  0.2683E+01
    -14.307  0.1169E+01  0.2712E+01
    -14.282  0.1184E+01  0.2741E+01
    -14.257  0.1203E+01  0.2771E+01
    -14.232  0.1203E+01  0.2801E+01
    -14.207  0.1203E+01  0.2831E+01
    -14.182  0.1248E+01  0.2861E+01
    -14.158  0.1293E+01  0.2892E+01
    -14.133  0.1326E+01  0.2925E+01
    -14.108  0.1356E+01  0.2958E+01
    -14.083  0.1388E+01  0.2992E+01
    -14.058  0.1429E+01  0.3027E+01
    -14.033  0.1468E+01  0.3064E+01
    -14.009  0.1516E+01  0.3100E+01
    -13.984  0.1662E+01  0.3140E+01
    -13.959  0.1744E+01  0.3182E+01
    -13.934  0.1814E+01  0.3227E+01
    -13.909  0.1881E+01  0.3272E+01
    -13.884  0.2126E+01  0.3320E+01
    -13.859  0.2602E+01  0.3380E+01
    -13.835  0.2804E+01  0.3447E+01
    -13.810  0.4469E+01  0.3530E+01
    -13.785  0.3415E+01  0.3635E+01
    -13.760  0.2793E+01  0.3711E+01
    -13.735  0.2541E+01  0.3776E+01
    -13.710  0.2338E+01  0.3838E+01
    -13.686  0.2071E+01  0.3892E+01
    -13.661  0.2001E+01  0.3942E+01
    -13.636  0.1358E+01  0.3992E+01
    -13.611  0.0000E+00  0.4000E+01
    -13.586  0.0000E+00  0.4000E+01
    -13.561  0.0000E+00  0.4000E+01
    -13.536  0.0000E+00  0.4000E+01
    -13.512  0.0000E+00  0.4000E+01
    -13.487  0.0000E+00  0.4000E+01
    -13.462  0.0000E+00  0.4000E+01
    -13.437  0.0000E+00  0.4000E+01
    -13.412  0.0000E+00  0.4000E+01
    -13.387  0.0000E+00  0.4000E+01
    -13.363  0.0000E+00  0.4000E+01
    -13.338  0.0000E+00  0.4000E+01
    -13.313  0.0000E+00  0.4000E+01
    -13.288  0.0000E+00  0.4000E+01
    -13.263  0.0000E+00  0.4000E+01
    -13.238  0.0000E+00  0.4000E+01
    -13.213  0.0000E+00  0.4000E+01
    -13.189  0.0000E+00  0.4000E+01
    -13.164  0.0000E+00  0.4000E+01
    -13.139  0.0000E+00  0.4000E+01
    -13.114  0.0000E+00  0.4000E+01
    -13.089  0.0000E+00  0.4000E+01
    -13.064  0.0000E+00  0.4000E+01
    -13.040  0.0000E+00  0.4000E+01
    -13.015  0.0000E+00  0.4000E+01
    -12.990  0.0000E+00  0.4000E+01
    -12.965  0.0000E+00  0.4000E+01
    -12.940  0.0000E+00  0.4000E+01
    -12.915  0.1787E+01  0.4001E+01
    -12.890  0.1268E+01  0.4037E+01
    -12.866  0.1515E+01  0.4072E+01
    -12.841  0.1441E+01  0.4109E+01
    -12.816  0.1464E+01  0.4145E+01
    -12.791  0.1495E+01  0.4182E+01
    -12.766  0.1553E+01  0.4219E+01
    -12.741  0.1639E+01  0.4259E+01
    -12.717  0.1619E+01  0.4299E+01
    -12.692  0.1650E+01  0.4340E+01
    -12.667  0.1700E+01  0.4382E+01
    -12.642  0.1760E+01  0.4425E+01
    -12.617  0.1841E+01  0.4469E+01
    -12.592  0.1915E+01  0.4516E+01
    -12.567  0.1964E+01  0.4564E+01
    -12.543  0.2062E+01  0.4614E+01
    -12.518  0.2195E+01  0.4667E+01
    -12.493  0.2303E+01  0.4723E+01
    -12.468  0.2407E+01  0.4781E+01
    -12.443  0.2947E+01  0.4848E+01
    -12.418  0.2909E+01  0.4926E+01
    -12.394  0.3592E+01  0.4997E+01
    -12.369  0.7683E+01  0.5111E+01
    -12.344  0.1169E+02  0.5464E+01
    -12.319  0.1171E+02  0.5747E+01
    -12.294  0.1406E+02  0.6093E+01
    -12.269  0.1020E+02  0.6369E+01
    -12.244  0.8536E+01  0.6598E+01
    -12.220  0.8409E+01  0.6810E+01
    -12.195  0.9282E+01  0.7026E+01
    -12.170  0.9978E+01  0.7259E+01
    -12.145  0.3765E+01  0.7508E+01
    -12.120  0.3649E+01  0.7605E+01
    -12.095  0.4117E+01  0.7699E+01
    -12.071  0.4595E+01  0.7807E+01
    -12.046  0.3512E+01  0.7905E+01
    -12.021  0.3827E+01  0.7988E+01
    -11.996  0.0000E+00  0.8000E+01
    -11.971  0.0000E+00  0.8000E+01
    -11.946  0.0000E+00  0.8000E+01
    -11.921  0.0000E+00  0.8000E+01
    -11.897  0.0000E+00  0.8000E+01
    -11.872  0.0000E+00  0.8000E+01
    -11.847  0.0000E+00  0.8000E+01
    -11.822  0.0000E+00  0.8000E+01
    -11.797  0.0000E+00  0.8000E+01
    -11.772  0.0000E+00  0.8000E+01
    -11.747  0.0000E+00  0.8000E+01
    -11.723  0.0000E+00  0.8000E+01
    -11.698  0.0000E+00  0.8000E+01
    -11.673  0.0000E+00  0.8000E+01
    -11.648  0.0000E+00  0.8000E+01
    -11.623  0.0000E+00  0.8000E+01
    -11.598  0.0000E+00  0.8000E+01
    -11.574  0.0000E+00  0.8000E+01
    -11.549  0.0000E+00  0.8000E+01
    -11.524  0.0000E+00  0.8000E+01
    -11.499  0.0000E+00  0.8000E+01
    -11.474  0.0000E+00  0.8000E+01
    -11.449  0.0000E+00  0.8000E+01
    -11.424  0.0000E+00  0.8000E+01
    -11.400  0.0000E+00  0.8000E+01
    -11.375  0.0000E+00  0.8000E+01
    -11.350  0.0000E+00  0.8000E+01
    -11.325  0.0000E+00  0.8000E+01
    -11.300  0.0000E+00  0.8000E+01
    -11.275  0.0000E+00  0.8000E+01
    -11.251  0.0000E+00  0.8000E+01
    -11.226  0.0000E+00  0.8000E+01
    -11.201  0.0000E+00  0.8000E+01
    -11.176  0.0000E+00  0.8000E+01
    -11.151  0.0000E+00  0.8000E+01
    -11.126  0.0000E+00  0.8000E+01
    -11.101  0.0000E+00  0.8000E+01
    -11.077  0.0000E+00  0.8000E+01
    -11.052  0.0000E+00  0.8000E+01
    -11.027  0.0000E+00  0.8000E+01
    -11.002  0.0000E+00  0.8000E+01
    -10.977  0.0000E+00  0.8000E+01
    -10.952  0.0000E+00  0.8000E+01
    -10.928  0.0000E+00  0.8000E+01
    -10.903  0.0000E+00  0.8000E+01
    -10.878  0.0000E+00  0.8000E+01
    -10.853  0.0000E+00  0.8000E+01
    -10.828  0.0000E+00  0.8000E+01
    -10.803  0.0000E+00  0.8000E+01
    -10.778  0.0000E+00  0.8000E+01
    -10.754  0.0000E+00  0.8000E+01
    -10.729  0.0000E+00  0.8000E+01
    -10.704  0.2622E+01  0.8051E+01
    -10.679  0.2400E+01  0.8117E+01
    -10.654  0.2470E+01  0.8177E+01
    -10.629  0.2570E+01  0.8240E+01
    -10.605  0.2560E+01  0.8304E+01
    -10.580  0.2581E+01  0.8368E+01
    -10.555  0.2623E+01  0.8432E+01
    -10.530  0.2712E+01  0.8499E+01
    -10.505  0.2718E+01  0.8567E+01
    -10.480  0.2734E+01  0.8634E+01
    -10.455  0.2766E+01  0.8702E+01
    -10.431  0.2865E+01  0.8772E+01
    -10.406  0.3038E+01  0.8845E+01
    -10.381  0.3668E+01  0.8928E+01
    -10.356  0.2985E+01  0.9006E+01
    -10.331  0.2814E+01  0.9078E+01
    -10.306  0.2722E+01  0.9146E+01
    -10.282  0.2831E+01  0.9222E+01
    -10.257  0.3463E+01  0.9301E+01
    -10.232  0.4360E+01  0.9398E+01
    -10.207  0.4317E+01  0.9510E+01
    -10.182  0.3823E+01  0.9612E+01
    -10.157  0.3886E+01  0.9707E+01
    -10.132  0.4049E+01  0.9807E+01
    -10.108  0.4137E+01  0.9908E+01
    -10.083  0.4509E+01  0.1001E+02
    -10.058  0.5121E+01  0.1013E+02
    -10.033  0.6632E+01  0.1028E+02
    -10.008  0.1935E+01  0.1039E+02
     -9.983  0.1802E+01  0.1043E+02
     -9.959  0.1699E+01  0.1048E+02
     -9.934  0.1347E+01  0.1052E+02
     -9.909  0.1330E+01  0.1055E+02
     -9.884  0.1314E+01  0.1058E+02
     -9.859  0.1295E+01  0.1062E+02
     -9.834  0.1274E+01  0.1065E+02
     -9.809  0.1251E+01  0.1068E+02
     -9.785  0.1223E+01  0.1071E+02
     -9.760  0.1192E+01  0.1074E+02
     -9.735  0.1162E+01  0.1077E+02
     -9.710  0.1125E+01  0.1080E+02
     -9.685  0.1099E+01  0.1083E+02
     -9.660  0.1094E+01  0.1085E+02
     -9.636  0.1088E+01  0.1088E+02
     -9.611  0.1081E+01  0.1091E+02
     -9.586  0.1074E+01  0.1093E+02
     -9.561  0.1066E+01  0.1096E+02
     -9.536  0.1087E+01  0.1099E+02
     -9.511  0.1095E+01  0.1101E+02
     -9.486  0.1095E+01  0.1104E+02
     -9.462  0.1095E+01  0.1107E+02
     -9.437  0.1090E+01  0.1110E+02
     -9.412  0.1080E+01  0.1112E+02
     -9.387  0.1071E+01  0.1115E+02
     -9.362  0.1148E+01  0.1118E+02
     -9.337  0.1185E+01  0.1121E+02
     -9.313  0.1221E+01  0.1124E+02
     -9.288  0.1235E+01  0.1127E+02
     -9.263  0.1242E+01  0.1130E+02
     -9.238  0.1714E+01  0.1133E+02
     -9.213  0.1650E+01  0.1137E+02
     -9.188  0.1418E+01  0.1141E+02
     -9.163  0.1203E+01  0.1144E+02
     -9.139  0.1128E+01  0.1147E+02
     -9.114  0.1088E+01  0.1150E+02
     -9.089  0.1047E+01  0.1153E+02
     -9.064  0.9925E+00  0.1155E+02
     -9.039  0.9389E+00  0.1158E+02
     -9.014  0.9036E+00  0.1160E+02
     -8.990  0.8739E+00  0.1162E+02
     -8.965  0.8522E+00  0.1164E+02
     -8.940  0.8302E+00  0.1166E+02
     -8.915  0.8060E+00  0.1168E+02
     -8.890  0.7756E+00  0.1170E+02
     -8.865  0.7515E+00  0.1172E+02
     -8.840  0.7279E+00  0.1174E+02
     -8.816  0.7136E+00  0.1176E+02
     -8.791  0.6992E+00  0.1178E+02
     -8.766  0.6896E+00  0.1179E+02
     -8.741  0.6812E+00  0.1181E+02
     -8.716  0.6569E+00  0.1183E+02
     -8.691  0.6287E+00  0.1184E+02
     -8.666  0.6080E+00  0.1186E+02
     -8.642  0.5873E+00  0.1187E+02
     -8.617  0.5715E+00  0.1189E+02
     -8.592  0.5571E+00  0.1190E+02
     -8.567  0.5439E+00  0.1192E+02
     -8.542  0.5262E+00  0.1193E+02
     -8.517  0.5302E+00  0.1194E+02
     -8.493  0.6093E+00  0.1196E+02
     -8.468  0.5461E+00  0.1197E+02
     -8.443  0.4528E+00  0.1198E+02
     -8.418  0.3244E+00  0.1199E+02
     -8.393  0.1960E+00  0.1200E+02
     -8.368  0.0000E+00  0.1200E+02
     -8.343  0.0000E+00  0.1200E+02
     -8.319  0.0000E+00  0.1200E+02
     -8.294  0.0000E+00  0.1200E+02
     -8.269  0.0000E+00  0.1200E+02
     -8.244  0.0000E+00  0.1200E+02
     -8.219  0.0000E+00  0.1200E+02
     -8.194  0.1138E+01  0.1201E+02
     -8.170  0.1253E+01  0.1206E+02
     -8.145  0.1307E+01  0.1209E+02
     -8.120  0.1171E+01  0.1212E+02
     -8.095  0.9984E+00  0.1215E+02
     -8.070  0.9450E+00  0.1217E+02
     -8.045  0.1332E+01  0.1221E+02
     -8.020  0.1396E+01  0.1224E+02
     -7.996  0.1447E+01  0.1227E+02
     -7.971  0.1434E+01  0.1231E+02
     -7.946  0.1407E+01  0.1235E+02
     -7.921  0.1387E+01  0.1238E+02
     -7.896  0.1420E+01  0.1241E+02
     -7.871  0.1448E+01  0.1245E+02
     -7.847  0.1470E+01  0.1249E+02
     -7.822  0.1502E+01  0.1252E+02
     -7.797  0.1527E+01  0.1256E+02
     -7.772  0.1555E+01  0.1260E+02
     -7.747  0.1583E+01  0.1264E+02
     -7.722  0.1595E+01  0.1268E+02
     -7.697  0.1645E+01  0.1272E+02
     -7.673  0.1696E+01  0.1276E+02
     -7.648  0.1755E+01  0.1280E+02
     -7.623  0.1826E+01  0.1285E+02
     -7.598  0.3548E+01  0.1291E+02
     -7.573  0.5217E+01  0.1302E+02
     -7.548  0.5640E+01  0.1315E+02
     -7.524  0.6002E+01  0.1329E+02
     -7.499  0.4736E+01  0.1343E+02
     -7.474  0.3928E+01  0.1354E+02
     -7.449  0.3618E+01  0.1363E+02
     -7.424  0.4135E+01  0.1372E+02
     -7.399  0.5764E+01  0.1385E+02
     -7.374  0.4605E+01  0.1398E+02
     -7.350  0.5857E+01  0.1410E+02
     -7.325  0.5884E+01  0.1426E+02
     -7.300  0.4782E+01  0.1439E+02
     -7.275  0.4650E+01  0.1451E+02
     -7.250  0.4608E+01  0.1462E+02
     -7.225  0.4486E+01  0.1474E+02
     -7.201  0.4641E+01  0.1485E+02
     -7.176  0.4672E+01  0.1497E+02
     -7.151  0.5242E+01  0.1509E+02
     -7.126  0.5021E+01  0.1523E+02
     -7.101  0.3491E+01  0.1532E+02
     -7.076  0.4145E+01  0.1541E+02
     -7.051  0.3175E+01  0.1550E+02
     -7.027  0.3112E+01  0.1557E+02
     -7.002  0.3481E+01  0.1566E+02
     -6.977  0.3753E+01  0.1575E+02
     -6.952  0.3339E+01  0.1584E+02
     -6.927  0.2970E+01  0.1592E+02
     -6.902  0.2663E+01  0.1598E+02
     -6.878  0.2227E+01  0.1604E+02
     -6.853  0.1687E+01  0.1609E+02
     -6.828  0.9689E+00  0.1612E+02
     -6.803  0.1057E+01  0.1615E+02
     -6.778  0.1344E+01  0.1618E+02
     -6.753  0.2148E+01  0.1622E+02
     -6.728  0.2058E+01  0.1628E+02
     -6.704  0.2053E+01  0.1633E+02
     -6.679  0.2148E+01  0.1638E+02
     -6.654  0.2495E+01  0.1644E+02
     -6.629  0.2033E+01  0.1649E+02
     -6.604  0.1906E+01  0.1654E+02
     -6.579  0.2323E+01  0.1660E+02
     -6.555  0.2577E+01  0.1666E+02
     -6.530  0.3020E+01  0.1673E+02
     -6.505  0.3281E+01  0.1681E+02
     -6.480  0.4074E+01  0.1690E+02
     -6.455  0.5243E+01  0.1702E+02
     -6.430  0.4418E+01  0.1714E+02
     -6.405  0.4389E+01  0.1725E+02
     -6.381  0.4473E+01  0.1736E+02
     -6.356  0.4762E+01  0.1747E+02
     -6.331  0.5615E+01  0.1760E+02
     -6.306  0.5834E+01  0.1775E+02
     -6.281  0.5098E+01  0.1788E+02
     -6.256  0.5725E+01  0.1801E+02
     -6.232  0.8294E+01  0.1821E+02
     -6.207  0.6642E+01  0.1840E+02
     -6.182  0.6009E+01  0.1855E+02
     -6.157  0.6561E+01  0.1872E+02
     -6.132  0.5899E+01  0.1889E+02
     -6.107  0.4684E+01  0.1902E+02
     -6.082  0.3836E+01  0.1913E+02
     -6.058  0.2744E+01  0.1920E+02
     -6.033  0.2066E+01  0.1927E+02
     -6.008  0.1932E+01  0.1932E+02
     -5.983  0.1831E+01  0.1936E+02
     -5.958  0.1772E+01  0.1941E+02
     -5.933  0.1700E+01  0.1945E+02
     -5.909  0.1685E+01  0.1949E+02
     -5.884  0.2232E+01  0.1954E+02
     -5.859  0.2808E+01  0.1960E+02
     -5.834  0.2857E+01  0.1967E+02
     -5.809  0.2573E+01  0.1974E+02
     -5.784  0.3146E+01  0.1981E+02
     -5.759  0.2917E+01  0.1988E+02
     -5.735  0.3003E+01  0.1996E+02
     -5.710  0.3608E+01  0.2004E+02
     -5.685  0.2691E+01  0.2011E+02
     -5.660  0.2748E+01  0.2018E+02
     -5.635  0.2976E+01  0.2025E+02
     -5.610  0.3376E+01  0.2033E+02
     -5.585  0.3745E+01  0.2043E+02
     -5.561  0.4375E+01  0.2053E+02
     -5.536  0.4582E+01  0.2065E+02
     -5.511  0.3800E+01  0.2075E+02
     -5.486  0.3739E+01  0.2085E+02
     -5.461  0.4070E+01  0.2094E+02
     -5.436  0.5167E+01  0.2105E+02
     -5.412  0.6415E+01  0.2120E+02
     -5.387  0.5691E+01  0.2135E+02
     -5.362  0.5595E+01  0.2149E+02
     -5.337  0.5457E+01  0.2163E+02
     -5.312  0.5315E+01  0.2176E+02
     -5.287  0.5379E+01  0.2190E+02
     -5.262  0.4775E+01  0.2203E+02
     -5.238  0.5650E+01  0.2217E+02
     -5.213  0.4708E+01  0.2229E+02
     -5.188  0.4493E+01  0.2241E+02
     -5.163  0.4237E+01  0.2252E+02
     -5.138  0.3750E+01  0.2262E+02
     -5.113  0.3567E+01  0.2272E+02
     -5.089  0.2996E+01  0.2280E+02
     -5.064  0.2845E+01  0.2287E+02
     -5.039  0.2917E+01  0.2294E+02
     -5.014  0.3248E+01  0.2302E+02
     -4.989  0.3216E+01  0.2310E+02
     -4.964  0.3278E+01  0.2318E+02
     -4.939  0.3244E+01  0.2326E+02
     -4.915  0.3221E+01  0.2334E+02
     -4.890  0.3173E+01  0.2342E+02
     -4.865  0.3292E+01  0.2350E+02
     -4.840  0.4234E+01  0.2359E+02
     -4.815  0.5267E+01  0.2371E+02
     -4.790  0.4285E+01  0.2382E+02
     -4.766  0.5001E+01  0.2394E+02
     -4.741  0.5504E+01  0.2407E+02
     -4.716  0.6380E+01  0.2421E+02
     -4.691  0.5493E+01  0.2436E+02
     -4.666  0.5227E+01  0.2449E+02
     -4.641  0.5209E+01  0.2463E+02
     -4.616  0.5500E+01  0.2476E+02
     -4.592  0.6066E+01  0.2491E+02
     -4.567  0.5874E+01  0.2505E+02
     -4.542  0.5517E+01  0.2520E+02
     -4.517  0.5981E+01  0.2534E+02
     -4.492  0.4433E+01  0.2548E+02
     -4.467  0.3828E+01  0.2558E+02
     -4.443  0.3850E+01  0.2567E+02
     -4.418  0.3947E+01  0.2577E+02
     -4.393  0.3865E+01  0.2587E+02
     -4.368  0.3606E+01  0.2596E+02
     -4.343  0.3744E+01  0.2606E+02
     -4.318  0.2848E+01  0.2615E+02
     -4.293  0.2894E+01  0.2622E+02
     -4.269  0.2936E+01  0.2630E+02
     -4.244  0.3171E+01  0.2637E+02
     -4.219  0.3247E+01  0.2645E+02
     -4.194  0.3298E+01  0.2653E+02
     -4.169  0.3277E+01  0.2662E+02
     -4.144  0.3033E+01  0.2669E+02
     -4.120  0.2994E+01  0.2677E+02
     -4.095  0.2982E+01  0.2684E+02
     -4.070  0.2966E+01  0.2692E+02
     -4.045  0.2973E+01  0.2699E+02
     -4.020  0.3114E+01  0.2707E+02
     -3.995  0.3433E+01  0.2715E+02
     -3.970  0.3947E+01  0.2724E+02
     -3.946  0.4400E+01  0.2735E+02
     -3.921  0.4797E+01  0.2746E+02
     -3.896  0.4703E+01  0.2759E+02
     -3.871  0.4900E+01  0.2771E+02
     -3.846  0.6207E+01  0.2785E+02
     -3.821  0.6275E+01  0.2802E+02
     -3.797  0.5781E+01  0.2817E+02
     -3.772  0.4729E+01  0.2830E+02
     -3.747  0.4539E+01  0.2842E+02
     -3.722  0.4397E+01  0.2853E+02
     -3.697  0.4035E+01  0.2863E+02
     -3.672  0.3571E+01  0.2872E+02
     -3.647  0.3297E+01  0.2881E+02
     -3.623  0.4142E+01  0.2889E+02
     -3.598  0.4803E+01  0.2901E+02
     -3.573  0.5417E+01  0.2915E+02
     -3.548  0.4842E+01  0.2928E+02
     -3.523  0.5005E+01  0.2940E+02
     -3.498  0.4122E+01  0.2951E+02
     -3.474  0.4245E+01  0.2962E+02
     -3.449  0.4688E+01  0.2973E+02
     -3.424  0.5043E+01  0.2985E+02
     -3.399  0.5066E+01  0.2997E+02
     -3.374  0.5049E+01  0.3010E+02
     -3.349  0.8835E+01  0.3028E+02
     -3.324  0.8939E+01  0.3053E+02
     -3.300  0.6378E+01  0.3070E+02
     -3.275  0.6956E+01  0.3087E+02
     -3.250  0.7094E+01  0.3104E+02
     -3.225  0.6349E+01  0.3121E+02
     -3.200  0.5389E+01  0.3136E+02
     -3.175  0.4314E+01  0.3148E+02
     -3.151  0.4933E+01  0.3158E+02
     -3.126  0.4230E+01  0.3170E+02
     -3.101  0.4023E+01  0.3180E+02
     -3.076  0.4537E+01  0.3190E+02
     -3.051  0.4936E+01  0.3204E+02
     -3.026  0.3227E+01  0.3214E+02
     -3.001  0.3147E+01  0.3221E+02
     -2.977  0.3482E+01  0.3230E+02
     -2.952  0.2518E+01  0.3237E+02
     -2.927  0.2508E+01  0.3243E+02
     -2.902  0.3970E+01  0.3251E+02
     -2.877  0.3223E+01  0.3261E+02
     -2.852  0.3217E+01  0.3269E+02
     -2.827  0.4199E+01  0.3278E+02
     -2.803  0.3568E+01  0.3288E+02
     -2.778  0.3776E+01  0.3297E+02
     -2.753  0.3707E+01  0.3306E+02
     -2.728  0.4554E+01  0.3317E+02
     -2.703  0.4481E+01  0.3328E+02
     -2.678  0.5286E+01  0.3341E+02
     -2.654  0.4865E+01  0.3354E+02
     -2.629  0.4656E+01  0.3366E+02
     -2.604  0.4806E+01  0.3377E+02
     -2.579  0.5860E+01  0.3391E+02
     -2.554  0.6262E+01  0.3406E+02
     -2.529  0.5153E+01  0.3420E+02
     -2.504  0.5278E+01  0.3433E+02
     -2.480  0.5564E+01  0.3447E+02
     -2.455  0.6388E+01  0.3462E+02
     -2.430  0.7095E+01  0.3479E+02
     -2.405  0.5742E+01  0.3495E+02
     -2.380  0.4905E+01  0.3508E+02
     -2.355  0.3416E+01  0.3519E+02
     -2.331  0.3474E+01  0.3527E+02
     -2.306  0.3942E+01  0.3536E+02
     -2.281  0.3182E+01  0.3546E+02
     -2.256  0.3251E+01  0.3554E+02
     -2.231  0.2692E+01  0.3561E+02
     -2.206  0.2547E+01  0.3568E+02
     -2.181  0.2018E+01  0.3574E+02
     -2.157  0.2191E+01  0.3580E+02
     -2.132  0.1200E+01  0.3585E+02
     -2.107  0.9057E+00  0.3587E+02
     -2.082  0.8954E+00  0.3589E+02
     -2.057  0.9733E+00  0.3592E+02
     -2.032  0.9065E+00  0.3594E+02
     -2.008  0.7829E+00  0.3596E+02
     -1.983  0.8538E+00  0.3598E+02
     -1.958  0.0000E+00  0.3600E+02
     -1.933  0.0000E+00  0.3600E+02
     -1.908  0.0000E+00  0.3600E+02
     -1.883  0.0000E+00  0.3600E+02
     -1.858  0.0000E+00  0.3600E+02
     -1.834  0.0000E+00  0.3600E+02
     -1.809  0.4571E-01  0.3600E+02
     -1.784  0.1446E+00  0.3600E+02
     -1.759  0.2436E+00  0.3601E+02
     -1.734  0.2998E+00  0.3601E+02
     -1.709  0.3544E+00  0.3602E+02
     -1.685  0.4090E+00  0.3603E+02
     -1.660  0.3950E+00  0.3604E+02
     -1.635  0.4213E+00  0.3605E+02
     -1.610  0.4742E+00  0.3606E+02
     -1.585  0.5442E+00  0.3608E+02
     -1.560  0.6141E+00  0.3609E+02
     -1.535  0.6841E+00  0.3611E+02
     -1.511  0.4982E+01  0.3614E+02
     -1.486  0.2187E+01  0.3620E+02
     -1.461  0.2780E+01  0.3627E+02
     -1.436  0.2448E+01  0.3634E+02
     -1.411  0.2436E+01  0.3640E+02
     -1.386  0.2592E+01  0.3646E+02
     -1.362  0.2513E+01  0.3652E+02
     -1.337  0.2402E+01  0.3658E+02
     -1.312  0.2346E+01  0.3664E+02
     -1.287  0.2219E+01  0.3670E+02
     -1.262  0.2088E+01  0.3675E+02
     -1.237  0.1987E+01  0.3680E+02
     -1.212  0.1966E+01  0.3685E+02
     -1.188  0.1996E+01  0.3690E+02
     -1.163  0.2025E+01  0.3695E+02
     -1.138  0.2085E+01  0.3700E+02
     -1.113  0.2138E+01  0.3706E+02
     -1.088  0.2135E+01  0.3711E+02
     -1.063  0.2177E+01  0.3716E+02
     -1.039  0.2897E+01  0.3722E+02
     -1.014  0.2785E+01  0.3730E+02
     -0.989  0.1957E+01  0.3735E+02
     -0.964  0.1844E+01  0.3740E+02
     -0.939  0.1799E+01  0.3744E+02
     -0.914  0.1792E+01  0.3749E+02
     -0.889  0.1793E+01  0.3753E+02
     -0.865  0.1783E+01  0.3758E+02
     -0.840  0.1827E+01  0.3762E+02
     -0.815  0.1905E+01  0.3767E+02
     -0.790  0.1979E+01  0.3772E+02
     -0.765  0.2070E+01  0.3777E+02
     -0.740  0.2412E+01  0.3782E+02
     -0.716  0.2403E+01  0.3788E+02
     -0.691  0.2299E+01  0.3794E+02
     -0.666  0.2243E+01  0.3799E+02
     -0.641  0.2249E+01  0.3805E+02
     -0.616  0.2549E+01  0.3811E+02
     -0.591  0.3053E+01  0.3818E+02
     -0.566  0.3963E+01  0.3826E+02
     -0.542  0.2314E+01  0.3836E+02
     -0.517  0.2189E+01  0.3841E+02
     -0.492  0.2025E+01  0.3847E+02
     -0.467  0.2558E+01  0.3852E+02
     -0.442  0.2881E+01  0.3859E+02
     -0.417  0.2538E+01  0.3866E+02
     -0.393  0.2468E+01  0.3872E+02
     -0.368  0.2435E+01  0.3878E+02
     -0.343  0.2652E+01  0.3884E+02
     -0.318  0.3348E+01  0.3892E+02
     -0.293  0.2654E+01  0.3900E+02
     -0.268  0.2698E+01  0.3906E+02
     -0.243  0.2779E+01  0.3913E+02
     -0.219  0.2975E+01  0.3920E+02
     -0.194  0.3275E+01  0.3928E+02
     -0.169  0.3836E+01  0.3937E+02
     -0.144  0.3390E+01  0.3946E+02
     -0.119  0.3487E+01  0.3956E+02
     -0.094  0.7331E+01  0.3968E+02
     -0.070  0.5912E+01  0.3984E+02
     -0.045  0.6364E+01  0.3999E+02
     -0.020  0.6751E+01  0.4016E+02
      0.005  0.9473E+01  0.4035E+02
      0.030  0.6842E+01  0.4054E+02
      0.055  0.5223E+01  0.4069E+02
      0.080  0.4637E+01  0.4081E+02
      0.104  0.3588E+01  0.4091E+02
      0.129  0.3510E+01  0.4100E+02
      0.154  0.3482E+01  0.4109E+02
      0.179  0.2988E+01  0.4117E+02
      0.204  0.2255E+01  0.4123E+02
      0.229  0.2229E+01  0.4129E+02
      0.254  0.3917E+01  0.4136E+02
      0.278  0.3593E+01  0.4146E+02
      0.303  0.3593E+01  0.4155E+02
      0.328  0.3661E+01  0.4165E+02
      0.353  0.3619E+01  0.4173E+02
      0.378  0.5126E+01  0.4184E+02
      0.403  0.5437E+01  0.4197E+02
      0.427  0.4942E+01  0.4210E+02
      0.452  0.4814E+01  0.4222E+02
      0.477  0.4119E+01  0.4233E+02
      0.502  0.3668E+01  0.4242E+02
      0.527  0.3251E+01  0.4251E+02
      0.552  0.3123E+01  0.4259E+02
      0.577  0.3045E+01  0.4266E+02
      0.601  0.3904E+01  0.4275E+02
      0.626  0.3865E+01  0.4285E+02
      0.651  0.4110E+01  0.4295E+02
      0.676  0.4283E+01  0.4305E+02
      0.701  0.4444E+01  0.4316E+02
      0.726  0.5432E+01  0.4329E+02
      0.750  0.5268E+01  0.4343E+02
      0.775  0.4519E+01  0.4357E+02
      0.800  0.5049E+01  0.4369E+02
      0.825  0.4988E+01  0.4381E+02
      0.850  0.5531E+01  0.4394E+02
      0.875  0.5345E+01  0.4408E+02
      0.900  0.4668E+01  0.4420E+02
      0.924  0.4977E+01  0.4432E+02
      0.949  0.4773E+01  0.4445E+02
      0.974  0.5346E+01  0.4459E+02
      0.999  0.5354E+01  0.4473E+02
      1.024  0.5087E+01  0.4486E+02
      1.049  0.5405E+01  0.4499E+02
      1.073  0.5730E+01  0.4513E+02
      1.098  0.6048E+01  0.4528E+02
      1.123  0.5287E+01  0.4542E+02
      1.148  0.4778E+01  0.4554E+02
      1.173  0.5056E+01  0.4566E+02
      1.198  0.5473E+01  0.4579E+02
      1.223  0.5889E+01  0.4595E+02
      1.247  0.7834E+01  0.4611E+02
      1.272  0.4553E+01  0.4624E+02
      1.297  0.3217E+01  0.4636E+02
      1.322  0.2435E+01  0.4643E+02
      1.347  0.1946E+01  0.4648E+02
      1.372  0.1923E+01  0.4653E+02
      1.396  0.1999E+01  0.4658E+02
      1.421  0.2217E+01  0.4663E+02
      1.446  0.2658E+01  0.4669E+02
      1.471  0.2806E+01  0.4676E+02
      1.496  0.2871E+01  0.4683E+02
      1.521  0.2917E+01  0.4690E+02
      1.546  0.3279E+01  0.4697E+02
      1.570  0.2160E+01  0.4705E+02
      1.595  0.1853E+01  0.4710E+02
      1.620  0.1643E+01  0.4715E+02
      1.645  0.1572E+01  0.4719E+02
      1.670  0.1592E+01  0.4723E+02
      1.695  0.2743E+01  0.4727E+02
      1.719  0.4651E+01  0.4738E+02
      1.744  0.3892E+01  0.4748E+02
      1.769  0.3147E+01  0.4757E+02
      1.794  0.3105E+01  0.4765E+02
      1.819  0.3363E+01  0.4773E+02
      1.844  0.4025E+01  0.4784E+02
      1.869  0.2349E+01  0.4792E+02
      1.893  0.1292E+01  0.4796E+02
      1.918  0.2722E+00  0.4798E+02
      1.943  0.2140E+00  0.4799E+02
      1.968  0.1559E+00  0.4799E+02
      1.993  0.9778E-01  0.4800E+02
      2.018  0.3964E-01  0.4800E+02
      2.042  0.0000E+00  0.4800E+02
      2.067  0.0000E+00  0.4800E+02
      2.092  0.0000E+00  0.4800E+02
      2.117  0.0000E+00  0.4800E+02
      2.142  0.0000E+00  0.4800E+02
      2.167  0.0000E+00  0.4800E+02
      2.192  0.0000E+00  0.4800E+02
      2.216  0.0000E+00  0.4800E+02
      2.241  0.0000E+00  0.4800E+02
      2.266  0.0000E+00  0.4800E+02
      2.291  0.0000E+00  0.4800E+02
      2.316  0.0000E+00  0.4800E+02
      2.341  0.0000E+00  0.4800E+02
      2.365  0.0000E+00  0.4800E+02
      2.390  0.0000E+00  0.4800E+02
      2.415  0.0000E+00  0.4800E+02
      2.440  0.0000E+00  0.4800E+02
      2.465  0.0000E+00  0.4800E+02
      2.490  0.0000E+00  0.4800E+02
      2.515  0.0000E+00  0.4800E+02
      2.539  0.0000E+00  0.4800E+02
      2.564  0.0000E+00  0.4800E+02
      2.589  0.0000E+00  0.4800E+02
      2.614  0.0000E+00  0.4800E+02
      2.639  0.0000E+00  0.4800E+02
      2.664  0.0000E+00  0.4800E+02
      2.688  0.0000E+00  0.4800E+02
      2.713  0.0000E+00  0.4800E+02
      2.738  0.0000E+00  0.4800E+02
      2.763  0.0000E+00  0.4800E+02
      2.788  0.0000E+00  0.4800E+02
      2.813  0.0000E+00  0.4800E+02
      2.838  0.0000E+00  0.4800E+02
      2.862  0.0000E+00  0.4800E+02
      2.887  0.0000E+00  0.4800E+02
      2.912  0.0000E+00  0.4800E+02
      2.937  0.0000E+00  0.4800E+02
      2.93695651    -16.91563261  800     -1.95165038      1.00000000
    -16.916  0.0000E+00  0.0000E+00  0.0000E+00
    -16.891  0.0000E+00  0.0000E+00  0.0000E+00
    -16.866  0.0000E+00  0.0000E+00  0.0000E+00
    -16.841  0.0000E+00  0.0000E+00  0.0000E+00
    -16.816  0.0000E+00  0.0000E+00  0.0000E+00
    -16.791  0.0000E+00  0.0000E+00  0.0000E+00
    -16.767  0.0000E+00  0.0000E+00  0.0000E+00
    -16.742  0.0000E+00  0.0000E+00  0.0000E+00
    -16.717  0.0000E+00  0.0000E+00  0.0000E+00
    -16.692  0.0000E+00  0.0000E+00  0.0000E+00
    -16.667  0.0000E+00  0.0000E+00  0.0000E+00
    -16.642  0.0000E+00  0.0000E+00  0.0000E+00
    -16.617  0.0000E+00  0.0000E+00  0.0000E+00
    -16.593  0.0000E+00  0.0000E+00  0.0000E+00
    -16.568  0.0000E+00  0.0000E+00  0.0000E+00
    -16.543  0.0000E+00  0.0000E+00  0.0000E+00
    -16.518  0.0000E+00  0.0000E+00  0.0000E+00
    -16.493  0.0000E+00  0.0000E+00  0.0000E+00
    -16.468  0.0000E+00  0.0000E+00  0.0000E+00
    -16.444  0.0000E+00  0.0000E+00  0.0000E+00
    -16.419  0.0000E+00  0.0000E+00  0.0000E+00
    -16.394  0.0000E+00  0.0000E+00  0.0000E+00
    -16.369  0.0000E+00  0.0000E+00  0.0000E+00
    -16.344  0.0000E+00  0.0000E+00  0.0000E+00
    -16.319  0.0000E+00  0.0000E+00  0.0000E+00
    -16.294  0.0000E+00  0.0000E+00  0.0000E+00
    -16.270  0.0000E+00  0.0000E+00  0.0000E+00
    -16.245  0.0000E+00  0.0000E+00  0.0000E+00
    -16.220  0.0000E+00  0.0000E+00  0.0000E+00
    -16.195  0.0000E+00  0.0000E+00  0.0000E+00
    -16.170  0.0000E+00  0.0000E+00  0.0000E+00
    -16.145  0.0000E+00  0.0000E+00  0.0000E+00
    -16.121  0.0000E+00  0.0000E+00  0.0000E+00
    -16.096  0.0000E+00  0.0000E+00  0.0000E+00
    -16.071  0.0000E+00  0.0000E+00  0.0000E+00
    -16.046  0.0000E+00  0.0000E+00  0.0000E+00
    -16.021  0.0000E+00  0.0000E+00  0.0000E+00
    -15.996  0.2557E+00  0.1516E-01  0.0000E+00
    -15.971  0.2219E+00  0.1340E-01  0.0000E+00
    -15.947  0.2523E+00  0.1544E-01  0.0000E+00
    -15.922  0.2494E+00  0.1552E-01  0.0000E+00
    -15.897  0.2659E+00  0.1676E-01  0.0000E+00
    -15.872  0.2892E+00  0.1844E-01  0.0000E+00
    -15.847  0.3346E+00  0.2147E-01  0.0000E+00
    -15.822  0.4283E+00  0.2755E-01  0.0000E+00
    -15.798  0.3149E+00  0.2103E-01  0.0000E+00
    -15.773  0.2887E+00  0.1969E-01  0.0000E+00
    -15.748  0.2384E+00  0.1685E-01  0.0000E+00
    -15.723  0.2307E+00  0.1658E-01  0.0000E+00
    -15.698  0.2140E+00  0.1578E-01  0.0000E+00
    -15.673  0.1995E+00  0.1508E-01  0.0000E+00
    -15.648  0.1804E+00  0.1409E-01  0.0000E+00
    -15.624  0.1765E+00  0.1400E-01  0.0000E+00
    -15.599  0.1726E+00  0.1391E-01  0.0000E+00
    -15.574  0.1683E+00  0.1380E-01  0.0000E+00
    -15.549  0.1591E+00  0.1340E-01  0.0000E+00
    -15.524  0.1469E+00  0.1280E-01  0.0000E+00
    -15.499  0.1440E+00  0.1276E-01  0.0000E+00
    -15.475  0.1414E+00  0.1273E-01  0.0000E+00
    -15.450  0.1388E+00  0.1270E-01  0.0000E+00
    -15.425  0.1361E+00  0.1265E-01  0.0000E+00
    -15.400  0.1328E+00  0.1258E-01  0.0000E+00
    -15.375  0.1264E+00  0.1231E-01  0.0000E+00
    -15.350  0.1226E+00  0.1222E-01  0.0000E+00
    -15.325  0.1203E+00  0.1220E-01  0.0000E+00
    -15.301  0.1183E+00  0.1220E-01  0.0000E+00
    -15.276  0.1165E+00  0.1220E-01  0.0000E+00
    -15.251  0.1146E+00  0.1220E-01  0.0000E+00
    -15.226  0.1126E+00  0.1218E-01  0.0000E+00
    -15.201  0.1100E+00  0.1213E-01  0.0000E+00
    -15.176  0.1068E+00  0.1205E-01  0.0000E+00
    -15.152  0.1065E+00  0.1212E-01  0.0000E+00
    -15.127  0.1491E+00  0.1758E-01  0.0000E+00
    -15.102  0.1178E+00  0.1384E-01  0.0000E+00
    -15.077  0.1015E+00  0.1193E-01  0.0000E+00
    -15.052  0.9218E-01  0.1088E-01  0.0000E+00
    -15.027  0.8658E-01  0.1026E-01  0.0000E+00
    -15.002  0.9153E-01  0.1091E-01  0.0000E+00
    -14.978  0.2063E-01  0.2477E-02  0.0000E+00
    -14.953  0.0000E+00  0.0000E+00  0.0000E+00
    -14.928  0.0000E+00  0.0000E+00  0.0000E+00
    -14.903  0.1168E+00  0.1712E-01  0.0000E+00
    -14.878  0.8159E-01  0.1203E-01  0.0000E+00
    -14.853  0.7689E-01  0.1141E-01  0.0000E+00
    -14.829  0.8182E-01  0.1219E-01  0.0000E+00
    -14.804  0.9454E-01  0.1409E-01  0.0000E+00
    -14.779  0.1038E+00  0.1548E-01  0.0000E+00
    -14.754  0.2587E+00  0.3743E-01  0.0000E+00
    -14.729  0.8166E-01  0.1268E-01  0.0000E+00
    -14.704  0.8125E-01  0.1273E-01  0.0000E+00
    -14.679  0.8084E-01  0.1278E-01  0.0000E+00
    -14.655  0.7989E-01  0.1291E-01  0.0000E+00
    -14.630  0.7876E-01  0.1305E-01  0.0000E+00
    -14.605  0.7784E-01  0.1316E-01  0.0000E+00
    -14.580  0.7695E-01  0.1326E-01  0.0000E+00
    -14.555  0.7603E-01  0.1336E-01  0.0000E+00
    -14.530  0.7504E-01  0.1346E-01  0.0000E+00
    -14.505  0.7356E-01  0.1363E-01  0.0000E+00
    -14.481  0.7299E-01  0.1367E-01  0.0000E+00
    -14.456  0.7243E-01  0.1370E-01  0.0000E+00
    -14.431  0.7187E-01  0.1374E-01  0.0000E+00
    -14.406  0.7121E-01  0.1402E-01  0.0000E+00
    -14.381  0.7051E-01  0.1430E-01  0.0000E+00
    -14.356  0.6980E-01  0.1450E-01  0.0000E+00
    -14.332  0.6907E-01  0.1469E-01  0.0000E+00
    -14.307  0.6832E-01  0.1488E-01  0.0000E+00
    -14.282  0.6754E-01  0.1512E-01  0.0000E+00
    -14.257  0.6672E-01  0.1540E-01  0.0000E+00
    -14.232  0.6588E-01  0.1541E-01  0.0000E+00
    -14.207  0.6505E-01  0.1543E-01  0.0000E+00
    -14.182  0.6487E-01  0.1599E-01  0.0000E+00
    -14.158  0.6460E-01  0.1655E-01  0.0000E+00
    -14.133  0.6410E-01  0.1695E-01  0.0000E+00
    -14.108  0.6352E-01  0.1731E-01  0.0000E+00
    -14.083  0.6291E-01  0.1768E-01  0.0000E+00
    -14.058  0.6242E-01  0.1818E-01  0.0000E+00
    -14.033  0.6179E-01  0.1863E-01  0.0000E+00
    -14.009  0.6130E-01  0.1914E-01  0.0000E+00
    -13.984  0.6241E-01  0.2074E-01  0.0000E+00
    -13.959  0.6227E-01  0.2159E-01  0.0000E+00
    -13.934  0.6182E-01  0.2230E-01  0.0000E+00
    -13.909  0.6123E-01  0.2297E-01  0.0000E+00
    -13.884  0.6357E-01  0.2555E-01  0.0000E+00
    -13.859  0.6948E-01  0.3061E-01  0.0000E+00
    -13.835  0.7009E-01  0.3252E-01  0.0000E+00
    -13.810  0.9457E-01  0.4967E-01  0.0000E+00
    -13.785  0.7255E-01  0.3828E-01  0.0000E+00
    -13.760  0.5883E-01  0.3155E-01  0.0000E+00
    -13.735  0.5153E-01  0.2881E-01  0.0000E+00
    -13.710  0.4555E-01  0.2652E-01  0.0000E+00
    -13.686  0.3835E-01  0.2344E-01  0.0000E+00
    -13.661  0.3453E-01  0.2258E-01  0.0000E+00
    -13.636  0.2170E-01  0.1526E-01  0.0000E+00
    -13.611  0.0000E+00  0.0000E+00  0.0000E+00
    -13.586  0.0000E+00  0.0000E+00  0.0000E+00
    -13.561  0.0000E+00  0.0000E+00  0.0000E+00
    -13.536  0.0000E+00  0.0000E+00  0.0000E+00
    -13.512  0.0000E+00  0.0000E+00  0.0000E+00
    -13.487  0.0000E+00  0.0000E+00  0.0000E+00
    -13.462  0.0000E+00  0.0000E+00  0.0000E+00
    -13.437  0.0000E+00  0.0000E+00  0.0000E+00
    -13.412  0.0000E+00  0.0000E+00  0.0000E+00
    -13.387  0.0000E+00  0.0000E+00  0.0000E+00
    -13.363  0.0000E+00  0.0000E+00  0.0000E+00
    -13.338  0.0000E+00  0.0000E+00  0.0000E+00
    -13.313  0.0000E+00  0.0000E+00  0.0000E+00
    -13.288  0.0000E+00  0.0000E+00  0.0000E+00
    -13.263  0.0000E+00  0.0000E+00  0.0000E+00
    -13.238  0.0000E+00  0.0000E+00  0.0000E+00
    -13.213  0.0000E+00  0.0000E+00  0.0000E+00
    -13.189  0.0000E+00  0.0000E+00  0.0000E+00
    -13.164  0.0000E+00  0.0000E+00  0.0000E+00
    -13.139  0.0000E+00  0.0000E+00  0.0000E+00
    -13.114  0.0000E+00  0.0000E+00  0.0000E+00
    -13.089  0.0000E+00  0.0000E+00  0.0000E+00
    -13.064  0.0000E+00  0.0000E+00  0.0000E+00
    -13.040  0.0000E+00  0.0000E+00  0.0000E+00
    -13.015  0.0000E+00  0.0000E+00  0.0000E+00
    -12.990  0.0000E+00  0.0000E+00  0.0000E+00
    -12.965  0.0000E+00  0.0000E+00  0.0000E+00
    -12.940  0.0000E+00  0.0000E+00  0.0000E+00
    -12.915  0.5533E-01  0.7948E-02  0.0000E+00
    -12.890  0.4043E-01  0.5554E-02  0.0000E+00
    -12.866  0.4919E-01  0.6576E-02  0.0000E+00
    -12.841  0.4834E-01  0.6140E-02  0.0000E+00
    -12.816  0.5029E-01  0.6154E-02  0.0000E+00
    -12.791  0.5282E-01  0.6168E-02  0.0000E+00
    -12.766  0.5625E-01  0.6307E-02  0.0000E+00
    -12.741  0.6039E-01  0.6587E-02  0.0000E+00
    -12.717  0.6206E-01  0.6320E-02  0.0000E+00
    -12.692  0.6557E-01  0.6280E-02  0.0000E+00
    -12.667  0.6918E-01  0.6354E-02  0.0000E+00
    -12.642  0.7329E-01  0.6458E-02  0.0000E+00
    -12.617  0.8011E-01  0.6517E-02  0.0000E+00
    -12.592  0.8580E-01  0.6618E-02  0.0000E+00
    -12.567  0.9096E-01  0.6591E-02  0.0000E+00
    -12.543  0.9981E-01  0.6645E-02  0.0000E+00
    -12.518  0.1119E+00  0.6743E-02  0.0000E+00
    -12.493  0.1220E+00  0.6820E-02  0.0000E+00
    -12.468  0.1319E+00  0.6900E-02  0.0000E+00
    -12.443  0.1766E+00  0.7654E-02  0.0000E+00
    -12.418  0.1893E+00  0.7245E-02  0.0000E+00
    -12.394  0.2765E+00  0.8140E-02  0.0000E+00
    -12.369  0.8512E+00  0.1532E-01  0.0000E+00
    -12.344  0.1489E+01  0.2129E-01  0.0000E+00
    -12.319  0.1613E+01  0.2223E-01  0.0000E+00
    -12.294  0.2025E+01  0.2696E-01  0.0000E+00
    -12.269  0.1481E+01  0.2206E-01  0.0000E+00
    -12.244  0.1252E+01  0.1987E-01  0.0000E+00
    -12.220  0.1271E+01  0.2069E-01  0.0000E+00
    -12.195  0.1516E+01  0.2363E-01  0.0000E+00
    -12.170  0.1802E+01  0.2756E-01  0.0000E+00
    -12.145  0.3592E+00  0.8105E-02  0.0000E+00
    -12.120  0.3152E+00  0.7989E-02  0.0000E+00
    -12.095  0.2919E+00  0.8980E-02  0.0000E+00
    -12.071  0.3097E+00  0.1046E-01  0.0000E+00
    -12.046  0.2492E+00  0.7117E-02  0.0000E+00
    -12.021  0.2785E+00  0.7058E-02  0.0000E+00
    -11.996  0.0000E+00  0.0000E+00  0.0000E+00
    -11.971  0.0000E+00  0.0000E+00  0.0000E+00
    -11.946  0.0000E+00  0.0000E+00  0.0000E+00
    -11.921  0.0000E+00  0.0000E+00  0.0000E+00
    -11.897  0.0000E+00  0.0000E+00  0.0000E+00
    -11.872  0.0000E+00  0.0000E+00  0.0000E+00
    -11.847  0.0000E+00  0.0000E+00  0.0000E+00
    -11.822  0.0000E+00  0.0000E+00  0.0000E+00
    -11.797  0.0000E+00  0.0000E+00  0.0000E+00
    -11.772  0.0000E+00  0.0000E+00  0.0000E+00
    -11.747  0.0000E+00  0.0000E+00  0.0000E+00
    -11.723  0.0000E+00  0.0000E+00  0.0000E+00
    -11.698  0.0000E+00  0.0000E+00  0.0000E+00
    -11.673  0.0000E+00  0.0000E+00  0.0000E+00
    -11.648  0.0000E+00  0.0000E+00  0.0000E+00
    -11.623  0.0000E+00  0.0000E+00  0.0000E+00
    -11.598  0.0000E+00  0.0000E+00  0.0000E+00
    -11.574  0.0000E+00  0.0000E+00  0.0000E+00
    -11.549  0.0000E+00  0.0000E+00  0.0000E+00
    -11.524  0.0000E+00  0.0000E+00  0.0000E+00
    -11.499  0.0000E+00  0.0000E+00  0.0000E+00
    -11.474  0.0000E+00  0.0000E+00  0.0000E+00
    -11.449  0.0000E+00  0.0000E+00  0.0000E+00
    -11.424  0.0000E+00  0.0000E+00  0.0000E+00
    -11.400  0.0000E+00  0.0000E+00  0.0000E+00
    -11.375  0.0000E+00  0.0000E+00  0.0000E+00
    -11.350  0.0000E+00  0.0000E+00  0.0000E+00
    -11.325  0.0000E+00  0.0000E+00  0.0000E+00
    -11.300  0.0000E+00  0.0000E+00  0.0000E+00
    -11.275  0.0000E+00  0.0000E+00  0.0000E+00
    -11.251  0.0000E+00  0.0000E+00  0.0000E+00
    -11.226  0.0000E+00  0.0000E+00  0.0000E+00
    -11.201  0.0000E+00  0.0000E+00  0.0000E+00
    -11.176  0.0000E+00  0.0000E+00  0.0000E+00
    -11.151  0.0000E+00  0.0000E+00  0.0000E+00
    -11.126  0.0000E+00  0.0000E+00  0.0000E+00
    -11.101  0.0000E+00  0.0000E+00  0.0000E+00
    -11.077  0.0000E+00  0.0000E+00  0.0000E+00
    -11.052  0.0000E+00  0.0000E+00  0.0000E+00
    -11.027  0.0000E+00  0.0000E+00  0.0000E+00
    -11.002  0.0000E+00  0.0000E+00  0.0000E+00
    -10.977  0.0000E+00  0.0000E+00  0.0000E+00
    -10.952  0.0000E+00  0.0000E+00  0.0000E+00
    -10.928  0.0000E+00  0.0000E+00  0.0000E+00
    -10.903  0.0000E+00  0.0000E+00  0.0000E+00
    -10.878  0.0000E+00  0.0000E+00  0.0000E+00
    -10.853  0.0000E+00  0.0000E+00  0.0000E+00
    -10.828  0.0000E+00  0.0000E+00  0.0000E+00
    -10.803  0.0000E+00  0.0000E+00  0.0000E+00
    -10.778  0.0000E+00  0.0000E+00  0.0000E+00
    -10.754  0.0000E+00  0.0000E+00  0.0000E+00
    -10.729  0.0000E+00  0.0000E+00  0.0000E+00
    -10.704  0.2251E-01  0.4463E-01  0.0000E+00
    -10.679  0.2895E-01  0.4078E-01  0.0000E+00
    -10.654  0.3759E-01  0.4201E-01  0.0000E+00
    -10.629  0.4570E-01  0.4394E-01  0.0000E+00
    -10.605  0.5291E-01  0.4409E-01  0.0000E+00
    -10.580  0.5932E-01  0.4493E-01  0.0000E+00
    -10.555  0.6501E-01  0.4614E-01  0.0000E+00
    -10.530  0.7112E-01  0.4812E-01  0.0000E+00
    -10.505  0.7480E-01  0.4901E-01  0.0000E+00
    -10.480  0.7790E-01  0.4985E-01  0.0000E+00
    -10.455  0.8104E-01  0.5112E-01  0.0000E+00
    -10.431  0.8626E-01  0.5341E-01  0.0000E+00
    -10.406  0.9593E-01  0.5740E-01  0.0000E+00
    -10.381  0.1340E+00  0.7007E-01  0.0000E+00
    -10.356  0.8736E-01  0.5789E-01  0.0000E+00
    -10.331  0.7474E-01  0.5507E-01  0.0000E+00
    -10.306  0.6566E-01  0.5383E-01  0.0000E+00
    -10.282  0.6259E-01  0.5712E-01  0.0000E+00
    -10.257  0.9653E-01  0.7043E-01  0.0000E+00
    -10.232  0.1333E+00  0.9014E-01  0.0000E+00
    -10.207  0.1086E+00  0.9102E-01  0.0000E+00
    -10.182  0.1105E+00  0.7926E-01  0.0000E+00
    -10.157  0.1180E+00  0.8047E-01  0.0000E+00
    -10.132  0.1255E+00  0.8393E-01  0.0000E+00
    -10.108  0.1285E+00  0.8585E-01  0.0000E+00
    -10.083  0.1395E+00  0.9400E-01  0.0000E+00
    -10.058  0.1557E+00  0.1073E+00  0.0000E+00
    -10.033  0.1975E+00  0.1399E+00  0.0000E+00
    -10.008  0.9504E-01  0.4047E-01  0.0000E+00
     -9.983  0.9206E-01  0.3761E-01  0.0000E+00
     -9.959  0.8936E-01  0.3540E-01  0.0000E+00
     -9.934  0.7637E-01  0.2768E-01  0.0000E+00
     -9.909  0.7626E-01  0.2725E-01  0.0000E+00
     -9.884  0.7616E-01  0.2685E-01  0.0000E+00
     -9.859  0.7598E-01  0.2640E-01  0.0000E+00
     -9.834  0.7565E-01  0.2589E-01  0.0000E+00
     -9.809  0.7521E-01  0.2533E-01  0.0000E+00
     -9.785  0.7447E-01  0.2467E-01  0.0000E+00
     -9.760  0.7350E-01  0.2394E-01  0.0000E+00
     -9.735  0.7243E-01  0.2307E-01  0.0000E+00
     -9.710  0.7075E-01  0.2213E-01  0.0000E+00
     -9.685  0.6949E-01  0.2144E-01  0.0000E+00
     -9.660  0.6955E-01  0.2123E-01  0.0000E+00
     -9.636  0.6953E-01  0.2100E-01  0.0000E+00
     -9.611  0.6946E-01  0.2075E-01  0.0000E+00
     -9.586  0.6938E-01  0.2051E-01  0.0000E+00
     -9.561  0.6925E-01  0.2025E-01  0.0000E+00
     -9.536  0.7041E-01  0.2032E-01  0.0000E+00
     -9.511  0.7098E-01  0.2022E-01  0.0000E+00
     -9.486  0.7117E-01  0.2001E-01  0.0000E+00
     -9.462  0.7132E-01  0.1979E-01  0.0000E+00
     -9.437  0.7116E-01  0.1948E-01  0.0000E+00
     -9.412  0.7075E-01  0.1906E-01  0.0000E+00
     -9.387  0.7036E-01  0.1866E-01  0.0000E+00
     -9.362  0.7406E-01  0.1951E-01  0.0000E+00
     -9.337  0.7592E-01  0.1979E-01  0.0000E+00
     -9.313  0.7779E-01  0.2006E-01  0.0000E+00
     -9.288  0.7863E-01  0.2000E-01  0.0000E+00
     -9.263  0.7917E-01  0.1984E-01  0.0000E+00
     -9.238  0.1009E+00  0.2568E-01  0.0000E+00
     -9.213  0.9838E-01  0.2446E-01  0.0000E+00
     -9.188  0.8823E-01  0.2115E-01  0.0000E+00
     -9.163  0.7879E-01  0.1804E-01  0.0000E+00
     -9.139  0.7553E-01  0.1679E-01  0.0000E+00
     -9.114  0.7391E-01  0.1603E-01  0.0000E+00
     -9.089  0.7228E-01  0.1524E-01  0.0000E+00
     -9.064  0.7014E-01  0.1420E-01  0.0000E+00
     -9.039  0.6780E-01  0.1328E-01  0.0000E+00
     -9.014  0.6613E-01  0.1265E-01  0.0000E+00
     -8.990  0.6474E-01  0.1210E-01  0.0000E+00
     -8.965  0.6376E-01  0.1168E-01  0.0000E+00
     -8.940  0.6277E-01  0.1124E-01  0.0000E+00
     -8.915  0.6176E-01  0.1075E-01  0.0000E+00
     -8.890  0.6067E-01  0.1012E-01  0.0000E+00
     -8.865  0.5945E-01  0.9650E-02  0.0000E+00
     -8.840  0.5826E-01  0.9180E-02  0.0000E+00
     -8.816  0.5772E-01  0.8809E-02  0.0000E+00
     -8.791  0.5718E-01  0.8438E-02  0.0000E+00
     -8.766  0.5717E-01  0.8054E-02  0.0000E+00
     -8.741  0.5761E-01  0.7588E-02  0.0000E+00
     -8.716  0.5631E-01  0.7112E-02  0.0000E+00
     -8.691  0.5450E-01  0.6623E-02  0.0000E+00
     -8.666  0.5310E-01  0.6275E-02  0.0000E+00
     -8.642  0.5169E-01  0.5931E-02  0.0000E+00
     -8.617  0.5087E-01  0.5589E-02  0.0000E+00
     -8.592  0.5021E-01  0.5247E-02  0.0000E+00
     -8.567  0.4997E-01  0.4803E-02  0.0000E+00
     -8.542  0.4873E-01  0.4499E-02  0.0000E+00
     -8.517  0.4974E-01  0.4289E-02  0.0000E+00
     -8.493  0.5836E-01  0.4452E-02  0.0000E+00
     -8.468  0.5294E-01  0.3741E-02  0.0000E+00
     -8.443  0.4433E-01  0.2922E-02  0.0000E+00
     -8.418  0.3197E-01  0.2004E-02  0.0000E+00
     -8.393  0.1951E-01  0.1123E-02  0.0000E+00
     -8.368  0.0000E+00  0.0000E+00  0.0000E+00
     -8.343  0.0000E+00  0.0000E+00  0.0000E+00
     -8.319  0.0000E+00  0.0000E+00  0.0000E+00
     -8.294  0.0000E+00  0.0000E+00  0.0000E+00
     -8.269  0.0000E+00  0.0000E+00  0.0000E+00
     -8.244  0.0000E+00  0.0000E+00  0.0000E+00
     -8.219  0.0000E+00  0.0000E+00  0.0000E+00
     -8.194  0.2848E-02  0.3321E-01  0.0000E+00
     -8.170  0.3669E-02  0.3661E-01  0.0000E+00
     -8.145  0.4164E-02  0.3821E-01  0.0000E+00
     -8.120  0.4210E-02  0.3435E-01  0.0000E+00
     -8.095  0.4116E-02  0.2937E-01  0.0000E+00
     -8.070  0.4192E-02  0.2779E-01  0.0000E+00
     -8.045  0.6134E-02  0.3981E-01  0.0000E+00
     -8.020  0.6762E-02  0.4183E-01  0.0000E+00
     -7.996  0.7395E-02  0.4347E-01  0.0000E+00
     -7.971  0.7878E-02  0.4333E-01  0.0000E+00
     -7.946  0.8345E-02  0.4284E-01  0.0000E+00
     -7.921  0.8737E-02  0.4242E-01  0.0000E+00
     -7.896  0.9280E-02  0.4358E-01  0.0000E+00
     -7.871  0.9828E-02  0.4467E-01  0.0000E+00
     -7.847  0.1045E-01  0.4569E-01  0.0000E+00
     -7.822  0.1107E-01  0.4706E-01  0.0000E+00
     -7.797  0.1174E-01  0.4823E-01  0.0000E+00
     -7.772  0.1238E-01  0.4943E-01  0.0000E+00
     -7.747  0.1301E-01  0.5061E-01  0.0000E+00
     -7.722  0.1364E-01  0.5156E-01  0.0000E+00
     -7.697  0.1438E-01  0.5405E-01  0.0000E+00
     -7.673  0.1514E-01  0.5650E-01  0.0000E+00
     -7.648  0.1610E-01  0.5942E-01  0.0000E+00
     -7.623  0.1717E-01  0.6318E-01  0.0000E+00
     -7.598  0.2662E-01  0.1717E+00  0.0000E+00
     -7.573  0.3653E-01  0.2752E+00  0.0000E+00
     -7.548  0.4058E-01  0.3021E+00  0.0000E+00
     -7.524  0.4425E-01  0.3273E+00  0.0000E+00
     -7.499  0.3891E-01  0.2529E+00  0.0000E+00
     -7.474  0.3596E-01  0.2037E+00  0.0000E+00
     -7.449  0.3591E-01  0.1793E+00  0.0000E+00
     -7.424  0.4371E-01  0.2146E+00  0.0000E+00
     -7.399  0.6342E-01  0.3261E+00  0.0000E+00
     -7.374  0.5111E-01  0.2447E+00  0.0000E+00
     -7.350  0.6807E-01  0.3207E+00  0.0000E+00
     -7.325  0.7212E-01  0.3148E+00  0.0000E+00
     -7.300  0.6034E-01  0.2597E+00  0.0000E+00
     -7.275  0.6063E-01  0.2601E+00  0.0000E+00
     -7.250  0.6253E-01  0.2623E+00  0.0000E+00
     -7.225  0.6274E-01  0.2600E+00  0.0000E+00
     -7.201  0.6684E-01  0.2779E+00  0.0000E+00
     -7.176  0.7074E-01  0.2810E+00  0.0000E+00
     -7.151  0.8267E-01  0.3091E+00  0.0000E+00
     -7.126  0.9150E-01  0.3129E+00  0.0000E+00
     -7.101  0.6548E-01  0.2034E+00  0.0000E+00
     -7.076  0.7401E-01  0.2376E+00  0.0000E+00
     -7.051  0.5693E-01  0.1656E+00  0.0000E+00
     -7.027  0.5593E-01  0.1561E+00  0.0000E+00
     -7.002  0.5809E-01  0.1609E+00  0.0000E+00
     -6.977  0.6287E-01  0.1655E+00  0.0000E+00
     -6.952  0.5651E-01  0.1500E+00  0.0000E+00
     -6.927  0.4821E-01  0.1420E+00  0.0000E+00
     -6.902  0.4083E-01  0.1350E+00  0.0000E+00
     -6.878  0.3442E-01  0.1110E+00  0.0000E+00
     -6.853  0.2407E-01  0.8297E-01  0.0000E+00
     -6.828  0.7706E-02  0.5794E-01  0.0000E+00
     -6.803  0.9363E-02  0.6154E-01  0.0000E+00
     -6.778  0.1803E-01  0.7572E-01  0.0000E+00
     -6.753  0.4169E-01  0.1189E+00  0.0000E+00
     -6.728  0.3499E-01  0.1156E+00  0.0000E+00
     -6.704  0.3173E-01  0.1169E+00  0.0000E+00
     -6.679  0.3205E-01  0.1237E+00  0.0000E+00
     -6.654  0.3771E-01  0.1461E+00  0.0000E+00
     -6.629  0.2885E-01  0.1212E+00  0.0000E+00
     -6.604  0.2671E-01  0.1150E+00  0.0000E+00
     -6.579  0.3173E-01  0.1241E+00  0.0000E+00
     -6.555  0.3384E-01  0.1396E+00  0.0000E+00
     -6.530  0.3924E-01  0.1652E+00  0.0000E+00
     -6.505  0.4288E-01  0.1767E+00  0.0000E+00
     -6.480  0.5343E-01  0.2050E+00  0.0000E+00
     -6.455  0.6633E-01  0.2686E+00  0.0000E+00
     -6.430  0.5377E-01  0.2263E+00  0.0000E+00
     -6.405  0.5011E-01  0.2258E+00  0.0000E+00
     -6.381  0.4591E-01  0.2341E+00  0.0000E+00
     -6.356  0.4270E-01  0.2520E+00  0.0000E+00
     -6.331  0.4345E-01  0.3010E+00  0.0000E+00
     -6.306  0.4461E-01  0.3094E+00  0.0000E+00
     -6.281  0.3863E-01  0.2592E+00  0.0000E+00
     -6.256  0.4077E-01  0.2756E+00  0.0000E+00
     -6.232  0.5530E-01  0.3690E+00  0.0000E+00
     -6.207  0.4235E-01  0.3089E+00  0.0000E+00
     -6.182  0.3733E-01  0.2925E+00  0.0000E+00
     -6.157  0.3510E-01  0.3085E+00  0.0000E+00
     -6.132  0.3246E-01  0.2937E+00  0.0000E+00
     -6.107  0.2549E-01  0.2351E+00  0.0000E+00
     -6.082  0.1882E-01  0.1930E+00  0.0000E+00
     -6.058  0.1130E-01  0.1338E+00  0.0000E+00
     -6.033  0.7961E-02  0.1145E+00  0.0000E+00
     -6.008  0.7306E-02  0.1089E+00  0.0000E+00
     -5.983  0.6836E-02  0.1049E+00  0.0000E+00
     -5.958  0.6549E-02  0.1023E+00  0.0000E+00
     -5.933  0.6191E-02  0.9894E-01  0.0000E+00
     -5.909  0.6082E-02  0.9839E-01  0.0000E+00
     -5.884  0.9416E-02  0.1272E+00  0.0000E+00
     -5.859  0.1336E-01  0.1566E+00  0.0000E+00
     -5.834  0.1265E-01  0.1614E+00  0.0000E+00
     -5.809  0.1173E-01  0.1472E+00  0.0000E+00
     -5.784  0.1716E-01  0.1874E+00  0.0000E+00
     -5.759  0.1514E-01  0.1672E+00  0.0000E+00
     -5.735  0.1584E-01  0.1720E+00  0.0000E+00
     -5.710  0.2204E-01  0.2083E+00  0.0000E+00
     -5.685  0.1954E-01  0.1448E+00  0.0000E+00
     -5.660  0.1959E-01  0.1482E+00  0.0000E+00
     -5.635  0.2248E-01  0.1586E+00  0.0000E+00
     -5.610  0.2651E-01  0.1793E+00  0.0000E+00
     -5.585  0.3471E-01  0.1889E+00  0.0000E+00
     -5.561  0.3784E-01  0.2238E+00  0.0000E+00
     -5.536  0.4507E-01  0.2161E+00  0.0000E+00
     -5.511  0.4430E-01  0.1588E+00  0.0000E+00
     -5.486  0.4712E-01  0.1449E+00  0.0000E+00
     -5.461  0.5063E-01  0.1615E+00  0.0000E+00
     -5.436  0.7081E-01  0.2117E+00  0.0000E+00
     -5.412  0.9456E-01  0.2800E+00  0.0000E+00
     -5.387  0.7129E-01  0.2601E+00  0.0000E+00
     -5.362  0.6468E-01  0.2423E+00  0.0000E+00
     -5.337  0.5592E-01  0.2271E+00  0.0000E+00
     -5.312  0.5022E-01  0.2169E+00  0.0000E+00
     -5.287  0.5363E-01  0.2261E+00  0.0000E+00
     -5.262  0.5593E-01  0.2059E+00  0.0000E+00
     -5.238  0.6137E-01  0.2309E+00  0.0000E+00
     -5.213  0.5535E-01  0.1996E+00  0.0000E+00
     -5.188  0.5347E-01  0.1966E+00  0.0000E+00
     -5.163  0.4786E-01  0.1924E+00  0.0000E+00
     -5.138  0.3579E-01  0.1807E+00  0.0000E+00
     -5.113  0.2889E-01  0.1853E+00  0.0000E+00
     -5.089  0.2264E-01  0.1564E+00  0.0000E+00
     -5.064  0.2155E-01  0.1489E+00  0.0000E+00
     -5.039  0.2228E-01  0.1570E+00  0.0000E+00
     -5.014  0.2375E-01  0.1891E+00  0.0000E+00
     -4.989  0.2408E-01  0.1873E+00  0.0000E+00
     -4.964  0.2447E-01  0.1925E+00  0.0000E+00
     -4.939  0.2428E-01  0.1914E+00  0.0000E+00
     -4.915  0.2418E-01  0.1933E+00  0.0000E+00
     -4.890  0.2478E-01  0.1932E+00  0.0000E+00
     -4.865  0.2620E-01  0.2040E+00  0.0000E+00
     -4.840  0.2984E-01  0.2424E+00  0.0000E+00
     -4.815  0.4422E-01  0.3213E+00  0.0000E+00
     -4.790  0.2843E-01  0.2313E+00  0.0000E+00
     -4.766  0.2955E-01  0.2600E+00  0.0000E+00
     -4.741  0.2985E-01  0.2846E+00  0.0000E+00
     -4.716  0.3431E-01  0.3401E+00  0.0000E+00
     -4.691  0.2866E-01  0.2884E+00  0.0000E+00
     -4.666  0.2743E-01  0.2716E+00  0.0000E+00
     -4.641  0.2681E-01  0.2689E+00  0.0000E+00
     -4.616  0.2808E-01  0.3001E+00  0.0000E+00
     -4.592  0.3103E-01  0.3422E+00  0.0000E+00
     -4.567  0.2976E-01  0.3235E+00  0.0000E+00
     -4.542  0.2896E-01  0.2851E+00  0.0000E+00
     -4.517  0.3035E-01  0.2766E+00  0.0000E+00
     -4.492  0.2711E-01  0.2388E+00  0.0000E+00
     -4.467  0.2528E-01  0.2121E+00  0.0000E+00
     -4.443  0.2478E-01  0.2181E+00  0.0000E+00
     -4.418  0.2614E-01  0.2257E+00  0.0000E+00
     -4.393  0.2568E-01  0.2224E+00  0.0000E+00
     -4.368  0.2410E-01  0.2154E+00  0.0000E+00
     -4.343  0.2462E-01  0.2238E+00  0.0000E+00
     -4.318  0.2135E-01  0.1770E+00  0.0000E+00
     -4.293  0.2205E-01  0.1801E+00  0.0000E+00
     -4.269  0.2268E-01  0.1824E+00  0.0000E+00
     -4.244  0.2538E-01  0.2015E+00  0.0000E+00
     -4.219  0.2644E-01  0.2066E+00  0.0000E+00
     -4.194  0.2719E-01  0.2110E+00  0.0000E+00
     -4.169  0.2708E-01  0.2094E+00  0.0000E+00
     -4.144  0.2536E-01  0.1851E+00  0.0000E+00
     -4.120  0.2550E-01  0.1794E+00  0.0000E+00
     -4.095  0.2588E-01  0.1736E+00  0.0000E+00
     -4.070  0.2591E-01  0.1670E+00  0.0000E+00
     -4.045  0.2555E-01  0.1626E+00  0.0000E+00
     -4.020  0.2662E-01  0.1697E+00  0.0000E+00
     -3.995  0.2815E-01  0.1759E+00  0.0000E+00
     -3.970  0.2846E-01  0.1919E+00  0.0000E+00
     -3.946  0.3040E-01  0.2065E+00  0.0000E+00
     -3.921  0.3624E-01  0.2481E+00  0.0000E+00
     -3.896  0.3685E-01  0.2450E+00  0.0000E+00
     -3.871  0.3796E-01  0.2506E+00  0.0000E+00
     -3.846  0.4561E-01  0.2956E+00  0.0000E+00
     -3.821  0.4562E-01  0.2961E+00  0.0000E+00
     -3.797  0.4246E-01  0.2785E+00  0.0000E+00
     -3.772  0.3898E-01  0.2596E+00  0.0000E+00
     -3.747  0.3849E-01  0.2517E+00  0.0000E+00
     -3.722  0.3821E-01  0.2403E+00  0.0000E+00
     -3.697  0.3916E-01  0.2236E+00  0.0000E+00
     -3.672  0.3419E-01  0.2052E+00  0.0000E+00
     -3.647  0.2873E-01  0.1895E+00  0.0000E+00
     -3.623  0.3318E-01  0.2313E+00  0.0000E+00
     -3.598  0.2813E-01  0.2570E+00  0.0000E+00
     -3.573  0.2844E-01  0.3039E+00  0.0000E+00
     -3.548  0.2574E-01  0.2740E+00  0.0000E+00
     -3.523  0.2803E-01  0.2806E+00  0.0000E+00
     -3.498  0.2314E-01  0.2374E+00  0.0000E+00
     -3.474  0.2312E-01  0.2432E+00  0.0000E+00
     -3.449  0.2338E-01  0.2580E+00  0.0000E+00
     -3.424  0.2560E-01  0.2859E+00  0.0000E+00
     -3.399  0.2620E-01  0.2883E+00  0.0000E+00
     -3.374  0.2836E-01  0.2960E+00  0.0000E+00
     -3.349  0.4925E-01  0.5159E+00  0.0000E+00
     -3.324  0.4577E-01  0.4982E+00  0.0000E+00
     -3.300  0.3471E-01  0.3651E+00  0.0000E+00
     -3.275  0.3558E-01  0.3835E+00  0.0000E+00
     -3.250  0.3701E-01  0.3814E+00  0.0000E+00
     -3.225  0.3431E-01  0.3364E+00  0.0000E+00
     -3.200  0.2768E-01  0.2894E+00  0.0000E+00
     -3.175  0.2221E-01  0.2324E+00  0.0000E+00
     -3.151  0.2404E-01  0.2599E+00  0.0000E+00
     -3.126  0.2152E-01  0.2274E+00  0.0000E+00
     -3.101  0.1982E-01  0.2141E+00  0.0000E+00
     -3.076  0.2284E-01  0.2260E+00  0.0000E+00
     -3.051  0.2546E-01  0.2330E+00  0.0000E+00
     -3.026  0.1152E-01  0.1754E+00  0.0000E+00
     -3.001  0.9822E-02  0.1698E+00  0.0000E+00
     -2.977  0.9824E-02  0.1856E+00  0.0000E+00
     -2.952  0.6445E-02  0.1370E+00  0.0000E+00
     -2.927  0.6026E-02  0.1357E+00  0.0000E+00
     -2.902  0.1194E-01  0.2409E+00  0.0000E+00
     -2.877  0.7981E-02  0.1886E+00  0.0000E+00
     -2.852  0.6952E-02  0.1873E+00  0.0000E+00
     -2.827  0.6924E-02  0.2427E+00  0.0000E+00
     -2.803  0.5945E-02  0.1984E+00  0.0000E+00
     -2.778  0.5620E-02  0.2051E+00  0.0000E+00
     -2.753  0.5803E-02  0.2039E+00  0.0000E+00
     -2.728  0.8122E-02  0.2535E+00  0.0000E+00
     -2.703  0.9353E-02  0.2436E+00  0.0000E+00
     -2.678  0.1217E-01  0.2887E+00  0.0000E+00
     -2.654  0.1282E-01  0.2585E+00  0.0000E+00
     -2.629  0.1250E-01  0.2508E+00  0.0000E+00
     -2.604  0.1380E-01  0.2587E+00  0.0000E+00
     -2.579  0.1764E-01  0.3018E+00  0.0000E+00
     -2.554  0.1836E-01  0.3183E+00  0.0000E+00
     -2.529  0.1234E-01  0.2615E+00  0.0000E+00
     -2.504  0.1164E-01  0.2700E+00  0.0000E+00
     -2.480  0.1172E-01  0.2855E+00  0.0000E+00
     -2.455  0.1248E-01  0.3245E+00  0.0000E+00
     -2.430  0.1216E-01  0.3634E+00  0.0000E+00
     -2.405  0.1161E-01  0.3042E+00  0.0000E+00
     -2.380  0.1393E-01  0.2739E+00  0.0000E+00
     -2.355  0.1297E-01  0.2122E+00  0.0000E+00
     -2.331  0.1308E-01  0.2204E+00  0.0000E+00
     -2.306  0.1361E-01  0.2494E+00  0.0000E+00
     -2.281  0.1360E-01  0.2093E+00  0.0000E+00
     -2.256  0.1630E-01  0.2297E+00  0.0000E+00
     -2.231  0.1282E-01  0.1861E+00  0.0000E+00
     -2.206  0.1255E-01  0.1766E+00  0.0000E+00
     -2.181  0.9161E-02  0.1310E+00  0.0000E+00
     -2.157  0.1092E-01  0.1484E+00  0.0000E+00
     -2.132  0.2446E-02  0.7046E-01  0.0000E+00
     -2.107  0.1875E-03  0.4830E-01  0.0000E+00
     -2.082  0.1397E-03  0.4821E-01  0.0000E+00
     -2.057  0.8149E-04  0.5323E-01  0.0000E+00
     -2.032  0.5911E-04  0.5010E-01  0.0000E+00
     -2.008  0.3734E-04  0.4359E-01  0.0000E+00
     -1.983  0.2159E-04  0.4818E-01  0.0000E+00
     -1.958  0.0000E+00  0.0000E+00  0.0000E+00
     -1.933  0.0000E+00  0.0000E+00  0.0000E+00
     -1.908  0.0000E+00  0.0000E+00  0.0000E+00
     -1.883  0.0000E+00  0.0000E+00  0.0000E+00
     -1.858  0.0000E+00  0.0000E+00  0.0000E+00
     -1.834  0.0000E+00  0.0000E+00  0.0000E+00
     -1.809  0.6984E-03  0.1351E-02  0.0000E+00
     -1.784  0.2215E-02  0.4288E-02  0.0000E+00
     -1.759  0.3737E-02  0.7243E-02  0.0000E+00
     -1.734  0.4547E-02  0.9216E-02  0.0000E+00
     -1.709  0.5322E-02  0.1116E-01  0.0000E+00
     -1.685  0.6089E-02  0.1312E-01  0.0000E+00
     -1.660  0.5451E-02  0.1422E-01  0.0000E+00
     -1.635  0.5360E-02  0.1676E-01  0.0000E+00
     -1.610  0.5674E-02  0.2012E-01  0.0000E+00
     -1.585  0.6169E-02  0.2432E-01  0.0000E+00
     -1.560  0.6590E-02  0.2881E-01  0.0000E+00
     -1.535  0.6533E-02  0.3552E-01  0.0000E+00
     -1.511  0.1472E-01  0.3893E+00  0.0000E+00
     -1.486  0.1257E-01  0.1475E+00  0.0000E+00
     -1.461  0.1542E-01  0.1803E+00  0.0000E+00
     -1.436  0.1386E-01  0.1548E+00  0.0000E+00
     -1.411  0.1400E-01  0.1514E+00  0.0000E+00
     -1.386  0.1564E-01  0.1422E+00  0.0000E+00
     -1.362  0.1618E-01  0.1346E+00  0.0000E+00
     -1.337  0.1645E-01  0.1260E+00  0.0000E+00
     -1.312  0.1686E-01  0.1209E+00  0.0000E+00
     -1.287  0.1604E-01  0.1130E+00  0.0000E+00
     -1.262  0.1619E-01  0.9806E-01  0.0000E+00
     -1.237  0.1579E-01  0.8948E-01  0.0000E+00
     -1.212  0.1572E-01  0.8708E-01  0.0000E+00
     -1.188  0.1590E-01  0.8731E-01  0.0000E+00
     -1.163  0.1596E-01  0.8814E-01  0.0000E+00
     -1.138  0.1631E-01  0.9072E-01  0.0000E+00
     -1.113  0.1665E-01  0.9350E-01  0.0000E+00
     -1.088  0.1677E-01  0.9384E-01  0.0000E+00
     -1.063  0.1707E-01  0.9662E-01  0.0000E+00
     -1.039  0.2163E-01  0.1379E+00  0.0000E+00
     -1.014  0.2193E-01  0.1358E+00  0.0000E+00
     -0.989  0.1587E-01  0.8018E-01  0.0000E+00
     -0.964  0.1473E-01  0.7401E-01  0.0000E+00
     -0.939  0.1429E-01  0.7115E-01  0.0000E+00
     -0.914  0.1403E-01  0.7073E-01  0.0000E+00
     -0.889  0.1371E-01  0.7105E-01  0.0000E+00
     -0.865  0.1325E-01  0.7094E-01  0.0000E+00
     -0.840  0.1305E-01  0.7366E-01  0.0000E+00
     -0.815  0.1324E-01  0.7924E-01  0.0000E+00
     -0.790  0.1340E-01  0.8601E-01  0.0000E+00
     -0.765  0.1332E-01  0.9285E-01  0.0000E+00
     -0.740  0.1390E-01  0.1214E+00  0.0000E+00
     -0.716  0.1345E-01  0.1312E+00  0.0000E+00
     -0.691  0.1249E-01  0.1262E+00  0.0000E+00
     -0.666  0.1187E-01  0.1259E+00  0.0000E+00
     -0.641  0.1163E-01  0.1283E+00  0.0000E+00
     -0.616  0.1295E-01  0.1449E+00  0.0000E+00
     -0.591  0.1523E-01  0.1757E+00  0.0000E+00
     -0.566  0.1898E-01  0.2735E+00  0.0000E+00
     -0.542  0.1387E-01  0.1000E+00  0.0000E+00
     -0.517  0.1399E-01  0.9558E-01  0.0000E+00
     -0.492  0.1412E-01  0.8903E-01  0.0000E+00
     -0.467  0.1776E-01  0.1195E+00  0.0000E+00
     -0.442  0.2014E-01  0.1412E+00  0.0000E+00
     -0.417  0.1873E-01  0.1253E+00  0.0000E+00
     -0.393  0.1859E-01  0.1217E+00  0.0000E+00
     -0.368  0.1882E-01  0.1221E+00  0.0000E+00
     -0.343  0.2089E-01  0.1313E+00  0.0000E+00
     -0.318  0.2833E-01  0.1791E+00  0.0000E+00
     -0.293  0.2299E-01  0.1377E+00  0.0000E+00
     -0.268  0.2270E-01  0.1378E+00  0.0000E+00
     -0.243  0.2268E-01  0.1400E+00  0.0000E+00
     -0.219  0.2905E-01  0.1518E+00  0.0000E+00
     -0.194  0.4053E-01  0.1698E+00  0.0000E+00
     -0.169  0.4620E-01  0.1911E+00  0.0000E+00
     -0.144  0.4196E-01  0.1689E+00  0.0000E+00
     -0.119  0.4398E-01  0.1622E+00  0.0000E+00
     -0.094  0.9572E-01  0.2827E+00  0.0000E+00
     -0.070  0.7153E-01  0.2208E+00  0.0000E+00
     -0.045  0.7631E-01  0.2208E+00  0.0000E+00
     -0.020  0.8197E-01  0.2232E+00  0.0000E+00
      0.005  0.1069E+00  0.2989E+00  0.0000E+00
      0.030  0.7562E-01  0.2064E+00  0.0000E+00
      0.055  0.5198E-01  0.1667E+00  0.0000E+00
      0.080  0.4346E-01  0.1521E+00  0.0000E+00
      0.104  0.2942E-01  0.1320E+00  0.0000E+00
      0.129  0.2736E-01  0.1360E+00  0.0000E+00
      0.154  0.2583E-01  0.1429E+00  0.0000E+00
      0.179  0.2203E-01  0.1232E+00  0.0000E+00
      0.204  0.1715E-01  0.8426E-01  0.0000E+00
      0.229  0.1761E-01  0.8057E-01  0.0000E+00
      0.254  0.4049E-01  0.1393E+00  0.0000E+00
      0.278  0.3332E-01  0.1240E+00  0.0000E+00
      0.303  0.3206E-01  0.1232E+00  0.0000E+00
      0.328  0.2629E-01  0.1243E+00  0.0000E+00
      0.353  0.2587E-01  0.1260E+00  0.0000E+00
      0.378  0.3581E-01  0.1784E+00  0.0000E+00
      0.403  0.4959E-01  0.1990E+00  0.0000E+00
      0.427  0.4459E-01  0.1794E+00  0.0000E+00
      0.452  0.4084E-01  0.1668E+00  0.0000E+00
      0.477  0.3646E-01  0.1469E+00  0.0000E+00
      0.502  0.3360E-01  0.1291E+00  0.0000E+00
      0.527  0.2581E-01  0.1055E+00  0.0000E+00
      0.552  0.2300E-01  0.9450E-01  0.0000E+00
      0.577  0.2072E-01  0.8587E-01  0.0000E+00
      0.601  0.2554E-01  0.1107E+00  0.0000E+00
      0.626  0.2438E-01  0.1137E+00  0.0000E+00
      0.651  0.2516E-01  0.1221E+00  0.0000E+00
      0.676  0.2757E-01  0.1276E+00  0.0000E+00
      0.701  0.2998E-01  0.1319E+00  0.0000E+00
      0.726  0.3896E-01  0.1727E+00  0.0000E+00
      0.750  0.3692E-01  0.1728E+00  0.0000E+00
      0.775  0.3191E-01  0.1411E+00  0.0000E+00
      0.800  0.3673E-01  0.1589E+00  0.0000E+00
      0.825  0.3712E-01  0.1698E+00  0.0000E+00
      0.850  0.4175E-01  0.1890E+00  0.0000E+00
      0.875  0.4211E-01  0.1835E+00  0.0000E+00
      0.900  0.3842E-01  0.1511E+00  0.0000E+00
      0.924  0.4232E-01  0.1628E+00  0.0000E+00
      0.949  0.4191E-01  0.1482E+00  0.0000E+00
      0.974  0.4626E-01  0.1563E+00  0.0000E+00
      0.999  0.4721E-01  0.1541E+00  0.0000E+00
      1.024  0.4599E-01  0.1481E+00  0.0000E+00
      1.049  0.4714E-01  0.1537E+00  0.0000E+00
      1.073  0.4584E-01  0.1621E+00  0.0000E+00
      1.098  0.4601E-01  0.1599E+00  0.0000E+00
      1.123  0.4423E-01  0.1410E+00  0.0000E+00
      1.148  0.4344E-01  0.1322E+00  0.0000E+00
      1.173  0.4499E-01  0.1352E+00  0.0000E+00
      1.198  0.4737E-01  0.1411E+00  0.0000E+00
      1.223  0.5258E-01  0.1492E+00  0.0000E+00
      1.247  0.6421E-01  0.1812E+00  0.0000E+00
      1.272  0.5221E-01  0.1299E+00  0.0000E+00
      1.297  0.3252E-01  0.1169E+00  0.0000E+00
      1.322  0.2202E-01  0.8957E-01  0.0000E+00
      1.347  0.1886E-01  0.5344E-01  0.0000E+00
      1.372  0.2074E-01  0.5401E-01  0.0000E+00
      1.396  0.2311E-01  0.5905E-01  0.0000E+00
      1.421  0.2658E-01  0.6796E-01  0.0000E+00
      1.446  0.3377E-01  0.8265E-01  0.0000E+00
      1.471  0.3465E-01  0.9201E-01  0.0000E+00
      1.496  0.3419E-01  0.9708E-01  0.0000E+00
      1.521  0.3341E-01  0.1010E+00  0.0000E+00
      1.546  0.3668E-01  0.1102E+00  0.0000E+00
      1.570  0.1976E-01  0.8283E-01  0.0000E+00
      1.595  0.1555E-01  0.7069E-01  0.0000E+00
      1.620  0.1209E-01  0.5831E-01  0.0000E+00
      1.645  0.1070E-01  0.5254E-01  0.0000E+00
      1.670  0.1022E-01  0.5069E-01  0.0000E+00
      1.695  0.1057E-01  0.6873E-01  0.0000E+00
      1.719  0.1319E-01  0.1022E+00  0.0000E+00
      1.744  0.1106E-01  0.7776E-01  0.0000E+00
      1.769  0.9296E-02  0.6580E-01  0.0000E+00
      1.794  0.8657E-02  0.6108E-01  0.0000E+00
      1.819  0.9438E-02  0.6257E-01  0.0000E+00
      1.844  0.1107E-01  0.6745E-01  0.0000E+00
      1.869  0.5645E-02  0.4676E-01  0.0000E+00
      1.893  0.3079E-02  0.2436E-01  0.0000E+00
      1.918  0.1341E-02  0.9292E-02  0.0000E+00
      1.943  0.1068E-02  0.7412E-02  0.0000E+00
      1.968  0.7879E-03  0.5474E-02  0.0000E+00
      1.993  0.5003E-03  0.3481E-02  0.0000E+00
      2.018  0.2054E-03  0.1430E-02  0.0000E+00
      2.042  0.0000E+00  0.0000E+00  0.0000E+00
      2.067  0.0000E+00  0.0000E+00  0.0000E+00
      2.092  0.0000E+00  0.0000E+00  0.0000E+00
      2.117  0.0000E+00  0.0000E+00  0.0000E+00
      2.142  0.0000E+00  0.0000E+00  0.0000E+00
      2.167  0.0000E+00  0.0000E+00  0.0000E+00
      2.192  0.0000E+00  0.0000E+00  0.0000E+00
      2.216  0.0000E+00  0.0000E+00  0.0000E+00
      2.241  0.0000E+00  0.0000E+00  0.0000E+00
      2.266  0.0000E+00  0.0000E+00  0.0000E+00
      2.291  0.0000E+00  0.0000E+00  0.0000E+00
      2.316  0.0000E+00  0.0000E+00  0.0000E+00
      2.341  0.0000E+00  0.0000E+00  0.0000E+00
      2.365  0.0000E+00  0.0000E+00  0.0000E+00
      2.390  0.0000E+00  0.0000E+00  0.0000E+00
      2.415  0.0000E+00  0.0000E+00  0.0000E+00
      2.440  0.0000E+00  0.0000E+00  0.0000E+00
      2.465  0.0000E+00  0.0000E+00  0.0000E+00
      2.490  0.0000E+00  0.0000E+00  0.0000E+00
      2.515  0.0000E+00  0.0000E+00  0.0000E+00
      2.539  0.0000E+00  0.0000E+00  0.0000E+00
      2.564  0.0000E+00  0.0000E+00  0.0000E+00
      2.589  0.0000E+00  0.0000E+00  0.0000E+00
      2.614  0.0000E+00  0.0000E+00  0.0000E+00
      2.639  0.0000E+00  0.0000E+00  0.0000E+00
      2.664  0.0000E+00  0.0000E+00  0.0000E+00
      2.688  0.0000E+00  0.0000E+00  0.0000E+00
      2.713  0.0000E+00  0.0000E+00  0.0000E+00
      2.738  0.0000E+00  0.0000E+00  0.0000E+00
      2.763  0.0000E+00  0.0000E+00  0.0000E+00
      2.788  0.0000E+00  0.0000E+00  0.0000E+00
      2.813  0.0000E+00  0.0000E+00  0.0000E+00
      2.838  0.0000E+00  0.0000E+00  0.0000E+00
      2.862  0.0000E+00  0.0000E+00  0.0000E+00
      2.887  0.0000E+00  0.0000E+00  0.0000E+00
      2.912  0.0000E+00  0.0000E+00  0.0000E+00
      2.937  0.0000E+00  0.0000E+00  0.0000E+00
      2.93695651    -16.91563261  800     -1.95165038      1.00000000
    -16.916  0.0000E+00  0.0000E+00  0.0000E+00
    -16.891  0.0000E+00  0.0000E+00  0.0000E+00
    -16.866  0.0000E+00  0.0000E+00  0.0000E+00
    -16.841  0.0000E+00  0.0000E+00  0.0000E+00
    -16.816  0.0000E+00  0.0000E+00  0.0000E+00
    -16.791  0.0000E+00  0.0000E+00  0.0000E+00
    -16.767  0.0000E+00  0.0000E+00  0.0000E+00
    -16.742  0.0000E+00  0.0000E+00  0.0000E+00
    -16.717  0.0000E+00  0.0000E+00  0.0000E+00
    -16.692  0.0000E+00  0.0000E+00  0.0000E+00
    -16.667  0.0000E+00  0.0000E+00  0.0000E+00
    -16.642  0.0000E+00  0.0000E+00  0.0000E+00
    -16.617  0.0000E+00  0.0000E+00  0.0000E+00
    -16.593  0.0000E+00  0.0000E+00  0.0000E+00
    -16.568  0.0000E+00  0.0000E+00  0.0000E+00
    -16.543  0.0000E+00  0.0000E+00  0.0000E+00
    -16.518  0.0000E+00  0.0000E+00  0.0000E+00
    -16.493  0.0000E+00  0.0000E+00  0.0000E+00
    -16.468  0.0000E+00  0.0000E+00  0.0000E+00
    -16.444  0.0000E+00  0.0000E+00  0.0000E+00
    -16.419  0.0000E+00  0.0000E+00  0.0000E+00
    -16.394  0.0000E+00  0.0000E+00  0.0000E+00
    -16.369  0.0000E+00  0.0000E+00  0.0000E+00
    -16.344  0.0000E+00  0.0000E+00  0.0000E+00
    -16.319  0.0000E+00  0.0000E+00  0.0000E+00
    -16.294  0.0000E+00  0.0000E+00  0.0000E+00
    -16.270  0.0000E+00  0.0000E+00  0.0000E+00
    -16.245  0.0000E+00  0.0000E+00  0.0000E+00
    -16.220  0.0000E+00  0.0000E+00  0.0000E+00
    -16.195  0.0000E+00  0.0000E+00  0.0000E+00
    -16.170  0.0000E+00  0.0000E+00  0.0000E+00
    -16.145  0.0000E+00  0.0000E+00  0.0000E+00
    -16.121  0.0000E+00  0.0000E+00  0.0000E+00
    -16.096  0.0000E+00  0.0000E+00  0.0000E+00
    -16.071  0.0000E+00  0.0000E+00  0.0000E+00
    -16.046  0.0000E+00  0.0000E+00  0.0000E+00
    -16.021  0.0000E+00  0.0000E+00  0.0000E+00
    -15.996  0.7749E-01  0.7667E-02  0.0000E+00
    -15.971  0.6554E-01  0.6864E-02  0.0000E+00
    -15.947  0.7299E-01  0.7985E-02  0.0000E+00
    -15.922  0.6994E-01  0.8145E-02  0.0000E+00
    -15.897  0.7201E-01  0.8938E-02  0.0000E+00
    -15.872  0.7596E-01  0.9955E-02  0.0000E+00
    -15.847  0.8382E-01  0.1185E-01  0.0000E+00
    -15.822  0.9800E-01  0.1585E-01  0.0000E+00
    -15.798  0.7543E-01  0.1165E-01  0.0000E+00
    -15.773  0.6995E-01  0.1075E-01  0.0000E+00
    -15.748  0.6047E-01  0.8873E-02  0.0000E+00
    -15.723  0.5899E-01  0.8642E-02  0.0000E+00
    -15.698  0.5494E-01  0.8137E-02  0.0000E+00
    -15.673  0.5194E-01  0.7659E-02  0.0000E+00
    -15.648  0.4838E-01  0.6979E-02  0.0000E+00
    -15.624  0.4767E-01  0.6882E-02  0.0000E+00
    -15.599  0.4700E-01  0.6778E-02  0.0000E+00
    -15.574  0.4633E-01  0.6656E-02  0.0000E+00
    -15.549  0.4444E-01  0.6378E-02  0.0000E+00
    -15.524  0.4211E-01  0.5974E-02  0.0000E+00
    -15.499  0.4161E-01  0.5916E-02  0.0000E+00
    -15.475  0.4121E-01  0.5862E-02  0.0000E+00
    -15.450  0.4087E-01  0.5807E-02  0.0000E+00
    -15.425  0.4053E-01  0.5741E-02  0.0000E+00
    -15.400  0.4014E-01  0.5654E-02  0.0000E+00
    -15.375  0.3924E-01  0.5443E-02  0.0000E+00
    -15.350  0.3853E-01  0.5373E-02  0.0000E+00
    -15.325  0.3820E-01  0.5336E-02  0.0000E+00
    -15.301  0.3802E-01  0.5309E-02  0.0000E+00
    -15.276  0.3787E-01  0.5282E-02  0.0000E+00
    -15.251  0.3776E-01  0.5252E-02  0.0000E+00
    -15.226  0.3764E-01  0.5214E-02  0.0000E+00
    -15.201  0.3745E-01  0.5153E-02  0.0000E+00
    -15.176  0.3722E-01  0.5071E-02  0.0000E+00
    -15.152  0.3740E-01  0.5091E-02  0.0000E+00
    -15.127  0.5586E-01  0.7182E-02  0.0000E+00
    -15.102  0.4197E-01  0.5798E-02  0.0000E+00
    -15.077  0.3485E-01  0.5092E-02  0.0000E+00
    -15.052  0.3076E-01  0.4707E-02  0.0000E+00
    -15.027  0.2804E-01  0.4501E-02  0.0000E+00
    -15.002  0.2870E-01  0.4854E-02  0.0000E+00
    -14.978  0.6244E-02  0.1117E-02  0.0000E+00
    -14.953  0.0000E+00  0.0000E+00  0.0000E+00
    -14.928  0.0000E+00  0.0000E+00  0.0000E+00
    -14.903  0.6073E-01  0.6334E-02  0.0000E+00
    -14.878  0.4170E-01  0.4555E-02  0.0000E+00
    -14.853  0.3858E-01  0.4408E-02  0.0000E+00
    -14.829  0.4013E-01  0.4801E-02  0.0000E+00
    -14.804  0.4493E-01  0.5662E-02  0.0000E+00
    -14.779  0.4867E-01  0.6302E-02  0.0000E+00
    -14.754  0.1055E+00  0.1605E-01  0.0000E+00
    -14.729  0.4054E-01  0.5153E-02  0.0000E+00
    -14.704  0.4082E-01  0.5176E-02  0.0000E+00
    -14.679  0.4110E-01  0.5200E-02  0.0000E+00
    -14.655  0.4189E-01  0.5262E-02  0.0000E+00
    -14.630  0.4284E-01  0.5336E-02  0.0000E+00
    -14.605  0.4360E-01  0.5395E-02  0.0000E+00
    -14.580  0.4434E-01  0.5452E-02  0.0000E+00
    -14.555  0.4510E-01  0.5511E-02  0.0000E+00
    -14.530  0.4594E-01  0.5577E-02  0.0000E+00
    -14.505  0.4729E-01  0.5687E-02  0.0000E+00
    -14.481  0.4769E-01  0.5716E-02  0.0000E+00
    -14.456  0.4809E-01  0.5745E-02  0.0000E+00
    -14.431  0.4849E-01  0.5775E-02  0.0000E+00
    -14.406  0.5052E-01  0.5933E-02  0.0000E+00
    -14.381  0.5258E-01  0.6095E-02  0.0000E+00
    -14.356  0.5419E-01  0.6224E-02  0.0000E+00
    -14.332  0.5575E-01  0.6351E-02  0.0000E+00
    -14.307  0.5738E-01  0.6489E-02  0.0000E+00
    -14.282  0.5932E-01  0.6663E-02  0.0000E+00
    -14.257  0.6160E-01  0.6876E-02  0.0000E+00
    -14.232  0.6223E-01  0.6916E-02  0.0000E+00
    -14.207  0.6286E-01  0.6956E-02  0.0000E+00
    -14.182  0.6730E-01  0.7293E-02  0.0000E+00
    -14.158  0.7181E-01  0.7643E-02  0.0000E+00
    -14.133  0.7533E-01  0.7922E-02  0.0000E+00
    -14.108  0.7862E-01  0.8193E-02  0.0000E+00
    -14.083  0.8204E-01  0.8489E-02  0.0000E+00
    -14.058  0.8630E-01  0.8886E-02  0.0000E+00
    -14.033  0.9042E-01  0.9281E-02  0.0000E+00
    -14.009  0.9549E-01  0.9642E-02  0.0000E+00
    -13.984  0.1089E+00  0.1065E-01  0.0000E+00
    -13.959  0.1170E+00  0.1127E-01  0.0000E+00
    -13.934  0.1242E+00  0.1184E-01  0.0000E+00
    -13.909  0.1312E+00  0.1244E-01  0.0000E+00
    -13.884  0.1534E+00  0.1419E-01  0.0000E+00
    -13.859  0.1953E+00  0.1763E-01  0.0000E+00
    -13.835  0.2150E+00  0.1912E-01  0.0000E+00
    -13.810  0.3619E+00  0.2988E-01  0.0000E+00
    -13.785  0.2738E+00  0.2392E-01  0.0000E+00
    -13.760  0.2222E+00  0.2049E-01  0.0000E+00
    -13.735  0.2020E+00  0.1954E-01  0.0000E+00
    -13.710  0.1861E+00  0.1864E-01  0.0000E+00
    -13.686  0.1655E+00  0.1699E-01  0.0000E+00
    -13.661  0.1609E+00  0.1700E-01  0.0000E+00
    -13.636  0.1099E+00  0.1190E-01  0.0000E+00
    -13.611  0.0000E+00  0.0000E+00  0.0000E+00
    -13.586  0.0000E+00  0.0000E+00  0.0000E+00
    -13.561  0.0000E+00  0.0000E+00  0.0000E+00
    -13.536  0.0000E+00  0.0000E+00  0.0000E+00
    -13.512  0.0000E+00  0.0000E+00  0.0000E+00
    -13.487  0.0000E+00  0.0000E+00  0.0000E+00
    -13.462  0.0000E+00  0.0000E+00  0.0000E+00
    -13.437  0.0000E+00  0.0000E+00  0.0000E+00
    -13.412  0.0000E+00  0.0000E+00  0.0000E+00
    -13.387  0.0000E+00  0.0000E+00  0.0000E+00
    -13.363  0.0000E+00  0.0000E+00  0.0000E+00
    -13.338  0.0000E+00  0.0000E+00  0.0000E+00
    -13.313  0.0000E+00  0.0000E+00  0.0000E+00
    -13.288  0.0000E+00  0.0000E+00  0.0000E+00
    -13.263  0.0000E+00  0.0000E+00  0.0000E+00
    -13.238  0.0000E+00  0.0000E+00  0.0000E+00
    -13.213  0.0000E+00  0.0000E+00  0.0000E+00
    -13.189  0.0000E+00  0.0000E+00  0.0000E+00
    -13.164  0.0000E+00  0.0000E+00  0.0000E+00
    -13.139  0.0000E+00  0.0000E+00  0.0000E+00
    -13.114  0.0000E+00  0.0000E+00  0.0000E+00
    -13.089  0.0000E+00  0.0000E+00  0.0000E+00
    -13.064  0.0000E+00  0.0000E+00  0.0000E+00
    -13.040  0.0000E+00  0.0000E+00  0.0000E+00
    -13.015  0.0000E+00  0.0000E+00  0.0000E+00
    -12.990  0.0000E+00  0.0000E+00  0.0000E+00
    -12.965  0.0000E+00  0.0000E+00  0.0000E+00
    -12.940  0.0000E+00  0.0000E+00  0.0000E+00
    -12.915  0.2810E+00  0.4032E-02  0.0000E+00
    -12.890  0.1999E+00  0.2904E-02  0.0000E+00
    -12.866  0.2393E+00  0.3500E-02  0.0000E+00
    -12.841  0.2282E+00  0.3376E-02  0.0000E+00
    -12.816  0.2323E+00  0.3463E-02  0.0000E+00
    -12.791  0.2376E+00  0.3567E-02  0.0000E+00
    -12.766  0.2472E+00  0.3733E-02  0.0000E+00
    -12.741  0.2613E+00  0.3960E-02  0.0000E+00
    -12.717  0.2587E+00  0.3946E-02  0.0000E+00
    -12.692  0.2643E+00  0.4049E-02  0.0000E+00
    -12.667  0.2725E+00  0.4187E-02  0.0000E+00
    -12.642  0.2823E+00  0.4347E-02  0.0000E+00
    -12.617  0.2954E+00  0.4560E-02  0.0000E+00
    -12.592  0.3073E+00  0.4752E-02  0.0000E+00
    -12.567  0.3155E+00  0.4883E-02  0.0000E+00
    -12.543  0.3307E+00  0.5129E-02  0.0000E+00
    -12.518  0.3510E+00  0.5454E-02  0.0000E+00
    -12.493  0.3673E+00  0.5719E-02  0.0000E+00
    -12.468  0.3828E+00  0.5975E-02  0.0000E+00
    -12.443  0.4614E+00  0.7253E-02  0.0000E+00
    -12.418  0.4448E+00  0.7244E-02  0.0000E+00
    -12.394  0.5171E+00  0.8845E-02  0.0000E+00
    -12.369  0.8673E+00  0.1852E-01  0.0000E+00
    -12.344  0.1152E+01  0.2799E-01  0.0000E+00
    -12.319  0.1064E+01  0.2611E-01  0.0000E+00
    -12.294  0.1220E+01  0.2994E-01  0.0000E+00
    -12.269  0.8792E+00  0.2104E-01  0.0000E+00
    -12.244  0.7326E+00  0.1702E-01  0.0000E+00
    -12.220  0.6954E+00  0.1603E-01  0.0000E+00
    -12.195  0.6778E+00  0.1661E-01  0.0000E+00
    -12.170  0.5857E+00  0.1515E-01  0.0000E+00
    -12.145  0.5210E+00  0.8627E-02  0.0000E+00
    -12.120  0.5394E+00  0.8263E-02  0.0000E+00
    -12.095  0.6757E+00  0.9185E-02  0.0000E+00
    -12.071  0.7731E+00  0.9765E-02  0.0000E+00
    -12.046  0.5908E+00  0.7500E-02  0.0000E+00
    -12.021  0.6492E+00  0.8055E-02  0.0000E+00
    -11.996  0.0000E+00  0.0000E+00  0.0000E+00
    -11.971  0.0000E+00  0.0000E+00  0.0000E+00
    -11.946  0.0000E+00  0.0000E+00  0.0000E+00
    -11.921  0.0000E+00  0.0000E+00  0.0000E+00
    -11.897  0.0000E+00  0.0000E+00  0.0000E+00
    -11.872  0.0000E+00  0.0000E+00  0.0000E+00
    -11.847  0.0000E+00  0.0000E+00  0.0000E+00
    -11.822  0.0000E+00  0.0000E+00  0.0000E+00
    -11.797  0.0000E+00  0.0000E+00  0.0000E+00
    -11.772  0.0000E+00  0.0000E+00  0.0000E+00
    -11.747  0.0000E+00  0.0000E+00  0.0000E+00
    -11.723  0.0000E+00  0.0000E+00  0.0000E+00
    -11.698  0.0000E+00  0.0000E+00  0.0000E+00
    -11.673  0.0000E+00  0.0000E+00  0.0000E+00
    -11.648  0.0000E+00  0.0000E+00  0.0000E+00
    -11.623  0.0000E+00  0.0000E+00  0.0000E+00
    -11.598  0.0000E+00  0.0000E+00  0.0000E+00
    -11.574  0.0000E+00  0.0000E+00  0.0000E+00
    -11.549  0.0000E+00  0.0000E+00  0.0000E+00
    -11.524  0.0000E+00  0.0000E+00  0.0000E+00
    -11.499  0.0000E+00  0.0000E+00  0.0000E+00
    -11.474  0.0000E+00  0.0000E+00  0.0000E+00
    -11.449  0.0000E+00  0.0000E+00  0.0000E+00
    -11.424  0.0000E+00  0.0000E+00  0.0000E+00
    -11.400  0.0000E+00  0.0000E+00  0.0000E+00
    -11.375  0.0000E+00  0.0000E+00  0.0000E+00
    -11.350  0.0000E+00  0.0000E+00  0.0000E+00
    -11.325  0.0000E+00  0.0000E+00  0.0000E+00
    -11.300  0.0000E+00  0.0000E+00  0.0000E+00
    -11.275  0.0000E+00  0.0000E+00  0.0000E+00
    -11.251  0.0000E+00  0.0000E+00  0.0000E+00
    -11.226  0.0000E+00  0.0000E+00  0.0000E+00
    -11.201  0.0000E+00  0.0000E+00  0.0000E+00
    -11.176  0.0000E+00  0.0000E+00  0.0000E+00
    -11.151  0.0000E+00  0.0000E+00  0.0000E+00
    -11.126  0.0000E+00  0.0000E+00  0.0000E+00
    -11.101  0.0000E+00  0.0000E+00  0.0000E+00
    -11.077  0.0000E+00  0.0000E+00  0.0000E+00
    -11.052  0.0000E+00  0.0000E+00  0.0000E+00
    -11.027  0.0000E+00  0.0000E+00  0.0000E+00
    -11.002  0.0000E+00  0.0000E+00  0.0000E+00
    -10.977  0.0000E+00  0.0000E+00  0.0000E+00
    -10.952  0.0000E+00  0.0000E+00  0.0000E+00
    -10.928  0.0000E+00  0.0000E+00  0.0000E+00
    -10.903  0.0000E+00  0.0000E+00  0.0000E+00
    -10.878  0.0000E+00  0.0000E+00  0.0000E+00
    -10.853  0.0000E+00  0.0000E+00  0.0000E+00
    -10.828  0.0000E+00  0.0000E+00  0.0000E+00
    -10.803  0.0000E+00  0.0000E+00  0.0000E+00
    -10.778  0.0000E+00  0.0000E+00  0.0000E+00
    -10.754  0.0000E+00  0.0000E+00  0.0000E+00
    -10.729  0.0000E+00  0.0000E+00  0.0000E+00
    -10.704  0.3689E+00  0.5754E-02  0.0000E+00
    -10.679  0.3296E+00  0.5834E-02  0.0000E+00
    -10.654  0.3302E+00  0.6648E-02  0.0000E+00
    -10.629  0.3344E+00  0.7612E-02  0.0000E+00
    -10.605  0.3224E+00  0.8393E-02  0.0000E+00
    -10.580  0.3145E+00  0.9327E-02  0.0000E+00
    -10.555  0.3102E+00  0.1031E-01  0.0000E+00
    -10.530  0.3125E+00  0.1139E-01  0.0000E+00
    -10.505  0.3046E+00  0.1225E-01  0.0000E+00
    -10.480  0.2994E+00  0.1304E-01  0.0000E+00
    -10.455  0.2955E+00  0.1401E-01  0.0000E+00
    -10.431  0.2994E+00  0.1516E-01  0.0000E+00
    -10.406  0.3068E+00  0.1699E-01  0.0000E+00
    -10.381  0.3381E+00  0.2260E-01  0.0000E+00
    -10.356  0.3047E+00  0.1713E-01  0.0000E+00
    -10.331  0.2965E+00  0.1593E-01  0.0000E+00
    -10.306  0.2970E+00  0.1484E-01  0.0000E+00
    -10.282  0.3195E+00  0.1449E-01  0.0000E+00
    -10.257  0.3523E+00  0.2056E-01  0.0000E+00
    -10.232  0.4254E+00  0.2674E-01  0.0000E+00
    -10.207  0.4627E+00  0.2325E-01  0.0000E+00
    -10.182  0.3823E+00  0.2302E-01  0.0000E+00
    -10.157  0.3714E+00  0.2512E-01  0.0000E+00
    -10.132  0.3722E+00  0.2794E-01  0.0000E+00
    -10.108  0.3810E+00  0.2853E-01  0.0000E+00
    -10.083  0.3999E+00  0.3291E-01  0.0000E+00
    -10.058  0.4521E+00  0.3762E-01  0.0000E+00
    -10.033  0.5721E+00  0.5007E-01  0.0000E+00
    -10.008  0.6861E-01  0.2404E-01  0.0000E+00
     -9.983  0.5705E-01  0.2312E-01  0.0000E+00
     -9.959  0.4899E-01  0.2241E-01  0.0000E+00
     -9.934  0.2942E-01  0.1921E-01  0.0000E+00
     -9.909  0.2766E-01  0.1926E-01  0.0000E+00
     -9.884  0.2602E-01  0.1928E-01  0.0000E+00
     -9.859  0.2438E-01  0.1928E-01  0.0000E+00
     -9.834  0.2271E-01  0.1922E-01  0.0000E+00
     -9.809  0.2103E-01  0.1915E-01  0.0000E+00
     -9.785  0.1927E-01  0.1901E-01  0.0000E+00
     -9.760  0.1754E-01  0.1884E-01  0.0000E+00
     -9.735  0.1546E-01  0.1897E-01  0.0000E+00
     -9.710  0.1363E-01  0.1891E-01  0.0000E+00
     -9.685  0.1241E-01  0.1887E-01  0.0000E+00
     -9.660  0.1188E-01  0.1902E-01  0.0000E+00
     -9.636  0.1138E-01  0.1914E-01  0.0000E+00
     -9.611  0.1091E-01  0.1923E-01  0.0000E+00
     -9.586  0.1044E-01  0.1933E-01  0.0000E+00
     -9.561  0.1000E-01  0.1941E-01  0.0000E+00
     -9.536  0.9522E-02  0.2039E-01  0.0000E+00
     -9.511  0.9099E-02  0.2100E-01  0.0000E+00
     -9.486  0.8718E-02  0.2139E-01  0.0000E+00
     -9.462  0.8345E-02  0.2178E-01  0.0000E+00
     -9.437  0.8007E-02  0.2202E-01  0.0000E+00
     -9.412  0.7601E-02  0.2222E-01  0.0000E+00
     -9.387  0.7231E-02  0.2243E-01  0.0000E+00
     -9.362  0.7236E-02  0.2500E-01  0.0000E+00
     -9.337  0.7221E-02  0.2640E-01  0.0000E+00
     -9.313  0.7219E-02  0.2780E-01  0.0000E+00
     -9.288  0.7216E-02  0.2855E-01  0.0000E+00
     -9.263  0.7217E-02  0.2909E-01  0.0000E+00
     -9.238  0.8062E-02  0.4390E-01  0.0000E+00
     -9.213  0.8185E-02  0.4241E-01  0.0000E+00
     -9.188  0.7864E-02  0.3564E-01  0.0000E+00
     -9.163  0.7523E-02  0.2941E-01  0.0000E+00
     -9.139  0.7376E-02  0.2749E-01  0.0000E+00
     -9.114  0.7219E-02  0.2653E-01  0.0000E+00
     -9.089  0.7030E-02  0.2560E-01  0.0000E+00
     -9.064  0.6766E-02  0.2431E-01  0.0000E+00
     -9.039  0.6583E-02  0.2291E-01  0.0000E+00
     -9.014  0.6422E-02  0.2207E-01  0.0000E+00
     -8.990  0.6263E-02  0.2138E-01  0.0000E+00
     -8.965  0.6114E-02  0.2089E-01  0.0000E+00
     -8.940  0.5956E-02  0.2039E-01  0.0000E+00
     -8.915  0.5771E-02  0.1985E-01  0.0000E+00
     -8.890  0.5542E-02  0.1913E-01  0.0000E+00
     -8.865  0.5332E-02  0.1861E-01  0.0000E+00
     -8.840  0.5118E-02  0.1810E-01  0.0000E+00
     -8.816  0.4910E-02  0.1785E-01  0.0000E+00
     -8.791  0.4698E-02  0.1759E-01  0.0000E+00
     -8.766  0.4463E-02  0.1751E-01  0.0000E+00
     -8.741  0.4160E-02  0.1748E-01  0.0000E+00
     -8.716  0.3876E-02  0.1694E-01  0.0000E+00
     -8.691  0.3593E-02  0.1629E-01  0.0000E+00
     -8.666  0.3364E-02  0.1582E-01  0.0000E+00
     -8.642  0.3137E-02  0.1535E-01  0.0000E+00
     -8.617  0.2882E-02  0.1503E-01  0.0000E+00
     -8.592  0.2616E-02  0.1474E-01  0.0000E+00
     -8.567  0.2261E-02  0.1454E-01  0.0000E+00
     -8.542  0.2037E-02  0.1415E-01  0.0000E+00
     -8.517  0.1794E-02  0.1439E-01  0.0000E+00
     -8.493  0.1550E-02  0.1679E-01  0.0000E+00
     -8.468  0.1133E-02  0.1517E-01  0.0000E+00
     -8.443  0.7552E-03  0.1266E-01  0.0000E+00
     -8.418  0.4493E-03  0.9117E-02  0.0000E+00
     -8.393  0.1836E-03  0.5551E-02  0.0000E+00
     -8.368  0.0000E+00  0.0000E+00  0.0000E+00
     -8.343  0.0000E+00  0.0000E+00  0.0000E+00
     -8.319  0.0000E+00  0.0000E+00  0.0000E+00
     -8.294  0.0000E+00  0.0000E+00  0.0000E+00
     -8.269  0.0000E+00  0.0000E+00  0.0000E+00
     -8.244  0.0000E+00  0.0000E+00  0.0000E+00
     -8.219  0.0000E+00  0.0000E+00  0.0000E+00
     -8.194  0.1641E-01  0.4038E-01  0.0000E+00
     -8.170  0.1818E-01  0.4458E-01  0.0000E+00
     -8.145  0.1801E-01  0.4664E-01  0.0000E+00
     -8.120  0.1531E-01  0.4193E-01  0.0000E+00
     -8.095  0.1152E-01  0.3602E-01  0.0000E+00
     -8.070  0.9972E-02  0.3432E-01  0.0000E+00
     -8.045  0.2244E-01  0.4709E-01  0.0000E+00
     -8.020  0.2394E-01  0.4932E-01  0.0000E+00
     -7.996  0.2504E-01  0.5116E-01  0.0000E+00
     -7.971  0.2455E-01  0.5073E-01  0.0000E+00
     -7.946  0.2427E-01  0.4971E-01  0.0000E+00
     -7.921  0.2439E-01  0.4909E-01  0.0000E+00
     -7.896  0.2547E-01  0.5019E-01  0.0000E+00
     -7.871  0.2651E-01  0.5111E-01  0.0000E+00
     -7.847  0.2733E-01  0.5185E-01  0.0000E+00
     -7.822  0.2810E-01  0.5286E-01  0.0000E+00
     -7.797  0.2860E-01  0.5368E-01  0.0000E+00
     -7.772  0.2927E-01  0.5462E-01  0.0000E+00
     -7.747  0.2995E-01  0.5556E-01  0.0000E+00
     -7.722  0.3024E-01  0.5591E-01  0.0000E+00
     -7.697  0.3112E-01  0.5742E-01  0.0000E+00
     -7.673  0.3204E-01  0.5898E-01  0.0000E+00
     -7.648  0.3318E-01  0.6074E-01  0.0000E+00
     -7.623  0.3479E-01  0.6265E-01  0.0000E+00
     -7.598  0.4830E-01  0.9564E-01  0.0000E+00
     -7.573  0.6575E-01  0.1269E+00  0.0000E+00
     -7.548  0.6550E-01  0.1370E+00  0.0000E+00
     -7.524  0.5818E-01  0.1469E+00  0.0000E+00
     -7.499  0.5218E-01  0.1193E+00  0.0000E+00
     -7.474  0.5142E-01  0.1020E+00  0.0000E+00
     -7.449  0.5211E-01  0.9910E-01  0.0000E+00
     -7.424  0.5767E-01  0.1112E+00  0.0000E+00
     -7.399  0.6886E-01  0.1477E+00  0.0000E+00
     -7.374  0.6889E-01  0.1237E+00  0.0000E+00
     -7.350  0.8895E-01  0.1535E+00  0.0000E+00
     -7.325  0.8093E-01  0.1611E+00  0.0000E+00
     -7.300  0.6417E-01  0.1299E+00  0.0000E+00
     -7.275  0.6600E-01  0.1232E+00  0.0000E+00
     -7.250  0.6546E-01  0.1209E+00  0.0000E+00
     -7.225  0.6175E-01  0.1170E+00  0.0000E+00
     -7.201  0.6071E-01  0.1180E+00  0.0000E+00
     -7.176  0.6248E-01  0.1184E+00  0.0000E+00
     -7.151  0.6758E-01  0.1384E+00  0.0000E+00
     -7.126  0.8039E-01  0.1185E+00  0.0000E+00
     -7.101  0.5635E-01  0.9020E-01  0.0000E+00
     -7.076  0.6886E-01  0.1046E+00  0.0000E+00
     -7.051  0.4951E-01  0.9110E-01  0.0000E+00
     -7.027  0.3718E-01  0.9626E-01  0.0000E+00
     -7.002  0.4131E-01  0.1159E+00  0.0000E+00
     -6.977  0.4562E-01  0.1298E+00  0.0000E+00
     -6.952  0.4760E-01  0.1094E+00  0.0000E+00
     -6.927  0.4648E-01  0.8910E-01  0.0000E+00
     -6.902  0.3505E-01  0.7377E-01  0.0000E+00
     -6.878  0.2307E-01  0.6246E-01  0.0000E+00
     -6.853  0.1444E-01  0.4773E-01  0.0000E+00
     -6.828  0.7680E-02  0.1849E-01  0.0000E+00
     -6.803  0.7136E-02  0.1990E-01  0.0000E+00
     -6.778  0.7324E-02  0.2407E-01  0.0000E+00
     -6.753  0.1088E-01  0.3613E-01  0.0000E+00
     -6.728  0.1177E-01  0.3529E-01  0.0000E+00
     -6.704  0.1304E-01  0.3550E-01  0.0000E+00
     -6.679  0.1523E-01  0.3704E-01  0.0000E+00
     -6.654  0.2122E-01  0.4276E-01  0.0000E+00
     -6.629  0.1629E-01  0.3547E-01  0.0000E+00
     -6.604  0.1501E-01  0.3335E-01  0.0000E+00
     -6.579  0.2102E-01  0.6321E-01  0.0000E+00
     -6.555  0.2794E-01  0.7156E-01  0.0000E+00
     -6.530  0.3882E-01  0.8491E-01  0.0000E+00
     -6.505  0.4271E-01  0.9716E-01  0.0000E+00
     -6.480  0.5676E-01  0.1383E+00  0.0000E+00
     -6.455  0.7033E-01  0.1850E+00  0.0000E+00
     -6.430  0.6338E-01  0.1611E+00  0.0000E+00
     -6.405  0.6599E-01  0.1625E+00  0.0000E+00
     -6.381  0.7483E-01  0.1653E+00  0.0000E+00
     -6.356  0.9300E-01  0.1766E+00  0.0000E+00
     -6.331  0.1287E+00  0.2069E+00  0.0000E+00
     -6.306  0.1252E+00  0.2247E+00  0.0000E+00
     -6.281  0.8898E-01  0.2123E+00  0.0000E+00
     -6.256  0.8026E-01  0.2488E+00  0.0000E+00
     -6.232  0.1059E+00  0.3882E+00  0.0000E+00
     -6.207  0.8137E-01  0.3023E+00  0.0000E+00
     -6.182  0.7015E-01  0.2644E+00  0.0000E+00
     -6.157  0.6926E-01  0.3068E+00  0.0000E+00
     -6.132  0.6534E-01  0.2634E+00  0.0000E+00
     -6.107  0.5670E-01  0.2086E+00  0.0000E+00
     -6.082  0.4242E-01  0.1738E+00  0.0000E+00
     -6.058  0.1995E-01  0.1345E+00  0.0000E+00
     -6.033  0.1538E-01  0.1014E+00  0.0000E+00
     -6.008  0.1402E-01  0.9395E-01  0.0000E+00
     -5.983  0.1293E-01  0.8815E-01  0.0000E+00
     -5.958  0.1209E-01  0.8481E-01  0.0000E+00
     -5.933  0.1124E-01  0.8104E-01  0.0000E+00
     -5.909  0.1089E-01  0.7924E-01  0.0000E+00
     -5.884  0.1538E-01  0.9707E-01  0.0000E+00
     -5.859  0.2058E-01  0.1171E+00  0.0000E+00
     -5.834  0.1908E-01  0.1179E+00  0.0000E+00
     -5.809  0.1599E-01  0.1075E+00  0.0000E+00
     -5.784  0.2103E-01  0.1201E+00  0.0000E+00
     -5.759  0.1922E-01  0.1199E+00  0.0000E+00
     -5.735  0.1972E-01  0.1235E+00  0.0000E+00
     -5.710  0.2318E-01  0.1471E+00  0.0000E+00
     -5.685  0.1926E-01  0.1091E+00  0.0000E+00
     -5.660  0.1889E-01  0.1118E+00  0.0000E+00
     -5.635  0.1929E-01  0.1228E+00  0.0000E+00
     -5.610  0.2036E-01  0.1401E+00  0.0000E+00
     -5.585  0.2565E-01  0.1634E+00  0.0000E+00
     -5.561  0.2916E-01  0.1969E+00  0.0000E+00
     -5.536  0.3045E-01  0.2191E+00  0.0000E+00
     -5.511  0.3102E-01  0.1906E+00  0.0000E+00
     -5.486  0.3274E-01  0.1965E+00  0.0000E+00
     -5.461  0.3463E-01  0.2189E+00  0.0000E+00
     -5.436  0.4236E-01  0.2885E+00  0.0000E+00
     -5.412  0.4949E-01  0.3580E+00  0.0000E+00
     -5.387  0.4226E-01  0.3026E+00  0.0000E+00
     -5.362  0.4275E-01  0.3134E+00  0.0000E+00
     -5.337  0.4169E-01  0.3182E+00  0.0000E+00
     -5.312  0.4158E-01  0.3157E+00  0.0000E+00
     -5.287  0.4598E-01  0.3101E+00  0.0000E+00
     -5.262  0.4471E-01  0.2664E+00  0.0000E+00
     -5.238  0.7123E-01  0.3308E+00  0.0000E+00
     -5.213  0.4948E-01  0.2710E+00  0.0000E+00
     -5.188  0.4489E-01  0.2554E+00  0.0000E+00
     -5.163  0.3989E-01  0.2388E+00  0.0000E+00
     -5.138  0.3189E-01  0.2073E+00  0.0000E+00
     -5.113  0.2570E-01  0.1896E+00  0.0000E+00
     -5.089  0.1653E-01  0.1578E+00  0.0000E+00
     -5.064  0.1401E-01  0.1494E+00  0.0000E+00
     -5.039  0.1423E-01  0.1509E+00  0.0000E+00
     -5.014  0.1436E-01  0.1557E+00  0.0000E+00
     -4.989  0.1414E-01  0.1552E+00  0.0000E+00
     -4.964  0.1470E-01  0.1587E+00  0.0000E+00
     -4.939  0.1462E-01  0.1579E+00  0.0000E+00
     -4.915  0.1413E-01  0.1552E+00  0.0000E+00
     -4.890  0.1417E-01  0.1543E+00  0.0000E+00
     -4.865  0.1448E-01  0.1601E+00  0.0000E+00
     -4.840  0.2603E-01  0.2272E+00  0.0000E+00
     -4.815  0.3481E-01  0.2693E+00  0.0000E+00
     -4.790  0.3588E-01  0.2295E+00  0.0000E+00
     -4.766  0.5185E-01  0.2712E+00  0.0000E+00
     -4.741  0.6766E-01  0.2945E+00  0.0000E+00
     -4.716  0.6936E-01  0.3504E+00  0.0000E+00
     -4.691  0.6048E-01  0.3020E+00  0.0000E+00
     -4.666  0.5742E-01  0.2898E+00  0.0000E+00
     -4.641  0.6100E-01  0.2886E+00  0.0000E+00
     -4.616  0.5916E-01  0.2948E+00  0.0000E+00
     -4.592  0.6033E-01  0.3193E+00  0.0000E+00
     -4.567  0.5727E-01  0.3140E+00  0.0000E+00
     -4.542  0.5042E-01  0.3140E+00  0.0000E+00
     -4.517  0.4943E-01  0.3699E+00  0.0000E+00
     -4.492  0.4067E-01  0.2608E+00  0.0000E+00
     -4.467  0.3511E-01  0.2215E+00  0.0000E+00
     -4.443  0.3803E-01  0.2256E+00  0.0000E+00
     -4.418  0.3739E-01  0.2337E+00  0.0000E+00
     -4.393  0.3518E-01  0.2309E+00  0.0000E+00
     -4.368  0.1799E-01  0.2186E+00  0.0000E+00
     -4.343  0.1894E-01  0.2310E+00  0.0000E+00
     -4.318  0.1025E-01  0.1549E+00  0.0000E+00
     -4.293  0.1009E-01  0.1566E+00  0.0000E+00
     -4.269  0.9967E-02  0.1585E+00  0.0000E+00
     -4.244  0.1029E-01  0.1685E+00  0.0000E+00
     -4.219  0.1019E-01  0.1729E+00  0.0000E+00
     -4.194  0.9972E-02  0.1757E+00  0.0000E+00
     -4.169  0.9675E-02  0.1756E+00  0.0000E+00
     -4.144  0.8902E-02  0.1665E+00  0.0000E+00
     -4.120  0.8754E-02  0.1656E+00  0.0000E+00
     -4.095  0.8787E-02  0.1677E+00  0.0000E+00
     -4.070  0.8807E-02  0.1705E+00  0.0000E+00
     -4.045  0.9028E-02  0.1745E+00  0.0000E+00
     -4.020  0.9650E-02  0.1840E+00  0.0000E+00
     -3.995  0.1024E-01  0.2089E+00  0.0000E+00
     -3.970  0.1127E-01  0.2589E+00  0.0000E+00
     -3.946  0.1291E-01  0.2934E+00  0.0000E+00
     -3.921  0.1103E-01  0.2907E+00  0.0000E+00
     -3.896  0.1069E-01  0.2830E+00  0.0000E+00
     -3.871  0.1158E-01  0.2992E+00  0.0000E+00
     -3.846  0.1846E-01  0.3895E+00  0.0000E+00
     -3.821  0.1760E-01  0.4159E+00  0.0000E+00
     -3.797  0.1603E-01  0.3956E+00  0.0000E+00
     -3.772  0.1308E-01  0.3117E+00  0.0000E+00
     -3.747  0.1203E-01  0.3051E+00  0.0000E+00
     -3.722  0.1104E-01  0.3038E+00  0.0000E+00
     -3.697  0.9920E-02  0.2758E+00  0.0000E+00
     -3.672  0.9593E-02  0.2391E+00  0.0000E+00
     -3.647  0.8374E-02  0.2209E+00  0.0000E+00
     -3.623  0.1114E-01  0.2789E+00  0.0000E+00
     -3.598  0.1318E-01  0.3532E+00  0.0000E+00
     -3.573  0.1356E-01  0.4047E+00  0.0000E+00
     -3.548  0.1090E-01  0.3553E+00  0.0000E+00
     -3.523  0.1103E-01  0.3767E+00  0.0000E+00
     -3.498  0.9095E-02  0.3014E+00  0.0000E+00
     -3.474  0.9597E-02  0.3118E+00  0.0000E+00
     -3.449  0.1038E-01  0.3502E+00  0.0000E+00
     -3.424  0.1192E-01  0.3687E+00  0.0000E+00
     -3.399  0.1194E-01  0.3698E+00  0.0000E+00
     -3.374  0.1200E-01  0.3562E+00  0.0000E+00
     -3.349  0.2122E-01  0.5264E+00  0.0000E+00
     -3.324  0.2863E-01  0.5866E+00  0.0000E+00
     -3.300  0.1824E-01  0.4300E+00  0.0000E+00
     -3.275  0.2195E-01  0.4793E+00  0.0000E+00
     -3.250  0.2460E-01  0.5038E+00  0.0000E+00
     -3.225  0.2767E-01  0.4387E+00  0.0000E+00
     -3.200  0.2740E-01  0.3747E+00  0.0000E+00
     -3.175  0.2287E-01  0.2966E+00  0.0000E+00
     -3.151  0.2415E-01  0.3302E+00  0.0000E+00
     -3.126  0.2077E-01  0.2828E+00  0.0000E+00
     -3.101  0.1951E-01  0.2733E+00  0.0000E+00
     -3.076  0.2308E-01  0.3142E+00  0.0000E+00
     -3.051  0.2646E-01  0.3521E+00  0.0000E+00
     -3.026  0.1232E-01  0.2318E+00  0.0000E+00
     -3.001  0.1059E-01  0.2268E+00  0.0000E+00
     -2.977  0.9872E-02  0.2485E+00  0.0000E+00
     -2.952  0.9149E-02  0.1988E+00  0.0000E+00
     -2.927  0.8843E-02  0.1997E+00  0.0000E+00
     -2.902  0.1436E-01  0.2926E+00  0.0000E+00
     -2.877  0.1117E-01  0.2451E+00  0.0000E+00
     -2.852  0.1065E-01  0.2469E+00  0.0000E+00
     -2.827  0.1299E-01  0.3167E+00  0.0000E+00
     -2.803  0.1092E-01  0.2772E+00  0.0000E+00
     -2.778  0.1144E-01  0.2916E+00  0.0000E+00
     -2.753  0.1084E-01  0.2842E+00  0.0000E+00
     -2.728  0.1296E-01  0.3461E+00  0.0000E+00
     -2.703  0.1233E-01  0.3291E+00  0.0000E+00
     -2.678  0.1465E-01  0.3717E+00  0.0000E+00
     -2.654  0.1334E-01  0.3695E+00  0.0000E+00
     -2.629  0.1263E-01  0.3562E+00  0.0000E+00
     -2.604  0.1290E-01  0.3765E+00  0.0000E+00
     -2.579  0.1650E-01  0.5000E+00  0.0000E+00
     -2.554  0.1509E-01  0.5608E+00  0.0000E+00
     -2.529  0.1093E-01  0.4787E+00  0.0000E+00
     -2.504  0.1062E-01  0.4978E+00  0.0000E+00
     -2.480  0.1082E-01  0.5340E+00  0.0000E+00
     -2.455  0.1144E-01  0.6358E+00  0.0000E+00
     -2.430  0.1205E-01  0.7094E+00  0.0000E+00
     -2.405  0.1092E-01  0.5734E+00  0.0000E+00
     -2.380  0.8445E-02  0.4698E+00  0.0000E+00
     -2.355  0.6661E-02  0.2833E+00  0.0000E+00
     -2.331  0.6220E-02  0.2841E+00  0.0000E+00
     -2.306  0.6552E-02  0.3224E+00  0.0000E+00
     -2.281  0.5683E-02  0.2731E+00  0.0000E+00
     -2.256  0.5346E-02  0.2788E+00  0.0000E+00
     -2.231  0.3927E-02  0.2377E+00  0.0000E+00
     -2.206  0.3357E-02  0.2263E+00  0.0000E+00
     -2.181  0.2147E-02  0.1827E+00  0.0000E+00
     -2.157  0.1868E-02  0.1962E+00  0.0000E+00
     -2.132  0.6209E-03  0.1172E+00  0.0000E+00
     -2.107  0.3301E-03  0.9294E-01  0.0000E+00
     -2.082  0.2802E-03  0.9145E-01  0.0000E+00
     -2.057  0.2289E-03  0.9852E-01  0.0000E+00
     -2.032  0.1630E-03  0.9107E-01  0.0000E+00
     -2.008  0.1271E-03  0.7811E-01  0.0000E+00
     -1.983  0.9472E-04  0.8420E-01  0.0000E+00
     -1.958  0.0000E+00  0.0000E+00  0.0000E+00
     -1.933  0.0000E+00  0.0000E+00  0.0000E+00
     -1.908  0.0000E+00  0.0000E+00  0.0000E+00
     -1.883  0.0000E+00  0.0000E+00  0.0000E+00
     -1.858  0.0000E+00  0.0000E+00  0.0000E+00
     -1.834  0.0000E+00  0.0000E+00  0.0000E+00
     -1.809  0.9978E-03  0.2203E-02  0.0000E+00
     -1.784  0.3168E-02  0.6984E-02  0.0000E+00
     -1.759  0.5354E-02  0.1179E-01  0.0000E+00
     -1.734  0.6554E-02  0.1470E-01  0.0000E+00
     -1.709  0.7715E-02  0.1756E-01  0.0000E+00
     -1.685  0.8873E-02  0.2046E-01  0.0000E+00
     -1.660  0.7951E-02  0.2065E-01  0.0000E+00
     -1.635  0.7835E-02  0.2292E-01  0.0000E+00
     -1.610  0.8313E-02  0.2647E-01  0.0000E+00
     -1.585  0.9028E-02  0.3097E-01  0.0000E+00
     -1.560  0.9622E-02  0.3557E-01  0.0000E+00
     -1.535  0.9414E-02  0.4050E-01  0.0000E+00
     -1.511  0.1983E-01  0.3321E+00  0.0000E+00
     -1.486  0.1779E-01  0.1381E+00  0.0000E+00
     -1.461  0.2107E-01  0.1814E+00  0.0000E+00
     -1.436  0.1903E-01  0.1558E+00  0.0000E+00
     -1.411  0.1946E-01  0.1511E+00  0.0000E+00
     -1.386  0.1907E-01  0.1496E+00  0.0000E+00
     -1.362  0.2016E-01  0.1402E+00  0.0000E+00
     -1.337  0.2086E-01  0.1299E+00  0.0000E+00
     -1.312  0.2177E-01  0.1240E+00  0.0000E+00
     -1.287  0.2089E-01  0.1146E+00  0.0000E+00
     -1.262  0.2135E-01  0.1055E+00  0.0000E+00
     -1.237  0.2082E-01  0.9903E-01  0.0000E+00
     -1.212  0.2070E-01  0.9713E-01  0.0000E+00
     -1.188  0.2104E-01  0.9804E-01  0.0000E+00
     -1.163  0.2130E-01  0.9800E-01  0.0000E+00
     -1.138  0.2192E-01  0.9963E-01  0.0000E+00
     -1.113  0.2268E-01  0.1009E+00  0.0000E+00
     -1.088  0.2303E-01  0.9851E-01  0.0000E+00
     -1.063  0.2356E-01  0.9953E-01  0.0000E+00
     -1.039  0.2906E-01  0.1275E+00  0.0000E+00
     -1.014  0.2908E-01  0.1250E+00  0.0000E+00
     -0.989  0.2307E-01  0.9368E-01  0.0000E+00
     -0.964  0.2194E-01  0.8896E-01  0.0000E+00
     -0.939  0.2163E-01  0.8750E-01  0.0000E+00
     -0.914  0.2184E-01  0.8721E-01  0.0000E+00
     -0.889  0.2204E-01  0.8684E-01  0.0000E+00
     -0.865  0.2209E-01  0.8572E-01  0.0000E+00
     -0.840  0.2226E-01  0.8748E-01  0.0000E+00
     -0.815  0.2287E-01  0.9002E-01  0.0000E+00
     -0.790  0.2358E-01  0.9150E-01  0.0000E+00
     -0.765  0.2455E-01  0.9356E-01  0.0000E+00
     -0.740  0.2783E-01  0.9923E-01  0.0000E+00
     -0.716  0.2784E-01  0.9271E-01  0.0000E+00
     -0.691  0.2767E-01  0.8839E-01  0.0000E+00
     -0.666  0.2810E-01  0.8446E-01  0.0000E+00
     -0.641  0.2844E-01  0.8324E-01  0.0000E+00
     -0.616  0.3107E-01  0.9366E-01  0.0000E+00
     -0.591  0.3488E-01  0.1105E+00  0.0000E+00
     -0.566  0.4105E-01  0.1151E+00  0.0000E+00
     -0.542  0.2884E-01  0.1007E+00  0.0000E+00
     -0.517  0.2752E-01  0.9372E-01  0.0000E+00
     -0.492  0.2528E-01  0.8644E-01  0.0000E+00
     -0.467  0.3196E-01  0.1117E+00  0.0000E+00
     -0.442  0.3464E-01  0.1231E+00  0.0000E+00
     -0.417  0.2797E-01  0.1050E+00  0.0000E+00
     -0.393  0.2620E-01  0.1024E+00  0.0000E+00
     -0.368  0.2387E-01  0.9817E-01  0.0000E+00
     -0.343  0.2381E-01  0.1096E+00  0.0000E+00
     -0.318  0.2492E-01  0.1231E+00  0.0000E+00
     -0.293  0.2066E-01  0.1018E+00  0.0000E+00
     -0.268  0.2183E-01  0.1080E+00  0.0000E+00
     -0.243  0.2204E-01  0.1132E+00  0.0000E+00
     -0.219  0.2129E-01  0.1147E+00  0.0000E+00
     -0.194  0.2072E-01  0.1145E+00  0.0000E+00
     -0.169  0.2598E-01  0.1386E+00  0.0000E+00
     -0.144  0.2185E-01  0.1229E+00  0.0000E+00
     -0.119  0.2481E-01  0.1335E+00  0.0000E+00
     -0.094  0.3989E-01  0.2448E+00  0.0000E+00
     -0.070  0.3274E-01  0.2043E+00  0.0000E+00
     -0.045  0.3920E-01  0.2150E+00  0.0000E+00
     -0.020  0.4272E-01  0.2219E+00  0.0000E+00
      0.005  0.5192E-01  0.3166E+00  0.0000E+00
      0.030  0.4438E-01  0.1872E+00  0.0000E+00
      0.055  0.3631E-01  0.1123E+00  0.0000E+00
      0.080  0.3314E-01  0.8678E-01  0.0000E+00
      0.104  0.2526E-01  0.6355E-01  0.0000E+00
      0.129  0.2582E-01  0.5977E-01  0.0000E+00
      0.154  0.2667E-01  0.5736E-01  0.0000E+00
      0.179  0.2256E-01  0.4150E-01  0.0000E+00
      0.204  0.1561E-01  0.2854E-01  0.0000E+00
      0.229  0.1488E-01  0.3247E-01  0.0000E+00
      0.254  0.3172E-01  0.8486E-01  0.0000E+00
      0.278  0.2811E-01  0.8413E-01  0.0000E+00
      0.303  0.3161E-01  0.8879E-01  0.0000E+00
      0.328  0.3422E-01  0.9111E-01  0.0000E+00
      0.353  0.3635E-01  0.9139E-01  0.0000E+00
      0.378  0.6116E-01  0.1351E+00  0.0000E+00
      0.403  0.5205E-01  0.1281E+00  0.0000E+00
      0.427  0.4713E-01  0.1156E+00  0.0000E+00
      0.452  0.3931E-01  0.1115E+00  0.0000E+00
      0.477  0.3760E-01  0.1034E+00  0.0000E+00
      0.502  0.3680E-01  0.9974E-01  0.0000E+00
      0.527  0.3496E-01  0.9609E-01  0.0000E+00
      0.552  0.3551E-01  0.9894E-01  0.0000E+00
      0.577  0.3605E-01  0.1032E+00  0.0000E+00
      0.601  0.4751E-01  0.1340E+00  0.0000E+00
      0.626  0.4453E-01  0.1300E+00  0.0000E+00
      0.651  0.4244E-01  0.1399E+00  0.0000E+00
      0.676  0.4006E-01  0.1438E+00  0.0000E+00
      0.701  0.3776E-01  0.1433E+00  0.0000E+00
      0.726  0.4311E-01  0.1589E+00  0.0000E+00
      0.750  0.4264E-01  0.1559E+00  0.0000E+00
      0.775  0.3911E-01  0.1464E+00  0.0000E+00
      0.800  0.3871E-01  0.1723E+00  0.0000E+00
      0.825  0.3746E-01  0.1612E+00  0.0000E+00
      0.850  0.4593E-01  0.1767E+00  0.0000E+00
      0.875  0.4249E-01  0.1644E+00  0.0000E+00
      0.900  0.4021E-01  0.1441E+00  0.0000E+00
      0.924  0.4417E-01  0.1588E+00  0.0000E+00
      0.949  0.4157E-01  0.1511E+00  0.0000E+00
      0.974  0.4489E-01  0.1706E+00  0.0000E+00
      0.999  0.4484E-01  0.1768E+00  0.0000E+00
      1.024  0.4256E-01  0.1730E+00  0.0000E+00
      1.049  0.4369E-01  0.1867E+00  0.0000E+00
      1.073  0.4688E-01  0.1998E+00  0.0000E+00
      1.098  0.4317E-01  0.2127E+00  0.0000E+00
      1.123  0.3820E-01  0.1906E+00  0.0000E+00
      1.148  0.3743E-01  0.1798E+00  0.0000E+00
      1.173  0.3917E-01  0.1942E+00  0.0000E+00
      1.198  0.4215E-01  0.2131E+00  0.0000E+00
      1.223  0.4377E-01  0.2301E+00  0.0000E+00
      1.247  0.4910E-01  0.3083E+00  0.0000E+00
      1.272  0.3483E-01  0.1884E+00  0.0000E+00
      1.297  0.2821E-01  0.1225E+00  0.0000E+00
      1.322  0.2161E-01  0.9929E-01  0.0000E+00
      1.347  0.1449E-01  0.9235E-01  0.0000E+00
      1.372  0.1378E-01  0.9483E-01  0.0000E+00
      1.396  0.1395E-01  0.9884E-01  0.0000E+00
      1.421  0.1482E-01  0.1099E+00  0.0000E+00
      1.446  0.1682E-01  0.1374E+00  0.0000E+00
      1.471  0.1651E-01  0.1357E+00  0.0000E+00
      1.496  0.1625E-01  0.1297E+00  0.0000E+00
      1.521  0.1586E-01  0.1226E+00  0.0000E+00
      1.546  0.1647E-01  0.1335E+00  0.0000E+00
      1.570  0.1197E-01  0.4991E-01  0.0000E+00
      1.595  0.9419E-02  0.3881E-01  0.0000E+00
      1.620  0.8986E-02  0.3390E-01  0.0000E+00
      1.645  0.8366E-02  0.3192E-01  0.0000E+00
      1.670  0.8438E-02  0.3156E-01  0.0000E+00
      1.695  0.1620E-01  0.3402E-01  0.0000E+00
      1.719  0.3087E-01  0.4109E-01  0.0000E+00
      1.744  0.2450E-01  0.4060E-01  0.0000E+00
      1.769  0.1934E-01  0.3398E-01  0.0000E+00
      1.794  0.1801E-01  0.3525E-01  0.0000E+00
      1.819  0.1776E-01  0.3979E-01  0.0000E+00
      1.844  0.2072E-01  0.4761E-01  0.0000E+00
      1.869  0.1295E-01  0.2508E-01  0.0000E+00
      1.893  0.6787E-02  0.1541E-01  0.0000E+00
      1.918  0.1525E-02  0.6468E-02  0.0000E+00
      1.943  0.1168E-02  0.5163E-02  0.0000E+00
      1.968  0.8286E-03  0.3816E-02  0.0000E+00
      1.993  0.5056E-03  0.2428E-02  0.0000E+00
      2.018  0.1993E-03  0.9985E-03  0.0000E+00
      2.042  0.0000E+00  0.0000E+00  0.0000E+00
      2.067  0.0000E+00  0.0000E+00  0.0000E+00
      2.092  0.0000E+00  0.0000E+00  0.0000E+00
      2.117  0.0000E+00  0.0000E+00  0.0000E+00
      2.142  0.0000E+00  0.0000E+00  0.0000E+00
      2.167  0.0000E+00  0.0000E+00  0.0000E+00
      2.192  0.0000E+00  0.0000E+00  0.0000E+00
      2.216  0.0000E+00  0.0000E+00  0.0000E+00
      2.241  0.0000E+00  0.0000E+00  0.0000E+00
      2.266  0.0000E+00  0.0000E+00  0.0000E+00
      2.291  0.0000E+00  0.0000E+00  0.0000E+00
      2.316  0.0000E+00  0.0000E+00  0.0000E+00
      2.341  0.0000E+00  0.0000E+00  0.0000E+00
      2.365  0.0000E+00  0.0000E+00  0.0000E+00
      2.390  0.0000E+00  0.0000E+00  0.0000E+00
      2.415  0.0000E+00  0.0000E+00  0.0000E+00
      2.440  0.0000E+00  0.0000E+00  0.0000E+00
      2.465  0.0000E+00  0.0000E+00  0.0000E+00
      2.490  0.0000E+00  0.0000E+00  0.0000E+00
      2.515  0.0000E+00  0.0000E+00  0.0000E+00
      2.539  0.0000E+00  0.0000E+00  0.0000E+00
      2.564  0.0000E+00  0.0000E+00  0.0000E+00
      2.589  0.0000E+00  0.0000E+00  0.0000E+00
      2.614  0.0000E+00  0.0000E+00  0.0000E+00
      2.639  0.0000E+00  0.0000E+00  0.0000E+00
      2.664  0.0000E+00  0.0000E+00  0.0000E+00
      2.688  0.0000E+00  0.0000E+00  0.0000E+00
      2.713  0.0000E+00  0.0000E+00  0.0000E+00
      2.738  0.0000E+00  0.0000E+00  0.0000E+00
      2.763  0.0000E+00  0.0000E+00  0.0000E+00
      2.788  0.0000E+00  0.0000E+00  0.0000E+00
      2.813  0.0000E+00  0.0000E+00  0.0000E+00
      2.838  0.0000E+00  0.0000E+00  0.0000E+00
      2.862  0.0000E+00  0.0000E+00  0.0000E+00
      2.887  0.0000E+00  0.0000E+00  0.0000E+00
      2.912  0.0000E+00  0.0000E+00  0.0000E+00
      2.937  0.0000E+00  0.0000E+00  0.0000E+00
      2.93695651    -16.91563261  800     -1.95165038      1.00000000
    -16.916  0.0000E+00  0.0000E+00  0.0000E+00
    -16.891  0.0000E+00  0.0000E+00  0.0000E+00
    -16.866  0.0000E+00  0.0000E+00  0.0000E+00
    -16.841  0.0000E+00  0.0000E+00  0.0000E+00
    -16.816  0.0000E+00  0.0000E+00  0.0000E+00
    -16.791  0.0000E+00  0.0000E+00  0.0000E+00
    -16.767  0.0000E+00  0.0000E+00  0.0000E+00
    -16.742  0.0000E+00  0.0000E+00  0.0000E+00
    -16.717  0.0000E+00  0.0000E+00  0.0000E+00
    -16.692  0.0000E+00  0.0000E+00  0.0000E+00
    -16.667  0.0000E+00  0.0000E+00  0.0000E+00
    -16.642  0.0000E+00  0.0000E+00  0.0000E+00
    -16.617  0.0000E+00  0.0000E+00  0.0000E+00
    -16.593  0.0000E+00  0.0000E+00  0.0000E+00
    -16.568  0.0000E+00  0.0000E+00  0.0000E+00
    -16.543  0.0000E+00  0.0000E+00  0.0000E+00
    -16.518  0.0000E+00  0.0000E+00  0.0000E+00
    -16.493  0.0000E+00  0.0000E+00  0.0000E+00
    -16.468  0.0000E+00  0.0000E+00  0.0000E+00
    -16.444  0.0000E+00  0.0000E+00  0.0000E+00
    -16.419  0.0000E+00  0.0000E+00  0.0000E+00
    -16.394  0.0000E+00  0.0000E+00  0.0000E+00
    -16.369  0.0000E+00  0.0000E+00  0.0000E+00
    -16.344  0.0000E+00  0.0000E+00  0.0000E+00
    -16.319  0.0000E+00  0.0000E+00  0.0000E+00
    -16.294  0.0000E+00  0.0000E+00  0.0000E+00
    -16.270  0.0000E+00  0.0000E+00  0.0000E+00
    -16.245  0.0000E+00  0.0000E+00  0.0000E+00
    -16.220  0.0000E+00  0.0000E+00  0.0000E+00
    -16.195  0.0000E+00  0.0000E+00  0.0000E+00
    -16.170  0.0000E+00  0.0000E+00  0.0000E+00
    -16.145  0.0000E+00  0.0000E+00  0.0000E+00
    -16.121  0.0000E+00  0.0000E+00  0.0000E+00
    -16.096  0.0000E+00  0.0000E+00  0.0000E+00
    -16.071  0.0000E+00  0.0000E+00  0.0000E+00
    -16.046  0.0000E+00  0.0000E+00  0.0000E+00
    -16.021  0.0000E+00  0.0000E+00  0.0000E+00
    -15.996  0.2557E+00  0.1516E-01  0.0000E+00
    -15.971  0.2219E+00  0.1340E-01  0.0000E+00
    -15.947  0.2523E+00  0.1543E-01  0.0000E+00
    -15.922  0.2494E+00  0.1552E-01  0.0000E+00
    -15.897  0.2659E+00  0.1676E-01  0.0000E+00
    -15.872  0.2892E+00  0.1844E-01  0.0000E+00
    -15.847  0.3346E+00  0.2147E-01  0.0000E+00
    -15.822  0.4283E+00  0.2755E-01  0.0000E+00
    -15.798  0.3149E+00  0.2103E-01  0.0000E+00
    -15.773  0.2887E+00  0.1969E-01  0.0000E+00
    -15.748  0.2384E+00  0.1685E-01  0.0000E+00
    -15.723  0.2307E+00  0.1658E-01  0.0000E+00
    -15.698  0.2140E+00  0.1578E-01  0.0000E+00
    -15.673  0.1995E+00  0.1508E-01  0.0000E+00
    -15.648  0.1804E+00  0.1409E-01  0.0000E+00
    -15.624  0.1765E+00  0.1400E-01  0.0000E+00
    -15.599  0.1726E+00  0.1391E-01  0.0000E+00
    -15.574  0.1683E+00  0.1380E-01  0.0000E+00
    -15.549  0.1591E+00  0.1340E-01  0.0000E+00
    -15.524  0.1469E+00  0.1280E-01  0.0000E+00
    -15.499  0.1440E+00  0.1276E-01  0.0000E+00
    -15.475  0.1414E+00  0.1273E-01  0.0000E+00
    -15.450  0.1388E+00  0.1270E-01  0.0000E+00
    -15.425  0.1361E+00  0.1265E-01  0.0000E+00
    -15.400  0.1328E+00  0.1258E-01  0.0000E+00
    -15.375  0.1264E+00  0.1231E-01  0.0000E+00
    -15.350  0.1226E+00  0.1222E-01  0.0000E+00
    -15.325  0.1202E+00  0.1220E-01  0.0000E+00
    -15.301  0.1183E+00  0.1220E-01  0.0000E+00
    -15.276  0.1165E+00  0.1220E-01  0.0000E+00
    -15.251  0.1146E+00  0.1220E-01  0.0000E+00
    -15.226  0.1126E+00  0.1218E-01  0.0000E+00
    -15.201  0.1100E+00  0.1213E-01  0.0000E+00
    -15.176  0.1068E+00  0.1205E-01  0.0000E+00
    -15.152  0.1065E+00  0.1212E-01  0.0000E+00
    -15.127  0.1491E+00  0.1758E-01  0.0000E+00
    -15.102  0.1177E+00  0.1383E-01  0.0000E+00
    -15.077  0.1014E+00  0.1193E-01  0.0000E+00
    -15.052  0.9216E-01  0.1088E-01  0.0000E+00
    -15.027  0.8656E-01  0.1026E-01  0.0000E+00
    -15.002  0.9151E-01  0.1091E-01  0.0000E+00
    -14.978  0.2062E-01  0.2477E-02  0.0000E+00
    -14.953  0.0000E+00  0.0000E+00  0.0000E+00
    -14.928  0.0000E+00  0.0000E+00  0.0000E+00
    -14.903  0.1169E+00  0.1712E-01  0.0000E+00
    -14.878  0.8162E-01  0.1203E-01  0.0000E+00
    -14.853  0.7691E-01  0.1141E-01  0.0000E+00
    -14.829  0.8184E-01  0.1219E-01  0.0000E+00
    -14.804  0.9456E-01  0.1409E-01  0.0000E+00
    -14.779  0.1038E+00  0.1548E-01  0.0000E+00
    -14.754  0.2587E+00  0.3743E-01  0.0000E+00
    -14.729  0.8167E-01  0.1268E-01  0.0000E+00
    -14.704  0.8126E-01  0.1273E-01  0.0000E+00
    -14.679  0.8086E-01  0.1278E-01  0.0000E+00
    -14.655  0.7990E-01  0.1291E-01  0.0000E+00
    -14.630  0.7877E-01  0.1305E-01  0.0000E+00
    -14.605  0.7785E-01  0.1316E-01  0.0000E+00
    -14.580  0.7696E-01  0.1326E-01  0.0000E+00
    -14.555  0.7604E-01  0.1336E-01  0.0000E+00
    -14.530  0.7505E-01  0.1346E-01  0.0000E+00
    -14.505  0.7356E-01  0.1363E-01  0.0000E+00
    -14.481  0.7300E-01  0.1367E-01  0.0000E+00
    -14.456  0.7244E-01  0.1370E-01  0.0000E+00
    -14.431  0.7188E-01  0.1374E-01  0.0000E+00
    -14.406  0.7122E-01  0.1402E-01  0.0000E+00
    -14.381  0.7051E-01  0.1430E-01  0.0000E+00
    -14.356  0.6980E-01  0.1450E-01  0.0000E+00
    -14.332  0.6907E-01  0.1469E-01  0.0000E+00
    -14.307  0.6832E-01  0.1488E-01  0.0000E+00
    -14.282  0.6755E-01  0.1512E-01  0.0000E+00
    -14.257  0.6672E-01  0.1540E-01  0.0000E+00
    -14.232  0.6588E-01  0.1541E-01  0.0000E+00
    -14.207  0.6505E-01  0.1542E-01  0.0000E+00
    -14.182  0.6487E-01  0.1599E-01  0.0000E+00
    -14.158  0.6461E-01  0.1655E-01  0.0000E+00
    -14.133  0.6411E-01  0.1695E-01  0.0000E+00
    -14.108  0.6352E-01  0.1731E-01  0.0000E+00
    -14.083  0.6291E-01  0.1768E-01  0.0000E+00
    -14.058  0.6242E-01  0.1818E-01  0.0000E+00
    -14.033  0.6180E-01  0.1863E-01  0.0000E+00
    -14.009  0.6130E-01  0.1914E-01  0.0000E+00
    -13.984  0.6241E-01  0.2074E-01  0.0000E+00
    -13.959  0.6227E-01  0.2159E-01  0.0000E+00
    -13.934  0.6182E-01  0.2230E-01  0.0000E+00
    -13.909  0.6123E-01  0.2297E-01  0.0000E+00
    -13.884  0.6357E-01  0.2555E-01  0.0000E+00
    -13.859  0.6948E-01  0.3061E-01  0.0000E+00
    -13.835  0.7009E-01  0.3252E-01  0.0000E+00
    -13.810  0.9457E-01  0.4967E-01  0.0000E+00
    -13.785  0.7255E-01  0.3828E-01  0.0000E+00
    -13.760  0.5883E-01  0.3155E-01  0.0000E+00
    -13.735  0.5153E-01  0.2880E-01  0.0000E+00
    -13.710  0.4555E-01  0.2652E-01  0.0000E+00
    -13.686  0.3835E-01  0.2344E-01  0.0000E+00
    -13.661  0.3453E-01  0.2258E-01  0.0000E+00
    -13.636  0.2169E-01  0.1526E-01  0.0000E+00
    -13.611  0.0000E+00  0.0000E+00  0.0000E+00
    -13.586  0.0000E+00  0.0000E+00  0.0000E+00
    -13.561  0.0000E+00  0.0000E+00  0.0000E+00
    -13.536  0.0000E+00  0.0000E+00  0.0000E+00
    -13.512  0.0000E+00  0.0000E+00  0.0000E+00
    -13.487  0.0000E+00  0.0000E+00  0.0000E+00
    -13.462  0.0000E+00  0.0000E+00  0.0000E+00
    -13.437  0.0000E+00  0.0000E+00  0.0000E+00
    -13.412  0.0000E+00  0.0000E+00  0.0000E+00
    -13.387  0.0000E+00  0.0000E+00  0.0000E+00
    -13.363  0.0000E+00  0.0000E+00  0.0000E+00
    -13.338  0.0000E+00  0.0000E+00  0.0000E+00
    -13.313  0.0000E+00  0.0000E+00  0.0000E+00
    -13.288  0.0000E+00  0.0000E+00  0.0000E+00
    -13.263  0.0000E+00  0.0000E+00  0.0000E+00
    -13.238  0.0000E+00  0.0000E+00  0.0000E+00
    -13.213  0.0000E+00  0.0000E+00  0.0000E+00
    -13.189  0.0000E+00  0.0000E+00  0.0000E+00
    -13.164  0.0000E+00  0.0000E+00  0.0000E+00
    -13.139  0.0000E+00  0.0000E+00  0.0000E+00
    -13.114  0.0000E+00  0.0000E+00  0.0000E+00
    -13.089  0.0000E+00  0.0000E+00  0.0000E+00
    -13.064  0.0000E+00  0.0000E+00  0.0000E+00
    -13.040  0.0000E+00  0.0000E+00  0.0000E+00
    -13.015  0.0000E+00  0.0000E+00  0.0000E+00
    -12.990  0.0000E+00  0.0000E+00  0.0000E+00
    -12.965  0.0000E+00  0.0000E+00  0.0000E+00
    -12.940  0.0000E+00  0.0000E+00  0.0000E+00
    -12.915  0.5533E-01  0.7948E-02  0.0000E+00
    -12.890  0.4043E-01  0.5554E-02  0.0000E+00
    -12.866  0.4919E-01  0.6576E-02  0.0000E+00
    -12.841  0.4833E-01  0.6140E-02  0.0000E+00
    -12.816  0.5028E-01  0.6154E-02  0.0000E+00
    -12.791  0.5282E-01  0.6168E-02  0.0000E+00
    -12.766  0.5625E-01  0.6307E-02  0.0000E+00
    -12.741  0.6039E-01  0.6587E-02  0.0000E+00
    -12.717  0.6205E-01  0.6320E-02  0.0000E+00
    -12.692  0.6556E-01  0.6280E-02  0.0000E+00
    -12.667  0.6917E-01  0.6354E-02  0.0000E+00
    -12.642  0.7328E-01  0.6458E-02  0.0000E+00
    -12.617  0.8010E-01  0.6517E-02  0.0000E+00
    -12.592  0.8579E-01  0.6617E-02  0.0000E+00
    -12.567  0.9095E-01  0.6591E-02  0.0000E+00
    -12.543  0.9980E-01  0.6645E-02  0.0000E+00
    -12.518  0.1119E+00  0.6742E-02  0.0000E+00
    -12.493  0.1220E+00  0.6819E-02  0.0000E+00
    -12.468  0.1318E+00  0.6899E-02  0.0000E+00
    -12.443  0.1765E+00  0.7653E-02  0.0000E+00
    -12.418  0.1892E+00  0.7244E-02  0.0000E+00
    -12.394  0.2764E+00  0.8139E-02  0.0000E+00
    -12.369  0.8511E+00  0.1532E-01  0.0000E+00
    -12.344  0.1489E+01  0.2129E-01  0.0000E+00
    -12.319  0.1613E+01  0.2223E-01  0.0000E+00
    -12.294  0.2025E+01  0.2696E-01  0.0000E+00
    -12.269  0.1481E+01  0.2206E-01  0.0000E+00
    -12.244  0.1252E+01  0.1987E-01  0.0000E+00
    -12.220  0.1271E+01  0.2069E-01  0.0000E+00
    -12.195  0.1516E+01  0.2363E-01  0.0000E+00
    -12.170  0.1802E+01  0.2756E-01  0.0000E+00
    -12.145  0.3594E+00  0.8106E-02  0.0000E+00
    -12.120  0.3154E+00  0.7991E-02  0.0000E+00
    -12.095  0.2920E+00  0.8981E-02  0.0000E+00
    -12.071  0.3099E+00  0.1046E-01  0.0000E+00
    -12.046  0.2493E+00  0.7117E-02  0.0000E+00
    -12.021  0.2785E+00  0.7058E-02  0.0000E+00
    -11.996  0.0000E+00  0.0000E+00  0.0000E+00
    -11.971  0.0000E+00  0.0000E+00  0.0000E+00
    -11.946  0.0000E+00  0.0000E+00  0.0000E+00
    -11.921  0.0000E+00  0.0000E+00  0.0000E+00
    -11.897  0.0000E+00  0.0000E+00  0.0000E+00
    -11.872  0.0000E+00  0.0000E+00  0.0000E+00
    -11.847  0.0000E+00  0.0000E+00  0.0000E+00
    -11.822  0.0000E+00  0.0000E+00  0.0000E+00
    -11.797  0.0000E+00  0.0000E+00  0.0000E+00
    -11.772  0.0000E+00  0.0000E+00  0.0000E+00
    -11.747  0.0000E+00  0.0000E+00  0.0000E+00
    -11.723  0.0000E+00  0.0000E+00  0.0000E+00
    -11.698  0.0000E+00  0.0000E+00  0.0000E+00
    -11.673  0.0000E+00  0.0000E+00  0.0000E+00
    -11.648  0.0000E+00  0.0000E+00  0.0000E+00
    -11.623  0.0000E+00  0.0000E+00  0.0000E+00
    -11.598  0.0000E+00  0.0000E+00  0.0000E+00
    -11.574  0.0000E+00  0.0000E+00  0.0000E+00
    -11.549  0.0000E+00  0.0000E+00  0.0000E+00
    -11.524  0.0000E+00  0.0000E+00  0.0000E+00
    -11.499  0.0000E+00  0.0000E+00  0.0000E+00
    -11.474  0.0000E+00  0.0000E+00  0.0000E+00
    -11.449  0.0000E+00  0.0000E+00  0.0000E+00
    -11.424  0.0000E+00  0.0000E+00  0.0000E+00
    -11.400  0.0000E+00  0.0000E+00  0.0000E+00
    -11.375  0.0000E+00  0.0000E+00  0.0000E+00
    -11.350  0.0000E+00  0.0000E+00  0.0000E+00
    -11.325  0.0000E+00  0.0000E+00  0.0000E+00
    -11.300  0.0000E+00  0.0000E+00  0.0000E+00
    -11.275  0.0000E+00  0.0000E+00  0.0000E+00
    -11.251  0.0000E+00  0.0000E+00  0.0000E+00
    -11.226  0.0000E+00  0.0000E+00  0.0000E+00
    -11.201  0.0000E+00  0.0000E+00  0.0000E+00
    -11.176  0.0000E+00  0.0000E+00  0.0000E+00
    -11.151  0.0000E+00  0.0000E+00  0.0000E+00
    -11.126  0.0000E+00  0.0000E+00  0.0000E+00
    -11.101  0.0000E+00  0.0000E+00  0.0000E+00
    -11.077  0.0000E+00  0.0000E+00  0.0000E+00
    -11.052  0.0000E+00  0.0000E+00  0.0000E+00
    -11.027  0.0000E+00  0.0000E+00  0.0000E+00
    -11.002  0.0000E+00  0.0000E+00  0.0000E+00
    -10.977  0.0000E+00  0.0000E+00  0.0000E+00
    -10.952  0.0000E+00  0.0000E+00  0.0000E+00
    -10.928  0.0000E+00  0.0000E+00  0.0000E+00
    -10.903  0.0000E+00  0.0000E+00  0.0000E+00
    -10.878  0.0000E+00  0.0000E+00  0.0000E+00
    -10.853  0.0000E+00  0.0000E+00  0.0000E+00
    -10.828  0.0000E+00  0.0000E+00  0.0000E+00
    -10.803  0.0000E+00  0.0000E+00  0.0000E+00
    -10.778  0.0000E+00  0.0000E+00  0.0000E+00
    -10.754  0.0000E+00  0.0000E+00  0.0000E+00
    -10.729  0.0000E+00  0.0000E+00  0.0000E+00
    -10.704  0.2251E-01  0.4463E-01  0.0000E+00
    -10.679  0.2896E-01  0.4078E-01  0.0000E+00
    -10.654  0.3760E-01  0.4201E-01  0.0000E+00
    -10.629  0.4570E-01  0.4394E-01  0.0000E+00
    -10.605  0.5291E-01  0.4409E-01  0.0000E+00
    -10.580  0.5933E-01  0.4493E-01  0.0000E+00
    -10.555  0.6501E-01  0.4613E-01  0.0000E+00
    -10.530  0.7112E-01  0.4812E-01  0.0000E+00
    -10.505  0.7481E-01  0.4900E-01  0.0000E+00
    -10.480  0.7790E-01  0.4985E-01  0.0000E+00
    -10.455  0.8104E-01  0.5112E-01  0.0000E+00
    -10.431  0.8627E-01  0.5340E-01  0.0000E+00
    -10.406  0.9596E-01  0.5739E-01  0.0000E+00
    -10.381  0.1340E+00  0.7005E-01  0.0000E+00
    -10.356  0.8741E-01  0.5787E-01  0.0000E+00
    -10.331  0.7479E-01  0.5505E-01  0.0000E+00
    -10.306  0.6571E-01  0.5381E-01  0.0000E+00
    -10.282  0.6258E-01  0.5713E-01  0.0000E+00
    -10.257  0.9650E-01  0.7044E-01  0.0000E+00
    -10.232  0.1333E+00  0.9015E-01  0.0000E+00
    -10.207  0.1086E+00  0.9102E-01  0.0000E+00
    -10.182  0.1105E+00  0.7926E-01  0.0000E+00
    -10.157  0.1180E+00  0.8047E-01  0.0000E+00
    -10.132  0.1255E+00  0.8393E-01  0.0000E+00
    -10.108  0.1285E+00  0.8584E-01  0.0000E+00
    -10.083  0.1396E+00  0.9398E-01  0.0000E+00
    -10.058  0.1558E+00  0.1073E+00  0.0000E+00
    -10.033  0.1974E+00  0.1400E+00  0.0000E+00
    -10.008  0.9499E-01  0.4050E-01  0.0000E+00
     -9.983  0.9202E-01  0.3763E-01  0.0000E+00
     -9.959  0.8934E-01  0.3541E-01  0.0000E+00
     -9.934  0.7636E-01  0.2768E-01  0.0000E+00
     -9.909  0.7625E-01  0.2726E-01  0.0000E+00
     -9.884  0.7615E-01  0.2685E-01  0.0000E+00
     -9.859  0.7597E-01  0.2641E-01  0.0000E+00
     -9.834  0.7564E-01  0.2589E-01  0.0000E+00
     -9.809  0.7520E-01  0.2534E-01  0.0000E+00
     -9.785  0.7447E-01  0.2467E-01  0.0000E+00
     -9.760  0.7349E-01  0.2394E-01  0.0000E+00
     -9.735  0.7243E-01  0.2307E-01  0.0000E+00
     -9.710  0.7075E-01  0.2213E-01  0.0000E+00
     -9.685  0.6949E-01  0.2144E-01  0.0000E+00
     -9.660  0.6954E-01  0.2123E-01  0.0000E+00
     -9.636  0.6953E-01  0.2100E-01  0.0000E+00
     -9.611  0.6946E-01  0.2075E-01  0.0000E+00
     -9.586  0.6938E-01  0.2051E-01  0.0000E+00
     -9.561  0.6924E-01  0.2025E-01  0.0000E+00
     -9.536  0.7041E-01  0.2032E-01  0.0000E+00
     -9.511  0.7098E-01  0.2022E-01  0.0000E+00
     -9.486  0.7117E-01  0.2001E-01  0.0000E+00
     -9.462  0.7131E-01  0.1979E-01  0.0000E+00
     -9.437  0.7116E-01  0.1948E-01  0.0000E+00
     -9.412  0.7075E-01  0.1907E-01  0.0000E+00
     -9.387  0.7036E-01  0.1866E-01  0.0000E+00
     -9.362  0.7406E-01  0.1951E-01  0.0000E+00
     -9.337  0.7592E-01  0.1979E-01  0.0000E+00
     -9.313  0.7779E-01  0.2006E-01  0.0000E+00
     -9.288  0.7863E-01  0.2000E-01  0.0000E+00
     -9.263  0.7917E-01  0.1984E-01  0.0000E+00
     -9.238  0.1009E+00  0.2568E-01  0.0000E+00
     -9.213  0.9838E-01  0.2446E-01  0.0000E+00
     -9.188  0.8823E-01  0.2115E-01  0.0000E+00
     -9.163  0.7879E-01  0.1804E-01  0.0000E+00
     -9.139  0.7553E-01  0.1679E-01  0.0000E+00
     -9.114  0.7390E-01  0.1603E-01  0.0000E+00
     -9.089  0.7228E-01  0.1524E-01  0.0000E+00
     -9.064  0.7014E-01  0.1420E-01  0.0000E+00
     -9.039  0.6780E-01  0.1328E-01  0.0000E+00
     -9.014  0.6613E-01  0.1265E-01  0.0000E+00
     -8.990  0.6474E-01  0.1210E-01  0.0000E+00
     -8.965  0.6376E-01  0.1168E-01  0.0000E+00
     -8.940  0.6277E-01  0.1124E-01  0.0000E+00
     -8.915  0.6176E-01  0.1075E-01  0.0000E+00
     -8.890  0.6067E-01  0.1012E-01  0.0000E+00
     -8.865  0.5945E-01  0.9650E-02  0.0000E+00
     -8.840  0.5826E-01  0.9180E-02  0.0000E+00
     -8.816  0.5772E-01  0.8809E-02  0.0000E+00
     -8.791  0.5718E-01  0.8438E-02  0.0000E+00
     -8.766  0.5717E-01  0.8054E-02  0.0000E+00
     -8.741  0.5761E-01  0.7588E-02  0.0000E+00
     -8.716  0.5631E-01  0.7112E-02  0.0000E+00
     -8.691  0.5450E-01  0.6623E-02  0.0000E+00
     -8.666  0.5310E-01  0.6275E-02  0.0000E+00
     -8.642  0.5169E-01  0.5931E-02  0.0000E+00
     -8.617  0.5087E-01  0.5589E-02  0.0000E+00
     -8.592  0.5021E-01  0.5247E-02  0.0000E+00
     -8.567  0.4997E-01  0.4803E-02  0.0000E+00
     -8.542  0.4873E-01  0.4499E-02  0.0000E+00
     -8.517  0.4974E-01  0.4289E-02  0.0000E+00
     -8.493  0.5836E-01  0.4452E-02  0.0000E+00
     -8.468  0.5294E-01  0.3741E-02  0.0000E+00
     -8.443  0.4433E-01  0.2922E-02  0.0000E+00
     -8.418  0.3197E-01  0.2004E-02  0.0000E+00
     -8.393  0.1951E-01  0.1123E-02  0.0000E+00
     -8.368  0.0000E+00  0.0000E+00  0.0000E+00
     -8.343  0.0000E+00  0.0000E+00  0.0000E+00
     -8.319  0.0000E+00  0.0000E+00  0.0000E+00
     -8.294  0.0000E+00  0.0000E+00  0.0000E+00
     -8.269  0.0000E+00  0.0000E+00  0.0000E+00
     -8.244  0.0000E+00  0.0000E+00  0.0000E+00
     -8.219  0.0000E+00  0.0000E+00  0.0000E+00
     -8.194  0.2848E-02  0.3321E-01  0.0000E+00
     -8.170  0.3670E-02  0.3661E-01  0.0000E+00
     -8.145  0.4164E-02  0.3821E-01  0.0000E+00
     -8.120  0.4210E-02  0.3435E-01  0.0000E+00
     -8.095  0.4117E-02  0.2937E-01  0.0000E+00
     -8.070  0.4192E-02  0.2779E-01  0.0000E+00
     -8.045  0.6135E-02  0.3981E-01  0.0000E+00
     -8.020  0.6763E-02  0.4183E-01  0.0000E+00
     -7.996  0.7395E-02  0.4347E-01  0.0000E+00
     -7.971  0.7879E-02  0.4333E-01  0.0000E+00
     -7.946  0.8345E-02  0.4284E-01  0.0000E+00
     -7.921  0.8737E-02  0.4242E-01  0.0000E+00
     -7.896  0.9280E-02  0.4358E-01  0.0000E+00
     -7.871  0.9828E-02  0.4467E-01  0.0000E+00
     -7.847  0.1045E-01  0.4569E-01  0.0000E+00
     -7.822  0.1107E-01  0.4706E-01  0.0000E+00
     -7.797  0.1174E-01  0.4823E-01  0.0000E+00
     -7.772  0.1238E-01  0.4943E-01  0.0000E+00
     -7.747  0.1301E-01  0.5061E-01  0.0000E+00
     -7.722  0.1364E-01  0.5156E-01  0.0000E+00
     -7.697  0.1438E-01  0.5405E-01  0.0000E+00
     -7.673  0.1514E-01  0.5650E-01  0.0000E+00
     -7.648  0.1610E-01  0.5942E-01  0.0000E+00
     -7.623  0.1717E-01  0.6318E-01  0.0000E+00
     -7.598  0.2662E-01  0.1717E+00  0.0000E+00
     -7.573  0.3653E-01  0.2752E+00  0.0000E+00
     -7.548  0.4058E-01  0.3021E+00  0.0000E+00
     -7.524  0.4425E-01  0.3273E+00  0.0000E+00
     -7.499  0.3891E-01  0.2530E+00  0.0000E+00
     -7.474  0.3595E-01  0.2037E+00  0.0000E+00
     -7.449  0.3591E-01  0.1794E+00  0.0000E+00
     -7.424  0.4370E-01  0.2147E+00  0.0000E+00
     -7.399  0.6339E-01  0.3262E+00  0.0000E+00
     -7.374  0.5111E-01  0.2447E+00  0.0000E+00
     -7.350  0.6808E-01  0.3207E+00  0.0000E+00
     -7.325  0.7213E-01  0.3148E+00  0.0000E+00
     -7.300  0.6036E-01  0.2597E+00  0.0000E+00
     -7.275  0.6064E-01  0.2600E+00  0.0000E+00
     -7.250  0.6253E-01  0.2623E+00  0.0000E+00
     -7.225  0.6274E-01  0.2600E+00  0.0000E+00
     -7.201  0.6684E-01  0.2779E+00  0.0000E+00
     -7.176  0.7073E-01  0.2810E+00  0.0000E+00
     -7.151  0.8267E-01  0.3091E+00  0.0000E+00
     -7.126  0.9149E-01  0.3129E+00  0.0000E+00
     -7.101  0.6548E-01  0.2034E+00  0.0000E+00
     -7.076  0.7401E-01  0.2376E+00  0.0000E+00
     -7.051  0.5693E-01  0.1656E+00  0.0000E+00
     -7.027  0.5593E-01  0.1561E+00  0.0000E+00
     -7.002  0.5809E-01  0.1609E+00  0.0000E+00
     -6.977  0.6287E-01  0.1655E+00  0.0000E+00
     -6.952  0.5651E-01  0.1500E+00  0.0000E+00
     -6.927  0.4821E-01  0.1420E+00  0.0000E+00
     -6.902  0.4083E-01  0.1350E+00  0.0000E+00
     -6.878  0.3442E-01  0.1110E+00  0.0000E+00
     -6.853  0.2407E-01  0.8297E-01  0.0000E+00
     -6.828  0.7706E-02  0.5794E-01  0.0000E+00
     -6.803  0.9363E-02  0.6154E-01  0.0000E+00
     -6.778  0.1803E-01  0.7572E-01  0.0000E+00
     -6.753  0.4169E-01  0.1189E+00  0.0000E+00
     -6.728  0.3499E-01  0.1156E+00  0.0000E+00
     -6.704  0.3173E-01  0.1169E+00  0.0000E+00
     -6.679  0.3205E-01  0.1237E+00  0.0000E+00
     -6.654  0.3771E-01  0.1461E+00  0.0000E+00
     -6.629  0.2885E-01  0.1212E+00  0.0000E+00
     -6.604  0.2671E-01  0.1150E+00  0.0000E+00
     -6.579  0.3173E-01  0.1241E+00  0.0000E+00
     -6.555  0.3384E-01  0.1396E+00  0.0000E+00
     -6.530  0.3924E-01  0.1652E+00  0.0000E+00
     -6.505  0.4288E-01  0.1767E+00  0.0000E+00
     -6.480  0.5343E-01  0.2050E+00  0.0000E+00
     -6.455  0.6633E-01  0.2686E+00  0.0000E+00
     -6.430  0.5377E-01  0.2263E+00  0.0000E+00
     -6.405  0.5011E-01  0.2257E+00  0.0000E+00
     -6.381  0.4592E-01  0.2341E+00  0.0000E+00
     -6.356  0.4270E-01  0.2519E+00  0.0000E+00
     -6.331  0.4345E-01  0.3010E+00  0.0000E+00
     -6.306  0.4461E-01  0.3094E+00  0.0000E+00
     -6.281  0.3863E-01  0.2592E+00  0.0000E+00
     -6.256  0.4077E-01  0.2756E+00  0.0000E+00
     -6.232  0.5528E-01  0.3691E+00  0.0000E+00
     -6.207  0.4235E-01  0.3089E+00  0.0000E+00
     -6.182  0.3733E-01  0.2925E+00  0.0000E+00
     -6.157  0.3510E-01  0.3085E+00  0.0000E+00
     -6.132  0.3245E-01  0.2937E+00  0.0000E+00
     -6.107  0.2549E-01  0.2351E+00  0.0000E+00
     -6.082  0.1882E-01  0.1930E+00  0.0000E+00
     -6.058  0.1130E-01  0.1338E+00  0.0000E+00
     -6.033  0.7961E-02  0.1145E+00  0.0000E+00
     -6.008  0.7306E-02  0.1089E+00  0.0000E+00
     -5.983  0.6836E-02  0.1049E+00  0.0000E+00
     -5.958  0.6549E-02  0.1023E+00  0.0000E+00
     -5.933  0.6192E-02  0.9894E-01  0.0000E+00
     -5.909  0.6083E-02  0.9839E-01  0.0000E+00
     -5.884  0.9417E-02  0.1272E+00  0.0000E+00
     -5.859  0.1336E-01  0.1566E+00  0.0000E+00
     -5.834  0.1265E-01  0.1614E+00  0.0000E+00
     -5.809  0.1173E-01  0.1472E+00  0.0000E+00
     -5.784  0.1716E-01  0.1874E+00  0.0000E+00
     -5.759  0.1515E-01  0.1672E+00  0.0000E+00
     -5.735  0.1584E-01  0.1720E+00  0.0000E+00
     -5.710  0.2204E-01  0.2083E+00  0.0000E+00
     -5.685  0.1954E-01  0.1448E+00  0.0000E+00
     -5.660  0.1959E-01  0.1482E+00  0.0000E+00
     -5.635  0.2248E-01  0.1586E+00  0.0000E+00
     -5.610  0.2651E-01  0.1794E+00  0.0000E+00
     -5.585  0.3471E-01  0.1889E+00  0.0000E+00
     -5.561  0.3785E-01  0.2238E+00  0.0000E+00
     -5.536  0.4508E-01  0.2161E+00  0.0000E+00
     -5.511  0.4430E-01  0.1588E+00  0.0000E+00
     -5.486  0.4712E-01  0.1449E+00  0.0000E+00
     -5.461  0.5063E-01  0.1615E+00  0.0000E+00
     -5.436  0.7082E-01  0.2117E+00  0.0000E+00
     -5.412  0.9457E-01  0.2800E+00  0.0000E+00
     -5.387  0.7131E-01  0.2601E+00  0.0000E+00
     -5.362  0.6470E-01  0.2423E+00  0.0000E+00
     -5.337  0.5594E-01  0.2271E+00  0.0000E+00
     -5.312  0.5021E-01  0.2169E+00  0.0000E+00
     -5.287  0.5359E-01  0.2261E+00  0.0000E+00
     -5.262  0.5590E-01  0.2059E+00  0.0000E+00
     -5.238  0.6135E-01  0.2309E+00  0.0000E+00
     -5.213  0.5534E-01  0.1996E+00  0.0000E+00
     -5.188  0.5347E-01  0.1966E+00  0.0000E+00
     -5.163  0.4786E-01  0.1924E+00  0.0000E+00
     -5.138  0.3578E-01  0.1807E+00  0.0000E+00
     -5.113  0.2889E-01  0.1853E+00  0.0000E+00
     -5.089  0.2264E-01  0.1564E+00  0.0000E+00
     -5.064  0.2155E-01  0.1489E+00  0.0000E+00
     -5.039  0.2228E-01  0.1570E+00  0.0000E+00
     -5.014  0.2375E-01  0.1891E+00  0.0000E+00
     -4.989  0.2408E-01  0.1873E+00  0.0000E+00
     -4.964  0.2447E-01  0.1925E+00  0.0000E+00
     -4.939  0.2428E-01  0.1914E+00  0.0000E+00
     -4.915  0.2418E-01  0.1933E+00  0.0000E+00
     -4.890  0.2478E-01  0.1932E+00  0.0000E+00
     -4.865  0.2620E-01  0.2040E+00  0.0000E+00
     -4.840  0.2984E-01  0.2424E+00  0.0000E+00
     -4.815  0.4422E-01  0.3214E+00  0.0000E+00
     -4.790  0.2843E-01  0.2313E+00  0.0000E+00
     -4.766  0.2955E-01  0.2600E+00  0.0000E+00
     -4.741  0.2984E-01  0.2846E+00  0.0000E+00
     -4.716  0.3430E-01  0.3400E+00  0.0000E+00
     -4.691  0.2866E-01  0.2884E+00  0.0000E+00
     -4.666  0.2743E-01  0.2716E+00  0.0000E+00
     -4.641  0.2681E-01  0.2689E+00  0.0000E+00
     -4.616  0.2808E-01  0.3001E+00  0.0000E+00
     -4.592  0.3103E-01  0.3422E+00  0.0000E+00
     -4.567  0.2976E-01  0.3235E+00  0.0000E+00
     -4.542  0.2896E-01  0.2851E+00  0.0000E+00
     -4.517  0.3035E-01  0.2766E+00  0.0000E+00
     -4.492  0.2710E-01  0.2388E+00  0.0000E+00
     -4.467  0.2528E-01  0.2121E+00  0.0000E+00
     -4.443  0.2478E-01  0.2181E+00  0.0000E+00
     -4.418  0.2614E-01  0.2257E+00  0.0000E+00
     -4.393  0.2568E-01  0.2224E+00  0.0000E+00
     -4.368  0.2410E-01  0.2154E+00  0.0000E+00
     -4.343  0.2462E-01  0.2238E+00  0.0000E+00
     -4.318  0.2135E-01  0.1770E+00  0.0000E+00
     -4.293  0.2205E-01  0.1801E+00  0.0000E+00
     -4.269  0.2268E-01  0.1824E+00  0.0000E+00
     -4.244  0.2538E-01  0.2015E+00  0.0000E+00
     -4.219  0.2644E-01  0.2066E+00  0.0000E+00
     -4.194  0.2719E-01  0.2110E+00  0.0000E+00
     -4.169  0.2708E-01  0.2094E+00  0.0000E+00
     -4.144  0.2536E-01  0.1851E+00  0.0000E+00
     -4.120  0.2550E-01  0.1794E+00  0.0000E+00
     -4.095  0.2588E-01  0.1736E+00  0.0000E+00
     -4.070  0.2591E-01  0.1670E+00  0.0000E+00
     -4.045  0.2555E-01  0.1626E+00  0.0000E+00
     -4.020  0.2662E-01  0.1697E+00  0.0000E+00
     -3.995  0.2815E-01  0.1759E+00  0.0000E+00
     -3.970  0.2846E-01  0.1919E+00  0.0000E+00
     -3.946  0.3040E-01  0.2065E+00  0.0000E+00
     -3.921  0.3624E-01  0.2481E+00  0.0000E+00
     -3.896  0.3685E-01  0.2450E+00  0.0000E+00
     -3.871  0.3796E-01  0.2506E+00  0.0000E+00
     -3.846  0.4562E-01  0.2956E+00  0.0000E+00
     -3.821  0.4561E-01  0.2960E+00  0.0000E+00
     -3.797  0.4245E-01  0.2785E+00  0.0000E+00
     -3.772  0.3898E-01  0.2596E+00  0.0000E+00
     -3.747  0.3848E-01  0.2517E+00  0.0000E+00
     -3.722  0.3820E-01  0.2403E+00  0.0000E+00
     -3.697  0.3916E-01  0.2236E+00  0.0000E+00
     -3.672  0.3419E-01  0.2052E+00  0.0000E+00
     -3.647  0.2873E-01  0.1895E+00  0.0000E+00
     -3.623  0.3318E-01  0.2313E+00  0.0000E+00
     -3.598  0.2813E-01  0.2570E+00  0.0000E+00
     -3.573  0.2844E-01  0.3039E+00  0.0000E+00
     -3.548  0.2574E-01  0.2741E+00  0.0000E+00
     -3.523  0.2803E-01  0.2806E+00  0.0000E+00
     -3.498  0.2315E-01  0.2374E+00  0.0000E+00
     -3.474  0.2312E-01  0.2432E+00  0.0000E+00
     -3.449  0.2338E-01  0.2580E+00  0.0000E+00
     -3.424  0.2560E-01  0.2859E+00  0.0000E+00
     -3.399  0.2620E-01  0.2883E+00  0.0000E+00
     -3.374  0.2836E-01  0.2961E+00  0.0000E+00
     -3.349  0.4925E-01  0.5159E+00  0.0000E+00
     -3.324  0.4576E-01  0.4982E+00  0.0000E+00
     -3.300  0.3470E-01  0.3651E+00  0.0000E+00
     -3.275  0.3558E-01  0.3835E+00  0.0000E+00
     -3.250  0.3701E-01  0.3814E+00  0.0000E+00
     -3.225  0.3431E-01  0.3364E+00  0.0000E+00
     -3.200  0.2767E-01  0.2894E+00  0.0000E+00
     -3.175  0.2221E-01  0.2323E+00  0.0000E+00
     -3.151  0.2404E-01  0.2599E+00  0.0000E+00
     -3.126  0.2152E-01  0.2274E+00  0.0000E+00
     -3.101  0.1982E-01  0.2141E+00  0.0000E+00
     -3.076  0.2284E-01  0.2260E+00  0.0000E+00
     -3.051  0.2546E-01  0.2329E+00  0.0000E+00
     -3.026  0.1152E-01  0.1754E+00  0.0000E+00
     -3.001  0.9822E-02  0.1697E+00  0.0000E+00
     -2.977  0.9824E-02  0.1856E+00  0.0000E+00
     -2.952  0.6444E-02  0.1370E+00  0.0000E+00
     -2.927  0.6025E-02  0.1357E+00  0.0000E+00
     -2.902  0.1194E-01  0.2409E+00  0.0000E+00
     -2.877  0.7981E-02  0.1886E+00  0.0000E+00
     -2.852  0.6952E-02  0.1873E+00  0.0000E+00
     -2.827  0.6925E-02  0.2427E+00  0.0000E+00
     -2.803  0.5946E-02  0.1984E+00  0.0000E+00
     -2.778  0.5620E-02  0.2051E+00  0.0000E+00
     -2.753  0.5803E-02  0.2039E+00  0.0000E+00
     -2.728  0.8121E-02  0.2535E+00  0.0000E+00
     -2.703  0.9352E-02  0.2436E+00  0.0000E+00
     -2.678  0.1217E-01  0.2887E+00  0.0000E+00
     -2.654  0.1282E-01  0.2585E+00  0.0000E+00
     -2.629  0.1250E-01  0.2508E+00  0.0000E+00
     -2.604  0.1380E-01  0.2587E+00  0.0000E+00
     -2.579  0.1764E-01  0.3018E+00  0.0000E+00
     -2.554  0.1836E-01  0.3183E+00  0.0000E+00
     -2.529  0.1234E-01  0.2615E+00  0.0000E+00
     -2.504  0.1164E-01  0.2700E+00  0.0000E+00
     -2.480  0.1173E-01  0.2855E+00  0.0000E+00
     -2.455  0.1249E-01  0.3245E+00  0.0000E+00
     -2.430  0.1216E-01  0.3635E+00  0.0000E+00
     -2.405  0.1161E-01  0.3043E+00  0.0000E+00
     -2.380  0.1393E-01  0.2739E+00  0.0000E+00
     -2.355  0.1297E-01  0.2122E+00  0.0000E+00
     -2.331  0.1308E-01  0.2204E+00  0.0000E+00
     -2.306  0.1362E-01  0.2494E+00  0.0000E+00
     -2.281  0.1360E-01  0.2093E+00  0.0000E+00
     -2.256  0.1630E-01  0.2297E+00  0.0000E+00
     -2.231  0.1282E-01  0.1861E+00  0.0000E+00
     -2.206  0.1255E-01  0.1766E+00  0.0000E+00
     -2.181  0.9161E-02  0.1310E+00  0.0000E+00
     -2.157  0.1092E-01  0.1484E+00  0.0000E+00
     -2.132  0.2446E-02  0.7046E-01  0.0000E+00
     -2.107  0.1875E-03  0.4830E-01  0.0000E+00
     -2.082  0.1397E-03  0.4821E-01  0.0000E+00
     -2.057  0.8151E-04  0.5324E-01  0.0000E+00
     -2.032  0.5913E-04  0.5010E-01  0.0000E+00
     -2.008  0.3735E-04  0.4360E-01  0.0000E+00
     -1.983  0.2159E-04  0.4818E-01  0.0000E+00
     -1.958  0.0000E+00  0.0000E+00  0.0000E+00
     -1.933  0.0000E+00  0.0000E+00  0.0000E+00
     -1.908  0.0000E+00  0.0000E+00  0.0000E+00
     -1.883  0.0000E+00  0.0000E+00  0.0000E+00
     -1.858  0.0000E+00  0.0000E+00  0.0000E+00
     -1.834  0.0000E+00  0.0000E+00  0.0000E+00
     -1.809  0.6984E-03  0.1351E-02  0.0000E+00
     -1.784  0.2215E-02  0.4288E-02  0.0000E+00
     -1.759  0.3737E-02  0.7243E-02  0.0000E+00
     -1.734  0.4547E-02  0.9216E-02  0.0000E+00
     -1.709  0.5322E-02  0.1116E-01  0.0000E+00
     -1.685  0.6089E-02  0.1312E-01  0.0000E+00
     -1.660  0.5451E-02  0.1422E-01  0.0000E+00
     -1.635  0.5360E-02  0.1676E-01  0.0000E+00
     -1.610  0.5674E-02  0.2012E-01  0.0000E+00
     -1.585  0.6169E-02  0.2432E-01  0.0000E+00
     -1.560  0.6590E-02  0.2882E-01  0.0000E+00
     -1.535  0.6533E-02  0.3553E-01  0.0000E+00
     -1.511  0.1472E-01  0.3893E+00  0.0000E+00
     -1.486  0.1257E-01  0.1475E+00  0.0000E+00
     -1.461  0.1542E-01  0.1803E+00  0.0000E+00
     -1.436  0.1386E-01  0.1548E+00  0.0000E+00
     -1.411  0.1400E-01  0.1514E+00  0.0000E+00
     -1.386  0.1564E-01  0.1422E+00  0.0000E+00
     -1.362  0.1618E-01  0.1346E+00  0.0000E+00
     -1.337  0.1645E-01  0.1260E+00  0.0000E+00
     -1.312  0.1686E-01  0.1209E+00  0.0000E+00
     -1.287  0.1604E-01  0.1130E+00  0.0000E+00
     -1.262  0.1620E-01  0.9811E-01  0.0000E+00
     -1.237  0.1580E-01  0.8955E-01  0.0000E+00
     -1.212  0.1574E-01  0.8716E-01  0.0000E+00
     -1.188  0.1594E-01  0.8747E-01  0.0000E+00
     -1.163  0.1600E-01  0.8834E-01  0.0000E+00
     -1.138  0.1636E-01  0.9095E-01  0.0000E+00
     -1.113  0.1671E-01  0.9376E-01  0.0000E+00
     -1.088  0.1684E-01  0.9413E-01  0.0000E+00
     -1.063  0.1714E-01  0.9694E-01  0.0000E+00
     -1.039  0.2166E-01  0.1380E+00  0.0000E+00
     -1.014  0.2185E-01  0.1354E+00  0.0000E+00
     -0.989  0.1580E-01  0.7986E-01  0.0000E+00
     -0.964  0.1468E-01  0.7378E-01  0.0000E+00
     -0.939  0.1425E-01  0.7099E-01  0.0000E+00
     -0.914  0.1400E-01  0.7061E-01  0.0000E+00
     -0.889  0.1369E-01  0.7094E-01  0.0000E+00
     -0.865  0.1323E-01  0.7084E-01  0.0000E+00
     -0.840  0.1303E-01  0.7357E-01  0.0000E+00
     -0.815  0.1322E-01  0.7916E-01  0.0000E+00
     -0.790  0.1339E-01  0.8595E-01  0.0000E+00
     -0.765  0.1331E-01  0.9279E-01  0.0000E+00
     -0.740  0.1389E-01  0.1213E+00  0.0000E+00
     -0.716  0.1344E-01  0.1312E+00  0.0000E+00
     -0.691  0.1249E-01  0.1262E+00  0.0000E+00
     -0.666  0.1187E-01  0.1259E+00  0.0000E+00
     -0.641  0.1163E-01  0.1283E+00  0.0000E+00
     -0.616  0.1295E-01  0.1450E+00  0.0000E+00
     -0.591  0.1522E-01  0.1757E+00  0.0000E+00
     -0.566  0.1898E-01  0.2735E+00  0.0000E+00
     -0.542  0.1386E-01  0.1000E+00  0.0000E+00
     -0.517  0.1399E-01  0.9558E-01  0.0000E+00
     -0.492  0.1412E-01  0.8903E-01  0.0000E+00
     -0.467  0.1776E-01  0.1195E+00  0.0000E+00
     -0.442  0.2014E-01  0.1412E+00  0.0000E+00
     -0.417  0.1874E-01  0.1254E+00  0.0000E+00
     -0.393  0.1860E-01  0.1217E+00  0.0000E+00
     -0.368  0.1882E-01  0.1221E+00  0.0000E+00
     -0.343  0.2090E-01  0.1313E+00  0.0000E+00
     -0.318  0.2834E-01  0.1791E+00  0.0000E+00
     -0.293  0.2300E-01  0.1377E+00  0.0000E+00
     -0.268  0.2272E-01  0.1379E+00  0.0000E+00
     -0.243  0.2270E-01  0.1400E+00  0.0000E+00
     -0.219  0.2907E-01  0.1518E+00  0.0000E+00
     -0.194  0.4056E-01  0.1698E+00  0.0000E+00
     -0.169  0.4624E-01  0.1911E+00  0.0000E+00
     -0.144  0.4201E-01  0.1689E+00  0.0000E+00
     -0.119  0.4400E-01  0.1622E+00  0.0000E+00
     -0.094  0.9581E-01  0.2825E+00  0.0000E+00
     -0.070  0.7157E-01  0.2208E+00  0.0000E+00
     -0.045  0.7633E-01  0.2207E+00  0.0000E+00
     -0.020  0.8199E-01  0.2232E+00  0.0000E+00
      0.005  0.1070E+00  0.2989E+00  0.0000E+00
      0.030  0.7560E-01  0.2064E+00  0.0000E+00
      0.055  0.5198E-01  0.1667E+00  0.0000E+00
      0.080  0.4346E-01  0.1521E+00  0.0000E+00
      0.104  0.2943E-01  0.1320E+00  0.0000E+00
      0.129  0.2738E-01  0.1360E+00  0.0000E+00
      0.154  0.2586E-01  0.1429E+00  0.0000E+00
      0.179  0.2206E-01  0.1231E+00  0.0000E+00
      0.204  0.1718E-01  0.8427E-01  0.0000E+00
      0.229  0.1762E-01  0.8058E-01  0.0000E+00
      0.254  0.4036E-01  0.1393E+00  0.0000E+00
      0.278  0.3323E-01  0.1240E+00  0.0000E+00
      0.303  0.3202E-01  0.1232E+00  0.0000E+00
      0.328  0.2634E-01  0.1240E+00  0.0000E+00
      0.353  0.2599E-01  0.1253E+00  0.0000E+00
      0.378  0.3599E-01  0.1771E+00  0.0000E+00
      0.403  0.4965E-01  0.1980E+00  0.0000E+00
      0.427  0.4455E-01  0.1786E+00  0.0000E+00
      0.452  0.4063E-01  0.1660E+00  0.0000E+00
      0.477  0.3612E-01  0.1460E+00  0.0000E+00
      0.502  0.3307E-01  0.1280E+00  0.0000E+00
      0.527  0.2551E-01  0.1049E+00  0.0000E+00
      0.552  0.2282E-01  0.9422E-01  0.0000E+00
      0.577  0.2065E-01  0.8575E-01  0.0000E+00
      0.601  0.2555E-01  0.1107E+00  0.0000E+00
      0.626  0.2442E-01  0.1137E+00  0.0000E+00
      0.651  0.2523E-01  0.1221E+00  0.0000E+00
      0.676  0.2757E-01  0.1278E+00  0.0000E+00
      0.701  0.2997E-01  0.1322E+00  0.0000E+00
      0.726  0.3862E-01  0.1715E+00  0.0000E+00
      0.750  0.3622E-01  0.1678E+00  0.0000E+00
      0.775  0.3065E-01  0.1338E+00  0.0000E+00
      0.800  0.3553E-01  0.1525E+00  0.0000E+00
      0.825  0.3604E-01  0.1666E+00  0.0000E+00
      0.850  0.4034E-01  0.1867E+00  0.0000E+00
      0.875  0.4154E-01  0.1910E+00  0.0000E+00
      0.900  0.3786E-01  0.1597E+00  0.0000E+00
      0.924  0.4027E-01  0.1663E+00  0.0000E+00
      0.949  0.3952E-01  0.1499E+00  0.0000E+00
      0.974  0.4496E-01  0.1573E+00  0.0000E+00
      0.999  0.4653E-01  0.1548E+00  0.0000E+00
      1.024  0.4548E-01  0.1493E+00  0.0000E+00
      1.049  0.4659E-01  0.1556E+00  0.0000E+00
      1.073  0.4538E-01  0.1641E+00  0.0000E+00
      1.098  0.4558E-01  0.1618E+00  0.0000E+00
      1.123  0.4378E-01  0.1427E+00  0.0000E+00
      1.148  0.4286E-01  0.1337E+00  0.0000E+00
      1.173  0.4440E-01  0.1367E+00  0.0000E+00
      1.198  0.4680E-01  0.1425E+00  0.0000E+00
      1.223  0.5236E-01  0.1507E+00  0.0000E+00
      1.247  0.6486E-01  0.1823E+00  0.0000E+00
      1.272  0.5342E-01  0.1310E+00  0.0000E+00
      1.297  0.3373E-01  0.1179E+00  0.0000E+00
      1.322  0.2305E-01  0.8993E-01  0.0000E+00
      1.347  0.1931E-01  0.5341E-01  0.0000E+00
      1.372  0.2076E-01  0.5351E-01  0.0000E+00
      1.396  0.2279E-01  0.5788E-01  0.0000E+00
      1.421  0.2602E-01  0.6685E-01  0.0000E+00
      1.446  0.3282E-01  0.8151E-01  0.0000E+00
      1.471  0.3339E-01  0.9110E-01  0.0000E+00
      1.496  0.3299E-01  0.9595E-01  0.0000E+00
      1.521  0.3231E-01  0.9962E-01  0.0000E+00
      1.546  0.3504E-01  0.1081E+00  0.0000E+00
      1.570  0.1900E-01  0.7948E-01  0.0000E+00
      1.595  0.1590E-01  0.6727E-01  0.0000E+00
      1.620  0.1257E-01  0.5616E-01  0.0000E+00
      1.645  0.1117E-01  0.5184E-01  0.0000E+00
      1.670  0.1064E-01  0.5113E-01  0.0000E+00
      1.695  0.1067E-01  0.7125E-01  0.0000E+00
      1.719  0.1313E-01  0.1154E+00  0.0000E+00
      1.744  0.1169E-01  0.9241E-01  0.0000E+00
      1.769  0.8789E-02  0.6745E-01  0.0000E+00
      1.794  0.8228E-02  0.6345E-01  0.0000E+00
      1.819  0.9022E-02  0.6471E-01  0.0000E+00
      1.844  0.1133E-01  0.7548E-01  0.0000E+00
      1.869  0.5510E-02  0.4924E-01  0.0000E+00
      1.893  0.3089E-02  0.2724E-01  0.0000E+00
      1.918  0.1347E-02  0.1206E-01  0.0000E+00
      1.943  0.1070E-02  0.9499E-02  0.0000E+00
      1.968  0.7876E-03  0.6930E-02  0.0000E+00
      1.993  0.4988E-03  0.4353E-02  0.0000E+00
      2.018  0.2042E-03  0.1768E-02  0.0000E+00
      2.042  0.0000E+00  0.0000E+00  0.0000E+00
      2.067  0.0000E+00  0.0000E+00  0.0000E+00
      2.092  0.0000E+00  0.0000E+00  0.0000E+00
      2.117  0.0000E+00  0.0000E+00  0.0000E+00
      2.142  0.0000E+00  0.0000E+00  0.0000E+00
      2.167  0.0000E+00  0.0000E+00  0.0000E+00
      2.192  0.0000E+00  0.0000E+00  0.0000E+00
      2.216  0.0000E+00  0.0000E+00  0.0000E+00
      2.241  0.0000E+00  0.0000E+00  0.0000E+00
      2.266  0.0000E+00  0.0000E+00  0.0000E+00
      2.291  0.0000E+00  0.0000E+00  0.0000E+00
      2.316  0.0000E+00  0.0000E+00  0.0000E+00
      2.341  0.0000E+00  0.0000E+00  0.0000E+00
      2.365  0.0000E+00  0.0000E+00  0.0000E+00
      2.390  0.0000E+00  0.0000E+00  0.0000E+00
      2.415  0.0000E+00  0.0000E+00  0.0000E+00
      2.440  0.0000E+00  0.0000E+00  0.0000E+00
      2.465  0.0000E+00  0.0000E+00  0.0000E+00
      2.490  0.0000E+00  0.0000E+00  0.0000E+00
      2.515  0.0000E+00  0.0000E+00  0.0000E+00
      2.539  0.0000E+00  0.0000E+00  0.0000E+00
      2.564  0.0000E+00  0.0000E+00  0.0000E+00
      2.589  0.0000E+00  0.0000E+00  0.0000E+00
      2.614  0.0000E+00  0.0000E+00  0.0000E+00
      2.639  0.0000E+00  0.0000E+00  0.0000E+00
      2.664  0.0000E+00  0.0000E+00  0.0000E+00
      2.688  0.0000E+00  0.0000E+00  0.0000E+00
      2.713  0.0000E+00  0.0000E+00  0.0000E+00
      2.738  0.0000E+00  0.0000E+00  0.0000E+00
      2.763  0.0000E+00  0.0000E+00  0.0000E+00
      2.788  0.0000E+00  0.0000E+00  0.0000E+00
      2.813  0.0000E+00  0.0000E+00  0.0000E+00
      2.838  0.0000E+00  0.0000E+00  0.0000E+00
      2.862  0.0000E+00  0.0000E+00  0.0000E+00
      2.887  0.0000E+00  0.0000E+00  0.0000E+00
      2.912  0.0000E+00  0.0000E+00  0.0000E+00
      2.937  0.0000E+00  0.0000E+00  0.0000E+00
      2.93695651    -16.91563261  800     -1.95165038      1.00000000
    -16.916  0.0000E+00  0.0000E+00  0.0000E+00
    -16.891  0.0000E+00  0.0000E+00  0.0000E+00
    -16.866  0.0000E+00  0.0000E+00  0.0000E+00
    -16.841  0.0000E+00  0.0000E+00  0.0000E+00
    -16.816  0.0000E+00  0.0000E+00  0.0000E+00
    -16.791  0.0000E+00  0.0000E+00  0.0000E+00
    -16.767  0.0000E+00  0.0000E+00  0.0000E+00
    -16.742  0.0000E+00  0.0000E+00  0.0000E+00
    -16.717  0.0000E+00  0.0000E+00  0.0000E+00
    -16.692  0.0000E+00  0.0000E+00  0.0000E+00
    -16.667  0.0000E+00  0.0000E+00  0.0000E+00
    -16.642  0.0000E+00  0.0000E+00  0.0000E+00
    -16.617  0.0000E+00  0.0000E+00  0.0000E+00
    -16.593  0.0000E+00  0.0000E+00  0.0000E+00
    -16.568  0.0000E+00  0.0000E+00  0.0000E+00
    -16.543  0.0000E+00  0.0000E+00  0.0000E+00
    -16.518  0.0000E+00  0.0000E+00  0.0000E+00
    -16.493  0.0000E+00  0.0000E+00  0.0000E+00
    -16.468  0.0000E+00  0.0000E+00  0.0000E+00
    -16.444  0.0000E+00  0.0000E+00  0.0000E+00
    -16.419  0.0000E+00  0.0000E+00  0.0000E+00
    -16.394  0.0000E+00  0.0000E+00  0.0000E+00
    -16.369  0.0000E+00  0.0000E+00  0.0000E+00
    -16.344  0.0000E+00  0.0000E+00  0.0000E+00
    -16.319  0.0000E+00  0.0000E+00  0.0000E+00
    -16.294  0.0000E+00  0.0000E+00  0.0000E+00
    -16.270  0.0000E+00  0.0000E+00  0.0000E+00
    -16.245  0.0000E+00  0.0000E+00  0.0000E+00
    -16.220  0.0000E+00  0.0000E+00  0.0000E+00
    -16.195  0.0000E+00  0.0000E+00  0.0000E+00
    -16.170  0.0000E+00  0.0000E+00  0.0000E+00
    -16.145  0.0000E+00  0.0000E+00  0.0000E+00
    -16.121  0.0000E+00  0.0000E+00  0.0000E+00
    -16.096  0.0000E+00  0.0000E+00  0.0000E+00
    -16.071  0.0000E+00  0.0000E+00  0.0000E+00
    -16.046  0.0000E+00  0.0000E+00  0.0000E+00
    -16.021  0.0000E+00  0.0000E+00  0.0000E+00
    -15.996  0.7749E-01  0.7667E-02  0.0000E+00
    -15.971  0.6554E-01  0.6864E-02  0.0000E+00
    -15.947  0.7299E-01  0.7985E-02  0.0000E+00
    -15.922  0.6993E-01  0.8145E-02  0.0000E+00
    -15.897  0.7201E-01  0.8937E-02  0.0000E+00
    -15.872  0.7596E-01  0.9955E-02  0.0000E+00
    -15.847  0.8382E-01  0.1185E-01  0.0000E+00
    -15.822  0.9800E-01  0.1585E-01  0.0000E+00
    -15.798  0.7543E-01  0.1165E-01  0.0000E+00
    -15.773  0.6995E-01  0.1075E-01  0.0000E+00
    -15.748  0.6047E-01  0.8873E-02  0.0000E+00
    -15.723  0.5899E-01  0.8641E-02  0.0000E+00
    -15.698  0.5493E-01  0.8137E-02  0.0000E+00
    -15.673  0.5194E-01  0.7659E-02  0.0000E+00
    -15.648  0.4838E-01  0.6979E-02  0.0000E+00
    -15.624  0.4767E-01  0.6882E-02  0.0000E+00
    -15.599  0.4700E-01  0.6778E-02  0.0000E+00
    -15.574  0.4632E-01  0.6656E-02  0.0000E+00
    -15.549  0.4444E-01  0.6378E-02  0.0000E+00
    -15.524  0.4211E-01  0.5974E-02  0.0000E+00
    -15.499  0.4161E-01  0.5916E-02  0.0000E+00
    -15.475  0.4120E-01  0.5862E-02  0.0000E+00
    -15.450  0.4086E-01  0.5807E-02  0.0000E+00
    -15.425  0.4053E-01  0.5741E-02  0.0000E+00
    -15.400  0.4014E-01  0.5654E-02  0.0000E+00
    -15.375  0.3924E-01  0.5443E-02  0.0000E+00
    -15.350  0.3853E-01  0.5373E-02  0.0000E+00
    -15.325  0.3820E-01  0.5336E-02  0.0000E+00
    -15.301  0.3801E-01  0.5309E-02  0.0000E+00
    -15.276  0.3787E-01  0.5281E-02  0.0000E+00
    -15.251  0.3775E-01  0.5252E-02  0.0000E+00
    -15.226  0.3764E-01  0.5214E-02  0.0000E+00
    -15.201  0.3745E-01  0.5153E-02  0.0000E+00
    -15.176  0.3721E-01  0.5071E-02  0.0000E+00
    -15.152  0.3739E-01  0.5091E-02  0.0000E+00
    -15.127  0.5586E-01  0.7182E-02  0.0000E+00
    -15.102  0.4196E-01  0.5798E-02  0.0000E+00
    -15.077  0.3485E-01  0.5092E-02  0.0000E+00
    -15.052  0.3075E-01  0.4707E-02  0.0000E+00
    -15.027  0.2804E-01  0.4500E-02  0.0000E+00
    -15.002  0.2870E-01  0.4854E-02  0.0000E+00
    -14.978  0.6243E-02  0.1117E-02  0.0000E+00
    -14.953  0.0000E+00  0.0000E+00  0.0000E+00
    -14.928  0.0000E+00  0.0000E+00  0.0000E+00
    -14.903  0.6074E-01  0.6334E-02  0.0000E+00
    -14.878  0.4171E-01  0.4556E-02  0.0000E+00
    -14.853  0.3859E-01  0.4409E-02  0.0000E+00
    -14.829  0.4013E-01  0.4802E-02  0.0000E+00
    -14.804  0.4494E-01  0.5663E-02  0.0000E+00
    -14.779  0.4867E-01  0.6302E-02  0.0000E+00
    -14.754  0.1055E+00  0.1605E-01  0.0000E+00
    -14.729  0.4054E-01  0.5153E-02  0.0000E+00
    -14.704  0.4082E-01  0.5177E-02  0.0000E+00
    -14.679  0.4110E-01  0.5200E-02  0.0000E+00
    -14.655  0.4189E-01  0.5263E-02  0.0000E+00
    -14.630  0.4284E-01  0.5336E-02  0.0000E+00
    -14.605  0.4360E-01  0.5395E-02  0.0000E+00
    -14.580  0.4434E-01  0.5452E-02  0.0000E+00
    -14.555  0.4510E-01  0.5511E-02  0.0000E+00
    -14.530  0.4594E-01  0.5577E-02  0.0000E+00
    -14.505  0.4729E-01  0.5687E-02  0.0000E+00
    -14.481  0.4769E-01  0.5716E-02  0.0000E+00
    -14.456  0.4809E-01  0.5745E-02  0.0000E+00
    -14.431  0.4849E-01  0.5775E-02  0.0000E+00
    -14.406  0.5052E-01  0.5933E-02  0.0000E+00
    -14.381  0.5258E-01  0.6095E-02  0.0000E+00
    -14.356  0.5419E-01  0.6224E-02  0.0000E+00
    -14.332  0.5575E-01  0.6351E-02  0.0000E+00
    -14.307  0.5738E-01  0.6489E-02  0.0000E+00
    -14.282  0.5932E-01  0.6663E-02  0.0000E+00
    -14.257  0.6160E-01  0.6876E-02  0.0000E+00
    -14.232  0.6223E-01  0.6916E-02  0.0000E+00
    -14.207  0.6286E-01  0.6956E-02  0.0000E+00
    -14.182  0.6730E-01  0.7293E-02  0.0000E+00
    -14.158  0.7181E-01  0.7643E-02  0.0000E+00
    -14.133  0.7533E-01  0.7922E-02  0.0000E+00
    -14.108  0.7862E-01  0.8193E-02  0.0000E+00
    -14.083  0.8204E-01  0.8489E-02  0.0000E+00
    -14.058  0.8630E-01  0.8886E-02  0.0000E+00
    -14.033  0.9042E-01  0.9281E-02  0.0000E+00
    -14.009  0.9548E-01  0.9642E-02  0.0000E+00
    -13.984  0.1089E+00  0.1065E-01  0.0000E+00
    -13.959  0.1170E+00  0.1127E-01  0.0000E+00
    -13.934  0.1242E+00  0.1184E-01  0.0000E+00
    -13.909  0.1312E+00  0.1244E-01  0.0000E+00
    -13.884  0.1534E+00  0.1419E-01  0.0000E+00
    -13.859  0.1953E+00  0.1763E-01  0.0000E+00
    -13.835  0.2150E+00  0.1912E-01  0.0000E+00
    -13.810  0.3618E+00  0.2988E-01  0.0000E+00
    -13.785  0.2738E+00  0.2392E-01  0.0000E+00
    -13.760  0.2222E+00  0.2049E-01  0.0000E+00
    -13.735  0.2020E+00  0.1954E-01  0.0000E+00
    -13.710  0.1861E+00  0.1864E-01  0.0000E+00
    -13.686  0.1655E+00  0.1699E-01  0.0000E+00
    -13.661  0.1609E+00  0.1700E-01  0.0000E+00
    -13.636  0.1099E+00  0.1190E-01  0.0000E+00
    -13.611  0.0000E+00  0.0000E+00  0.0000E+00
    -13.586  0.0000E+00  0.0000E+00  0.0000E+00
    -13.561  0.0000E+00  0.0000E+00  0.0000E+00
    -13.536  0.0000E+00  0.0000E+00  0.0000E+00
    -13.512  0.0000E+00  0.0000E+00  0.0000E+00
    -13.487  0.0000E+00  0.0000E+00  0.0000E+00
    -13.462  0.0000E+00  0.0000E+00  0.0000E+00
    -13.437  0.0000E+00  0.0000E+00  0.0000E+00
    -13.412  0.0000E+00  0.0000E+00  0.0000E+00
    -13.387  0.0000E+00  0.0000E+00  0.0000E+00
    -13.363  0.0000E+00  0.0000E+00  0.0000E+00
    -13.338  0.0000E+00  0.0000E+00  0.0000E+00
    -13.313  0.0000E+00  0.0000E+00  0.0000E+00
    -13.288  0.0000E+00  0.0000E+00  0.0000E+00
    -13.263  0.0000E+00  0.0000E+00  0.0000E+00
    -13.238  0.0000E+00  0.0000E+00  0.0000E+00
    -13.213  0.0000E+00  0.0000E+00  0.0000E+00
    -13.189  0.0000E+00  0.0000E+00  0.0000E+00
    -13.164  0.0000E+00  0.0000E+00  0.0000E+00
    -13.139  0.0000E+00  0.0000E+00  0.0000E+00
    -13.114  0.0000E+00  0.0000E+00  0.0000E+00
    -13.089  0.0000E+00  0.0000E+00  0.0000E+00
    -13.064  0.0000E+00  0.0000E+00  0.0000E+00
    -13.040  0.0000E+00  0.0000E+00  0.0000E+00
    -13.015  0.0000E+00  0.0000E+00  0.0000E+00
    -12.990  0.0000E+00  0.0000E+00  0.0000E+00
    -12.965  0.0000E+00  0.0000E+00  0.0000E+00
    -12.940  0.0000E+00  0.0000E+00  0.0000E+00
    -12.915  0.2810E+00  0.4032E-02  0.0000E+00
    -12.890  0.1999E+00  0.2904E-02  0.0000E+00
    -12.866  0.2393E+00  0.3500E-02  0.0000E+00
    -12.841  0.2282E+00  0.3376E-02  0.0000E+00
    -12.816  0.2323E+00  0.3463E-02  0.0000E+00
    -12.791  0.2376E+00  0.3567E-02  0.0000E+00
    -12.766  0.2472E+00  0.3733E-02  0.0000E+00
    -12.741  0.2613E+00  0.3960E-02  0.0000E+00
    -12.717  0.2587E+00  0.3946E-02  0.0000E+00
    -12.692  0.2642E+00  0.4049E-02  0.0000E+00
    -12.667  0.2725E+00  0.4187E-02  0.0000E+00
    -12.642  0.2823E+00  0.4347E-02  0.0000E+00
    -12.617  0.2954E+00  0.4561E-02  0.0000E+00
    -12.592  0.3073E+00  0.4752E-02  0.0000E+00
    -12.567  0.3155E+00  0.4883E-02  0.0000E+00
    -12.543  0.3307E+00  0.5129E-02  0.0000E+00
    -12.518  0.3510E+00  0.5454E-02  0.0000E+00
    -12.493  0.3673E+00  0.5718E-02  0.0000E+00
    -12.468  0.3827E+00  0.5975E-02  0.0000E+00
    -12.443  0.4613E+00  0.7252E-02  0.0000E+00
    -12.418  0.4447E+00  0.7243E-02  0.0000E+00
    -12.394  0.5170E+00  0.8844E-02  0.0000E+00
    -12.369  0.8673E+00  0.1852E-01  0.0000E+00
    -12.344  0.1152E+01  0.2799E-01  0.0000E+00
    -12.319  0.1064E+01  0.2612E-01  0.0000E+00
    -12.294  0.1220E+01  0.2994E-01  0.0000E+00
    -12.269  0.8793E+00  0.2104E-01  0.0000E+00
    -12.244  0.7326E+00  0.1702E-01  0.0000E+00
    -12.220  0.6954E+00  0.1603E-01  0.0000E+00
    -12.195  0.6777E+00  0.1661E-01  0.0000E+00
    -12.170  0.5858E+00  0.1515E-01  0.0000E+00
    -12.145  0.5211E+00  0.8629E-02  0.0000E+00
    -12.120  0.5394E+00  0.8263E-02  0.0000E+00
    -12.095  0.6757E+00  0.9184E-02  0.0000E+00
    -12.071  0.7731E+00  0.9765E-02  0.0000E+00
    -12.046  0.5908E+00  0.7501E-02  0.0000E+00
    -12.021  0.6492E+00  0.8056E-02  0.0000E+00
    -11.996  0.0000E+00  0.0000E+00  0.0000E+00
    -11.971  0.0000E+00  0.0000E+00  0.0000E+00
    -11.946  0.0000E+00  0.0000E+00  0.0000E+00
    -11.921  0.0000E+00  0.0000E+00  0.0000E+00
    -11.897  0.0000E+00  0.0000E+00  0.0000E+00
    -11.872  0.0000E+00  0.0000E+00  0.0000E+00
    -11.847  0.0000E+00  0.0000E+00  0.0000E+00
    -11.822  0.0000E+00  0.0000E+00  0.0000E+00
    -11.797  0.0000E+00  0.0000E+00  0.0000E+00
    -11.772  0.0000E+00  0.0000E+00  0.0000E+00
    -11.747  0.0000E+00  0.0000E+00  0.0000E+00
    -11.723  0.0000E+00  0.0000E+00  0.0000E+00
    -11.698  0.0000E+00  0.0000E+00  0.0000E+00
    -11.673  0.0000E+00  0.0000E+00  0.0000E+00
    -11.648  0.0000E+00  0.0000E+00  0.0000E+00
    -11.623  0.0000E+00  0.0000E+00  0.0000E+00
    -11.598  0.0000E+00  0.0000E+00  0.0000E+00
    -11.574  0.0000E+00  0.0000E+00  0.0000E+00
    -11.549  0.0000E+00  0.0000E+00  0.0000E+00
    -11.524  0.0000E+00  0.0000E+00  0.0000E+00
    -11.499  0.0000E+00  0.0000E+00  0.0000E+00
    -11.474  0.0000E+00  0.0000E+00  0.0000E+00
    -11.449  0.0000E+00  0.0000E+00  0.0000E+00
    -11.424  0.0000E+00  0.0000E+00  0.0000E+00
    -11.400  0.0000E+00  0.0000E+00  0.0000E+00
    -11.375  0.0000E+00  0.0000E+00  0.0000E+00
    -11.350  0.0000E+00  0.0000E+00  0.0000E+00
    -11.325  0.0000E+00  0.0000E+00  0.0000E+00
    -11.300  0.0000E+00  0.0000E+00  0.0000E+00
    -11.275  0.0000E+00  0.0000E+00  0.0000E+00
    -11.251  0.0000E+00  0.0000E+00  0.0000E+00
    -11.226  0.0000E+00  0.0000E+00  0.0000E+00
    -11.201  0.0000E+00  0.0000E+00  0.0000E+00
    -11.176  0.0000E+00  0.0000E+00  0.0000E+00
    -11.151  0.0000E+00  0.0000E+00  0.0000E+00
    -11.126  0.0000E+00  0.0000E+00  0.0000E+00
    -11.101  0.0000E+00  0.0000E+00  0.0000E+00
    -11.077  0.0000E+00  0.0000E+00  0.0000E+00
    -11.052  0.0000E+00  0.0000E+00  0.0000E+00
    -11.027  0.0000E+00  0.0000E+00  0.0000E+00
    -11.002  0.0000E+00  0.0000E+00  0.0000E+00
    -10.977  0.0000E+00  0.0000E+00  0.0000E+00
    -10.952  0.0000E+00  0.0000E+00  0.0000E+00
    -10.928  0.0000E+00  0.0000E+00  0.0000E+00
    -10.903  0.0000E+00  0.0000E+00  0.0000E+00
    -10.878  0.0000E+00  0.0000E+00  0.0000E+00
    -10.853  0.0000E+00  0.0000E+00  0.0000E+00
    -10.828  0.0000E+00  0.0000E+00  0.0000E+00
    -10.803  0.0000E+00  0.0000E+00  0.0000E+00
    -10.778  0.0000E+00  0.0000E+00  0.0000E+00
    -10.754  0.0000E+00  0.0000E+00  0.0000E+00
    -10.729  0.0000E+00  0.0000E+00  0.0000E+00
    -10.704  0.3689E+00  0.5754E-02  0.0000E+00
    -10.679  0.3296E+00  0.5834E-02  0.0000E+00
    -10.654  0.3302E+00  0.6647E-02  0.0000E+00
    -10.629  0.3344E+00  0.7612E-02  0.0000E+00
    -10.605  0.3224E+00  0.8393E-02  0.0000E+00
    -10.580  0.3145E+00  0.9326E-02  0.0000E+00
    -10.555  0.3102E+00  0.1031E-01  0.0000E+00
    -10.530  0.3125E+00  0.1139E-01  0.0000E+00
    -10.505  0.3046E+00  0.1225E-01  0.0000E+00
    -10.480  0.2994E+00  0.1304E-01  0.0000E+00
    -10.455  0.2955E+00  0.1400E-01  0.0000E+00
    -10.431  0.2994E+00  0.1515E-01  0.0000E+00
    -10.406  0.3067E+00  0.1699E-01  0.0000E+00
    -10.381  0.3381E+00  0.2260E-01  0.0000E+00
    -10.356  0.3047E+00  0.1713E-01  0.0000E+00
    -10.331  0.2964E+00  0.1592E-01  0.0000E+00
    -10.306  0.2970E+00  0.1484E-01  0.0000E+00
    -10.282  0.3195E+00  0.1449E-01  0.0000E+00
    -10.257  0.3523E+00  0.2056E-01  0.0000E+00
    -10.232  0.4254E+00  0.2674E-01  0.0000E+00
    -10.207  0.4627E+00  0.2325E-01  0.0000E+00
    -10.182  0.3823E+00  0.2303E-01  0.0000E+00
    -10.157  0.3714E+00  0.2512E-01  0.0000E+00
    -10.132  0.3722E+00  0.2794E-01  0.0000E+00
    -10.108  0.3810E+00  0.2853E-01  0.0000E+00
    -10.083  0.3998E+00  0.3291E-01  0.0000E+00
    -10.058  0.4519E+00  0.3762E-01  0.0000E+00
    -10.033  0.5724E+00  0.5008E-01  0.0000E+00
    -10.008  0.6875E-01  0.2404E-01  0.0000E+00
     -9.983  0.5715E-01  0.2312E-01  0.0000E+00
     -9.959  0.4905E-01  0.2242E-01  0.0000E+00
     -9.934  0.2945E-01  0.1921E-01  0.0000E+00
     -9.909  0.2769E-01  0.1926E-01  0.0000E+00
     -9.884  0.2604E-01  0.1928E-01  0.0000E+00
     -9.859  0.2439E-01  0.1928E-01  0.0000E+00
     -9.834  0.2272E-01  0.1922E-01  0.0000E+00
     -9.809  0.2103E-01  0.1915E-01  0.0000E+00
     -9.785  0.1928E-01  0.1901E-01  0.0000E+00
     -9.760  0.1755E-01  0.1884E-01  0.0000E+00
     -9.735  0.1546E-01  0.1897E-01  0.0000E+00
     -9.710  0.1363E-01  0.1891E-01  0.0000E+00
     -9.685  0.1241E-01  0.1887E-01  0.0000E+00
     -9.660  0.1188E-01  0.1902E-01  0.0000E+00
     -9.636  0.1138E-01  0.1914E-01  0.0000E+00
     -9.611  0.1091E-01  0.1923E-01  0.0000E+00
     -9.586  0.1044E-01  0.1933E-01  0.0000E+00
     -9.561  0.1000E-01  0.1941E-01  0.0000E+00
     -9.536  0.9524E-02  0.2039E-01  0.0000E+00
     -9.511  0.9101E-02  0.2100E-01  0.0000E+00
     -9.486  0.8719E-02  0.2139E-01  0.0000E+00
     -9.462  0.8346E-02  0.2178E-01  0.0000E+00
     -9.437  0.8008E-02  0.2202E-01  0.0000E+00
     -9.412  0.7602E-02  0.2222E-01  0.0000E+00
     -9.387  0.7232E-02  0.2243E-01  0.0000E+00
     -9.362  0.7237E-02  0.2500E-01  0.0000E+00
     -9.337  0.7222E-02  0.2640E-01  0.0000E+00
     -9.313  0.7219E-02  0.2780E-01  0.0000E+00
     -9.288  0.7217E-02  0.2855E-01  0.0000E+00
     -9.263  0.7218E-02  0.2909E-01  0.0000E+00
     -9.238  0.8063E-02  0.4390E-01  0.0000E+00
     -9.213  0.8186E-02  0.4241E-01  0.0000E+00
     -9.188  0.7865E-02  0.3564E-01  0.0000E+00
     -9.163  0.7523E-02  0.2941E-01  0.0000E+00
     -9.139  0.7377E-02  0.2749E-01  0.0000E+00
     -9.114  0.7220E-02  0.2653E-01  0.0000E+00
     -9.089  0.7030E-02  0.2560E-01  0.0000E+00
     -9.064  0.6766E-02  0.2431E-01  0.0000E+00
     -9.039  0.6584E-02  0.2291E-01  0.0000E+00
     -9.014  0.6422E-02  0.2207E-01  0.0000E+00
     -8.990  0.6264E-02  0.2138E-01  0.0000E+00
     -8.965  0.6115E-02  0.2089E-01  0.0000E+00
     -8.940  0.5957E-02  0.2039E-01  0.0000E+00
     -8.915  0.5772E-02  0.1985E-01  0.0000E+00
     -8.890  0.5542E-02  0.1913E-01  0.0000E+00
     -8.865  0.5332E-02  0.1861E-01  0.0000E+00
     -8.840  0.5118E-02  0.1810E-01  0.0000E+00
     -8.816  0.4911E-02  0.1785E-01  0.0000E+00
     -8.791  0.4699E-02  0.1759E-01  0.0000E+00
     -8.766  0.4463E-02  0.1751E-01  0.0000E+00
     -8.741  0.4161E-02  0.1748E-01  0.0000E+00
     -8.716  0.3876E-02  0.1694E-01  0.0000E+00
     -8.691  0.3593E-02  0.1629E-01  0.0000E+00
     -8.666  0.3364E-02  0.1582E-01  0.0000E+00
     -8.642  0.3137E-02  0.1535E-01  0.0000E+00
     -8.617  0.2882E-02  0.1503E-01  0.0000E+00
     -8.592  0.2616E-02  0.1474E-01  0.0000E+00
     -8.567  0.2261E-02  0.1454E-01  0.0000E+00
     -8.542  0.2037E-02  0.1415E-01  0.0000E+00
     -8.517  0.1795E-02  0.1439E-01  0.0000E+00
     -8.493  0.1551E-02  0.1679E-01  0.0000E+00
     -8.468  0.1133E-02  0.1517E-01  0.0000E+00
     -8.443  0.7552E-03  0.1266E-01  0.0000E+00
     -8.418  0.4493E-03  0.9117E-02  0.0000E+00
     -8.393  0.1836E-03  0.5551E-02  0.0000E+00
     -8.368  0.0000E+00  0.0000E+00  0.0000E+00
     -8.343  0.0000E+00  0.0000E+00  0.0000E+00
     -8.319  0.0000E+00  0.0000E+00  0.0000E+00
     -8.294  0.0000E+00  0.0000E+00  0.0000E+00
     -8.269  0.0000E+00  0.0000E+00  0.0000E+00
     -8.244  0.0000E+00  0.0000E+00  0.0000E+00
     -8.219  0.0000E+00  0.0000E+00  0.0000E+00
     -8.194  0.1642E-01  0.4038E-01  0.0000E+00
     -8.170  0.1818E-01  0.4458E-01  0.0000E+00
     -8.145  0.1801E-01  0.4664E-01  0.0000E+00
     -8.120  0.1531E-01  0.4193E-01  0.0000E+00
     -8.095  0.1152E-01  0.3602E-01  0.0000E+00
     -8.070  0.9974E-02  0.3432E-01  0.0000E+00
     -8.045  0.2244E-01  0.4709E-01  0.0000E+00
     -8.020  0.2394E-01  0.4932E-01  0.0000E+00
     -7.996  0.2504E-01  0.5116E-01  0.0000E+00
     -7.971  0.2455E-01  0.5073E-01  0.0000E+00
     -7.946  0.2427E-01  0.4971E-01  0.0000E+00
     -7.921  0.2439E-01  0.4909E-01  0.0000E+00
     -7.896  0.2547E-01  0.5019E-01  0.0000E+00
     -7.871  0.2651E-01  0.5111E-01  0.0000E+00
     -7.847  0.2733E-01  0.5185E-01  0.0000E+00
     -7.822  0.2810E-01  0.5286E-01  0.0000E+00
     -7.797  0.2860E-01  0.5368E-01  0.0000E+00
     -7.772  0.2927E-01  0.5462E-01  0.0000E+00
     -7.747  0.2995E-01  0.5556E-01  0.0000E+00
     -7.722  0.3024E-01  0.5591E-01  0.0000E+00
     -7.697  0.3112E-01  0.5742E-01  0.0000E+00
     -7.673  0.3204E-01  0.5898E-01  0.0000E+00
     -7.648  0.3318E-01  0.6074E-01  0.0000E+00
     -7.623  0.3479E-01  0.6265E-01  0.0000E+00
     -7.598  0.4830E-01  0.9564E-01  0.0000E+00
     -7.573  0.6575E-01  0.1269E+00  0.0000E+00
     -7.548  0.6550E-01  0.1370E+00  0.0000E+00
     -7.524  0.5818E-01  0.1469E+00  0.0000E+00
     -7.499  0.5217E-01  0.1193E+00  0.0000E+00
     -7.474  0.5142E-01  0.1020E+00  0.0000E+00
     -7.449  0.5211E-01  0.9909E-01  0.0000E+00
     -7.424  0.5767E-01  0.1112E+00  0.0000E+00
     -7.399  0.6884E-01  0.1476E+00  0.0000E+00
     -7.374  0.6889E-01  0.1237E+00  0.0000E+00
     -7.350  0.8896E-01  0.1535E+00  0.0000E+00
     -7.325  0.8093E-01  0.1611E+00  0.0000E+00
     -7.300  0.6418E-01  0.1299E+00  0.0000E+00
     -7.275  0.6600E-01  0.1232E+00  0.0000E+00
     -7.250  0.6546E-01  0.1209E+00  0.0000E+00
     -7.225  0.6175E-01  0.1170E+00  0.0000E+00
     -7.201  0.6071E-01  0.1180E+00  0.0000E+00
     -7.176  0.6248E-01  0.1184E+00  0.0000E+00
     -7.151  0.6758E-01  0.1384E+00  0.0000E+00
     -7.126  0.8039E-01  0.1185E+00  0.0000E+00
     -7.101  0.5634E-01  0.9020E-01  0.0000E+00
     -7.076  0.6885E-01  0.1046E+00  0.0000E+00
     -7.051  0.4951E-01  0.9110E-01  0.0000E+00
     -7.027  0.3718E-01  0.9625E-01  0.0000E+00
     -7.002  0.4131E-01  0.1159E+00  0.0000E+00
     -6.977  0.4562E-01  0.1297E+00  0.0000E+00
     -6.952  0.4760E-01  0.1094E+00  0.0000E+00
     -6.927  0.4648E-01  0.8910E-01  0.0000E+00
     -6.902  0.3505E-01  0.7377E-01  0.0000E+00
     -6.878  0.2307E-01  0.6245E-01  0.0000E+00
     -6.853  0.1444E-01  0.4773E-01  0.0000E+00
     -6.828  0.7681E-02  0.1849E-01  0.0000E+00
     -6.803  0.7137E-02  0.1990E-01  0.0000E+00
     -6.778  0.7325E-02  0.2406E-01  0.0000E+00
     -6.753  0.1088E-01  0.3613E-01  0.0000E+00
     -6.728  0.1177E-01  0.3529E-01  0.0000E+00
     -6.704  0.1304E-01  0.3550E-01  0.0000E+00
     -6.679  0.1523E-01  0.3704E-01  0.0000E+00
     -6.654  0.2122E-01  0.4276E-01  0.0000E+00
     -6.629  0.1629E-01  0.3547E-01  0.0000E+00
     -6.604  0.1502E-01  0.3335E-01  0.0000E+00
     -6.579  0.2102E-01  0.6321E-01  0.0000E+00
     -6.555  0.2794E-01  0.7156E-01  0.0000E+00
     -6.530  0.3882E-01  0.8491E-01  0.0000E+00
     -6.505  0.4271E-01  0.9715E-01  0.0000E+00
     -6.480  0.5676E-01  0.1383E+00  0.0000E+00
     -6.455  0.7033E-01  0.1850E+00  0.0000E+00
     -6.430  0.6338E-01  0.1611E+00  0.0000E+00
     -6.405  0.6599E-01  0.1625E+00  0.0000E+00
     -6.381  0.7483E-01  0.1653E+00  0.0000E+00
     -6.356  0.9300E-01  0.1766E+00  0.0000E+00
     -6.331  0.1287E+00  0.2069E+00  0.0000E+00
     -6.306  0.1252E+00  0.2246E+00  0.0000E+00
     -6.281  0.8897E-01  0.2123E+00  0.0000E+00
     -6.256  0.8025E-01  0.2488E+00  0.0000E+00
     -6.232  0.1059E+00  0.3883E+00  0.0000E+00
     -6.207  0.8137E-01  0.3022E+00  0.0000E+00
     -6.182  0.7015E-01  0.2644E+00  0.0000E+00
     -6.157  0.6926E-01  0.3068E+00  0.0000E+00
     -6.132  0.6534E-01  0.2634E+00  0.0000E+00
     -6.107  0.5670E-01  0.2086E+00  0.0000E+00
     -6.082  0.4242E-01  0.1738E+00  0.0000E+00
     -6.058  0.1995E-01  0.1345E+00  0.0000E+00
     -6.033  0.1538E-01  0.1014E+00  0.0000E+00
     -6.008  0.1403E-01  0.9395E-01  0.0000E+00
     -5.983  0.1293E-01  0.8815E-01  0.0000E+00
     -5.958  0.1209E-01  0.8482E-01  0.0000E+00
     -5.933  0.1124E-01  0.8104E-01  0.0000E+00
     -5.909  0.1089E-01  0.7924E-01  0.0000E+00
     -5.884  0.1538E-01  0.9707E-01  0.0000E+00
     -5.859  0.2058E-01  0.1171E+00  0.0000E+00
     -5.834  0.1908E-01  0.1179E+00  0.0000E+00
     -5.809  0.1599E-01  0.1075E+00  0.0000E+00
     -5.784  0.2103E-01  0.1201E+00  0.0000E+00
     -5.759  0.1922E-01  0.1199E+00  0.0000E+00
     -5.735  0.1972E-01  0.1235E+00  0.0000E+00
     -5.710  0.2318E-01  0.1471E+00  0.0000E+00
     -5.685  0.1926E-01  0.1091E+00  0.0000E+00
     -5.660  0.1889E-01  0.1118E+00  0.0000E+00
     -5.635  0.1929E-01  0.1228E+00  0.0000E+00
     -5.610  0.2036E-01  0.1401E+00  0.0000E+00
     -5.585  0.2565E-01  0.1634E+00  0.0000E+00
     -5.561  0.2916E-01  0.1969E+00  0.0000E+00
     -5.536  0.3045E-01  0.2191E+00  0.0000E+00
     -5.511  0.3102E-01  0.1906E+00  0.0000E+00
     -5.486  0.3273E-01  0.1965E+00  0.0000E+00
     -5.461  0.3463E-01  0.2189E+00  0.0000E+00
     -5.436  0.4235E-01  0.2884E+00  0.0000E+00
     -5.412  0.4948E-01  0.3580E+00  0.0000E+00
     -5.387  0.4224E-01  0.3025E+00  0.0000E+00
     -5.362  0.4273E-01  0.3133E+00  0.0000E+00
     -5.337  0.4167E-01  0.3181E+00  0.0000E+00
     -5.312  0.4158E-01  0.3157E+00  0.0000E+00
     -5.287  0.4600E-01  0.3101E+00  0.0000E+00
     -5.262  0.4473E-01  0.2664E+00  0.0000E+00
     -5.238  0.7124E-01  0.3308E+00  0.0000E+00
     -5.213  0.4949E-01  0.2710E+00  0.0000E+00
     -5.188  0.4489E-01  0.2554E+00  0.0000E+00
     -5.163  0.3989E-01  0.2388E+00  0.0000E+00
     -5.138  0.3189E-01  0.2073E+00  0.0000E+00
     -5.113  0.2570E-01  0.1896E+00  0.0000E+00
     -5.089  0.1653E-01  0.1578E+00  0.0000E+00
     -5.064  0.1401E-01  0.1494E+00  0.0000E+00
     -5.039  0.1423E-01  0.1509E+00  0.0000E+00
     -5.014  0.1436E-01  0.1557E+00  0.0000E+00
     -4.989  0.1414E-01  0.1552E+00  0.0000E+00
     -4.964  0.1470E-01  0.1587E+00  0.0000E+00
     -4.939  0.1462E-01  0.1579E+00  0.0000E+00
     -4.915  0.1413E-01  0.1552E+00  0.0000E+00
     -4.890  0.1417E-01  0.1543E+00  0.0000E+00
     -4.865  0.1448E-01  0.1601E+00  0.0000E+00
     -4.840  0.2603E-01  0.2272E+00  0.0000E+00
     -4.815  0.3481E-01  0.2693E+00  0.0000E+00
     -4.790  0.3587E-01  0.2295E+00  0.0000E+00
     -4.766  0.5185E-01  0.2712E+00  0.0000E+00
     -4.741  0.6766E-01  0.2945E+00  0.0000E+00
     -4.716  0.6937E-01  0.3504E+00  0.0000E+00
     -4.691  0.6048E-01  0.3020E+00  0.0000E+00
     -4.666  0.5743E-01  0.2898E+00  0.0000E+00
     -4.641  0.6100E-01  0.2886E+00  0.0000E+00
     -4.616  0.5916E-01  0.2948E+00  0.0000E+00
     -4.592  0.6033E-01  0.3193E+00  0.0000E+00
     -4.567  0.5728E-01  0.3140E+00  0.0000E+00
     -4.542  0.5042E-01  0.3140E+00  0.0000E+00
     -4.517  0.4943E-01  0.3699E+00  0.0000E+00
     -4.492  0.4066E-01  0.2607E+00  0.0000E+00
     -4.467  0.3510E-01  0.2215E+00  0.0000E+00
     -4.443  0.3803E-01  0.2256E+00  0.0000E+00
     -4.418  0.3740E-01  0.2337E+00  0.0000E+00
     -4.393  0.3518E-01  0.2309E+00  0.0000E+00
     -4.368  0.1800E-01  0.2186E+00  0.0000E+00
     -4.343  0.1895E-01  0.2310E+00  0.0000E+00
     -4.318  0.1025E-01  0.1549E+00  0.0000E+00
     -4.293  0.1010E-01  0.1566E+00  0.0000E+00
     -4.269  0.9968E-02  0.1585E+00  0.0000E+00
     -4.244  0.1029E-01  0.1685E+00  0.0000E+00
     -4.219  0.1019E-01  0.1729E+00  0.0000E+00
     -4.194  0.9972E-02  0.1757E+00  0.0000E+00
     -4.169  0.9676E-02  0.1756E+00  0.0000E+00
     -4.144  0.8902E-02  0.1665E+00  0.0000E+00
     -4.120  0.8753E-02  0.1656E+00  0.0000E+00
     -4.095  0.8786E-02  0.1677E+00  0.0000E+00
     -4.070  0.8807E-02  0.1705E+00  0.0000E+00
     -4.045  0.9027E-02  0.1745E+00  0.0000E+00
     -4.020  0.9649E-02  0.1839E+00  0.0000E+00
     -3.995  0.1024E-01  0.2089E+00  0.0000E+00
     -3.970  0.1127E-01  0.2589E+00  0.0000E+00
     -3.946  0.1291E-01  0.2934E+00  0.0000E+00
     -3.921  0.1103E-01  0.2907E+00  0.0000E+00
     -3.896  0.1069E-01  0.2830E+00  0.0000E+00
     -3.871  0.1158E-01  0.2992E+00  0.0000E+00
     -3.846  0.1845E-01  0.3894E+00  0.0000E+00
     -3.821  0.1760E-01  0.4160E+00  0.0000E+00
     -3.797  0.1604E-01  0.3957E+00  0.0000E+00
     -3.772  0.1308E-01  0.3117E+00  0.0000E+00
     -3.747  0.1203E-01  0.3051E+00  0.0000E+00
     -3.722  0.1104E-01  0.3038E+00  0.0000E+00
     -3.697  0.9920E-02  0.2758E+00  0.0000E+00
     -3.672  0.9594E-02  0.2391E+00  0.0000E+00
     -3.647  0.8374E-02  0.2209E+00  0.0000E+00
     -3.623  0.1114E-01  0.2789E+00  0.0000E+00
     -3.598  0.1318E-01  0.3532E+00  0.0000E+00
     -3.573  0.1356E-01  0.4047E+00  0.0000E+00
     -3.548  0.1090E-01  0.3553E+00  0.0000E+00
     -3.523  0.1103E-01  0.3767E+00  0.0000E+00
     -3.498  0.9095E-02  0.3014E+00  0.0000E+00
     -3.474  0.9597E-02  0.3118E+00  0.0000E+00
     -3.449  0.1038E-01  0.3502E+00  0.0000E+00
     -3.424  0.1192E-01  0.3687E+00  0.0000E+00
     -3.399  0.1194E-01  0.3698E+00  0.0000E+00
     -3.374  0.1200E-01  0.3562E+00  0.0000E+00
     -3.349  0.2122E-01  0.5264E+00  0.0000E+00
     -3.324  0.2863E-01  0.5866E+00  0.0000E+00
     -3.300  0.1824E-01  0.4301E+00  0.0000E+00
     -3.275  0.2195E-01  0.4793E+00  0.0000E+00
     -3.250  0.2460E-01  0.5038E+00  0.0000E+00
     -3.225  0.2767E-01  0.4387E+00  0.0000E+00
     -3.200  0.2740E-01  0.3747E+00  0.0000E+00
     -3.175  0.2287E-01  0.2966E+00  0.0000E+00
     -3.151  0.2415E-01  0.3302E+00  0.0000E+00
     -3.126  0.2077E-01  0.2828E+00  0.0000E+00
     -3.101  0.1951E-01  0.2733E+00  0.0000E+00
     -3.076  0.2308E-01  0.3142E+00  0.0000E+00
     -3.051  0.2646E-01  0.3521E+00  0.0000E+00
     -3.026  0.1232E-01  0.2318E+00  0.0000E+00
     -3.001  0.1059E-01  0.2268E+00  0.0000E+00
     -2.977  0.9873E-02  0.2485E+00  0.0000E+00
     -2.952  0.9149E-02  0.1988E+00  0.0000E+00
     -2.927  0.8844E-02  0.1997E+00  0.0000E+00
     -2.902  0.1436E-01  0.2926E+00  0.0000E+00
     -2.877  0.1117E-01  0.2451E+00  0.0000E+00
     -2.852  0.1065E-01  0.2469E+00  0.0000E+00
     -2.827  0.1299E-01  0.3167E+00  0.0000E+00
     -2.803  0.1092E-01  0.2772E+00  0.0000E+00
     -2.778  0.1144E-01  0.2916E+00  0.0000E+00
     -2.753  0.1084E-01  0.2842E+00  0.0000E+00
     -2.728  0.1296E-01  0.3461E+00  0.0000E+00
     -2.703  0.1233E-01  0.3291E+00  0.0000E+00
     -2.678  0.1465E-01  0.3717E+00  0.0000E+00
     -2.654  0.1333E-01  0.3695E+00  0.0000E+00
     -2.629  0.1263E-01  0.3562E+00  0.0000E+00
     -2.604  0.1289E-01  0.3765E+00  0.0000E+00
     -2.579  0.1650E-01  0.5000E+00  0.0000E+00
     -2.554  0.1509E-01  0.5608E+00  0.0000E+00
     -2.529  0.1093E-01  0.4787E+00  0.0000E+00
     -2.504  0.1062E-01  0.4978E+00  0.0000E+00
     -2.480  0.1082E-01  0.5340E+00  0.0000E+00
     -2.455  0.1144E-01  0.6358E+00  0.0000E+00
     -2.430  0.1205E-01  0.7094E+00  0.0000E+00
     -2.405  0.1091E-01  0.5734E+00  0.0000E+00
     -2.380  0.8445E-02  0.4699E+00  0.0000E+00
     -2.355  0.6661E-02  0.2834E+00  0.0000E+00
     -2.331  0.6220E-02  0.2841E+00  0.0000E+00
     -2.306  0.6552E-02  0.3224E+00  0.0000E+00
     -2.281  0.5682E-02  0.2731E+00  0.0000E+00
     -2.256  0.5346E-02  0.2788E+00  0.0000E+00
     -2.231  0.3928E-02  0.2377E+00  0.0000E+00
     -2.206  0.3358E-02  0.2263E+00  0.0000E+00
     -2.181  0.2147E-02  0.1827E+00  0.0000E+00
     -2.157  0.1867E-02  0.1962E+00  0.0000E+00
     -2.132  0.6209E-03  0.1172E+00  0.0000E+00
     -2.107  0.3301E-03  0.9294E-01  0.0000E+00
     -2.082  0.2802E-03  0.9145E-01  0.0000E+00
     -2.057  0.2289E-03  0.9852E-01  0.0000E+00
     -2.032  0.1630E-03  0.9107E-01  0.0000E+00
     -2.008  0.1271E-03  0.7811E-01  0.0000E+00
     -1.983  0.9469E-04  0.8419E-01  0.0000E+00
     -1.958  0.0000E+00  0.0000E+00  0.0000E+00
     -1.933  0.0000E+00  0.0000E+00  0.0000E+00
     -1.908  0.0000E+00  0.0000E+00  0.0000E+00
     -1.883  0.0000E+00  0.0000E+00  0.0000E+00
     -1.858  0.0000E+00  0.0000E+00  0.0000E+00
     -1.834  0.0000E+00  0.0000E+00  0.0000E+00
     -1.809  0.9978E-03  0.2203E-02  0.0000E+00
     -1.784  0.3168E-02  0.6985E-02  0.0000E+00
     -1.759  0.5354E-02  0.1179E-01  0.0000E+00
     -1.734  0.6554E-02  0.1470E-01  0.0000E+00
     -1.709  0.7715E-02  0.1756E-01  0.0000E+00
     -1.685  0.8873E-02  0.2046E-01  0.0000E+00
     -1.660  0.7951E-02  0.2065E-01  0.0000E+00
     -1.635  0.7835E-02  0.2292E-01  0.0000E+00
     -1.610  0.8313E-02  0.2647E-01  0.0000E+00
     -1.585  0.9028E-02  0.3098E-01  0.0000E+00
     -1.560  0.9622E-02  0.3557E-01  0.0000E+00
     -1.535  0.9414E-02  0.4050E-01  0.0000E+00
     -1.511  0.1983E-01  0.3322E+00  0.0000E+00
     -1.486  0.1779E-01  0.1381E+00  0.0000E+00
     -1.461  0.2107E-01  0.1814E+00  0.0000E+00
     -1.436  0.1903E-01  0.1558E+00  0.0000E+00
     -1.411  0.1946E-01  0.1511E+00  0.0000E+00
     -1.386  0.1907E-01  0.1496E+00  0.0000E+00
     -1.362  0.2016E-01  0.1402E+00  0.0000E+00
     -1.337  0.2086E-01  0.1299E+00  0.0000E+00
     -1.312  0.2177E-01  0.1240E+00  0.0000E+00
     -1.287  0.2089E-01  0.1146E+00  0.0000E+00
     -1.262  0.2134E-01  0.1055E+00  0.0000E+00
     -1.237  0.2080E-01  0.9901E-01  0.0000E+00
     -1.212  0.2069E-01  0.9711E-01  0.0000E+00
     -1.188  0.2101E-01  0.9799E-01  0.0000E+00
     -1.163  0.2126E-01  0.9794E-01  0.0000E+00
     -1.138  0.2187E-01  0.9956E-01  0.0000E+00
     -1.113  0.2263E-01  0.1009E+00  0.0000E+00
     -1.088  0.2297E-01  0.9842E-01  0.0000E+00
     -1.063  0.2350E-01  0.9943E-01  0.0000E+00
     -1.039  0.2903E-01  0.1274E+00  0.0000E+00
     -1.014  0.2915E-01  0.1251E+00  0.0000E+00
     -0.989  0.2314E-01  0.9378E-01  0.0000E+00
     -0.964  0.2199E-01  0.8903E-01  0.0000E+00
     -0.939  0.2166E-01  0.8755E-01  0.0000E+00
     -0.914  0.2187E-01  0.8725E-01  0.0000E+00
     -0.889  0.2207E-01  0.8687E-01  0.0000E+00
     -0.865  0.2211E-01  0.8575E-01  0.0000E+00
     -0.840  0.2228E-01  0.8751E-01  0.0000E+00
     -0.815  0.2289E-01  0.9004E-01  0.0000E+00
     -0.790  0.2359E-01  0.9152E-01  0.0000E+00
     -0.765  0.2456E-01  0.9358E-01  0.0000E+00
     -0.740  0.2784E-01  0.9925E-01  0.0000E+00
     -0.716  0.2784E-01  0.9272E-01  0.0000E+00
     -0.691  0.2767E-01  0.8840E-01  0.0000E+00
     -0.666  0.2810E-01  0.8447E-01  0.0000E+00
     -0.641  0.2844E-01  0.8325E-01  0.0000E+00
     -0.616  0.3106E-01  0.9367E-01  0.0000E+00
     -0.591  0.3487E-01  0.1105E+00  0.0000E+00
     -0.566  0.4105E-01  0.1151E+00  0.0000E+00
     -0.542  0.2883E-01  0.1007E+00  0.0000E+00
     -0.517  0.2752E-01  0.9373E-01  0.0000E+00
     -0.492  0.2528E-01  0.8645E-01  0.0000E+00
     -0.467  0.3196E-01  0.1117E+00  0.0000E+00
     -0.442  0.3463E-01  0.1232E+00  0.0000E+00
     -0.417  0.2796E-01  0.1050E+00  0.0000E+00
     -0.393  0.2619E-01  0.1024E+00  0.0000E+00
     -0.368  0.2387E-01  0.9818E-01  0.0000E+00
     -0.343  0.2381E-01  0.1096E+00  0.0000E+00
     -0.318  0.2492E-01  0.1231E+00  0.0000E+00
     -0.293  0.2066E-01  0.1018E+00  0.0000E+00
     -0.268  0.2182E-01  0.1080E+00  0.0000E+00
     -0.243  0.2204E-01  0.1132E+00  0.0000E+00
     -0.219  0.2129E-01  0.1147E+00  0.0000E+00
     -0.194  0.2072E-01  0.1144E+00  0.0000E+00
     -0.169  0.2598E-01  0.1386E+00  0.0000E+00
     -0.144  0.2184E-01  0.1228E+00  0.0000E+00
     -0.119  0.2480E-01  0.1334E+00  0.0000E+00
     -0.094  0.3984E-01  0.2449E+00  0.0000E+00
     -0.070  0.3273E-01  0.2043E+00  0.0000E+00
     -0.045  0.3919E-01  0.2150E+00  0.0000E+00
     -0.020  0.4271E-01  0.2219E+00  0.0000E+00
      0.005  0.5192E-01  0.3167E+00  0.0000E+00
      0.030  0.4439E-01  0.1871E+00  0.0000E+00
      0.055  0.3632E-01  0.1122E+00  0.0000E+00
      0.080  0.3315E-01  0.8676E-01  0.0000E+00
      0.104  0.2526E-01  0.6354E-01  0.0000E+00
      0.129  0.2581E-01  0.5979E-01  0.0000E+00
      0.154  0.2665E-01  0.5740E-01  0.0000E+00
      0.179  0.2254E-01  0.4152E-01  0.0000E+00
      0.204  0.1559E-01  0.2855E-01  0.0000E+00
      0.229  0.1486E-01  0.3249E-01  0.0000E+00
      0.254  0.3180E-01  0.8499E-01  0.0000E+00
      0.278  0.2813E-01  0.8420E-01  0.0000E+00
      0.303  0.3166E-01  0.8887E-01  0.0000E+00
      0.328  0.3434E-01  0.9114E-01  0.0000E+00
      0.353  0.3651E-01  0.9135E-01  0.0000E+00
      0.378  0.6140E-01  0.1351E+00  0.0000E+00
      0.403  0.5207E-01  0.1281E+00  0.0000E+00
      0.427  0.4707E-01  0.1158E+00  0.0000E+00
      0.452  0.3903E-01  0.1116E+00  0.0000E+00
      0.477  0.3729E-01  0.1036E+00  0.0000E+00
      0.502  0.3641E-01  0.9981E-01  0.0000E+00
      0.527  0.3469E-01  0.9621E-01  0.0000E+00
      0.552  0.3538E-01  0.9917E-01  0.0000E+00
      0.577  0.3605E-01  0.1035E+00  0.0000E+00
      0.601  0.4755E-01  0.1342E+00  0.0000E+00
      0.626  0.4457E-01  0.1301E+00  0.0000E+00
      0.651  0.4251E-01  0.1400E+00  0.0000E+00
      0.676  0.4007E-01  0.1436E+00  0.0000E+00
      0.701  0.3777E-01  0.1431E+00  0.0000E+00
      0.726  0.4327E-01  0.1598E+00  0.0000E+00
      0.750  0.4278E-01  0.1576E+00  0.0000E+00
      0.775  0.3922E-01  0.1478E+00  0.0000E+00
      0.800  0.3903E-01  0.1730E+00  0.0000E+00
      0.825  0.3786E-01  0.1612E+00  0.0000E+00
      0.850  0.4621E-01  0.1772E+00  0.0000E+00
      0.875  0.4309E-01  0.1654E+00  0.0000E+00
      0.900  0.4111E-01  0.1468E+00  0.0000E+00
      0.924  0.4421E-01  0.1615E+00  0.0000E+00
      0.949  0.4141E-01  0.1537E+00  0.0000E+00
      0.974  0.4509E-01  0.1726E+00  0.0000E+00
      0.999  0.4527E-01  0.1780E+00  0.0000E+00
      1.024  0.4315E-01  0.1734E+00  0.0000E+00
      1.049  0.4441E-01  0.1873E+00  0.0000E+00
      1.073  0.4753E-01  0.1998E+00  0.0000E+00
      1.098  0.4372E-01  0.2122E+00  0.0000E+00
      1.123  0.3871E-01  0.1898E+00  0.0000E+00
      1.148  0.3806E-01  0.1790E+00  0.0000E+00
      1.173  0.3980E-01  0.1930E+00  0.0000E+00
      1.198  0.4265E-01  0.2113E+00  0.0000E+00
      1.223  0.4417E-01  0.2277E+00  0.0000E+00
      1.247  0.4933E-01  0.3066E+00  0.0000E+00
      1.272  0.3484E-01  0.1862E+00  0.0000E+00
      1.297  0.2794E-01  0.1200E+00  0.0000E+00
      1.322  0.2126E-01  0.9688E-01  0.0000E+00
      1.347  0.1453E-01  0.9115E-01  0.0000E+00
      1.372  0.1411E-01  0.9468E-01  0.0000E+00
      1.396  0.1437E-01  0.9944E-01  0.0000E+00
      1.421  0.1523E-01  0.1110E+00  0.0000E+00
      1.446  0.1719E-01  0.1389E+00  0.0000E+00
      1.471  0.1670E-01  0.1375E+00  0.0000E+00
      1.496  0.1626E-01  0.1313E+00  0.0000E+00
      1.521  0.1565E-01  0.1236E+00  0.0000E+00
      1.546  0.1597E-01  0.1345E+00  0.0000E+00
      1.570  0.1124E-01  0.5137E-01  0.0000E+00
      1.595  0.8393E-02  0.4035E-01  0.0000E+00
      1.620  0.7899E-02  0.3511E-01  0.0000E+00
      1.645  0.7338E-02  0.3293E-01  0.0000E+00
      1.670  0.7380E-02  0.3239E-01  0.0000E+00
      1.695  0.1477E-01  0.3480E-01  0.0000E+00
      1.719  0.2635E-01  0.4140E-01  0.0000E+00
      1.744  0.2067E-01  0.4126E-01  0.0000E+00
      1.769  0.1874E-01  0.3446E-01  0.0000E+00
      1.794  0.1945E-01  0.3515E-01  0.0000E+00
      1.819  0.2137E-01  0.3925E-01  0.0000E+00
      1.844  0.2425E-01  0.4722E-01  0.0000E+00
      1.869  0.1675E-01  0.2596E-01  0.0000E+00
      1.893  0.7972E-02  0.1621E-01  0.0000E+00
      1.918  0.1769E-02  0.7113E-02  0.0000E+00
      1.943  0.1354E-02  0.5641E-02  0.0000E+00
      1.968  0.9594E-03  0.4143E-02  0.0000E+00
      1.993  0.5847E-03  0.2620E-02  0.0000E+00
      2.018  0.2301E-03  0.1071E-02  0.0000E+00
      2.042  0.0000E+00  0.0000E+00  0.0000E+00
      2.067  0.0000E+00  0.0000E+00  0.0000E+00
      2.092  0.0000E+00  0.0000E+00  0.0000E+00
      2.117  0.0000E+00  0.0000E+00  0.0000E+00
      2.142  0.0000E+00  0.0000E+00  0.0000E+00
      2.167  0.0000E+00  0.0000E+00  0.0000E+00
      2.192  0.0000E+00  0.0000E+00  0.0000E+00
      2.216  0.0000E+00  0.0000E+00  0.0000E+00
      2.241  0.0000E+00  0.0000E+00  0.0000E+00
      2.266  0.0000E+00  0.0000E+00  0.0000E+00
      2.291  0.0000E+00  0.0000E+00  0.0000E+00
      2.316  0.0000E+00  0.0000E+00  0.0000E+00
      2.341  0.0000E+00  0.0000E+00  0.0000E+00
      2.365  0.0000E+00  0.0000E+00  0.0000E+00
      2.390  0.0000E+00  0.0000E+00  0.0000E+00
      2.415  0.0000E+00  0.0000E+00  0.0000E+00
      2.440  0.0000E+00  0.0000E+00  0.0000E+00
      2.465  0.0000E+00  0.0000E+00  0.0000E+00
      2.490  0.0000E+00  0.0000E+00  0.0000E+00
      2.515  0.0000E+00  0.0000E+00  0.0000E+00
      2.539  0.0000E+00  0.0000E+00  0.0000E+00
      2.564  0.0000E+00  0.0000E+00  0.0000E+00
      2.589  0.0000E+00  0.0000E+00  0.0000E+00
      2.614  0.0000E+00  0.0000E+00  0.0000E+00
      2.639  0.0000E+00  0.0000E+00  0.0000E+00
      2.664  0.0000E+00  0.0000E+00  0.0000E+00
      2.688  0.0000E+00  0.0000E+00  0.0000E+00
      2.713  0.0000E+00  0.0000E+00  0.0000E+00
      2.738  0.0000E+00  0.0000E+00  0.0000E+00
      2.763  0.0000E+00  0.0000E+00  0.0000E+00
      2.788  0.0000E+00  0.0000E+00  0.0000E+00
      2.813  0.0000E+00  0.0000E+00  0.0000E+00
      2.838  0.0000E+00  0.0000E+00  0.0000E+00
      2.862  0.0000E+00  0.0000E+00  0.0000E+00
      2.887  0.0000E+00  0.0000E+00  0.0000E+00
      2.912  0.0000E+00  0.0000E+00  0.0000E+00
      2.937  0.0000E+00  0.0000E+00  0.0000E+00
      2.93695651    -16.91563261  800     -1.95165038      1.00000000
    -16.916  0.0000E+00  0.0000E+00  0.0000E+00
    -16.891  0.0000E+00  0.0000E+00  0.0000E+00
    -16.866  0.0000E+00  0.0000E+00  0.0000E+00
    -16.841  0.0000E+00  0.0000E+00  0.0000E+00
    -16.816  0.0000E+00  0.0000E+00  0.0000E+00
    -16.791  0.0000E+00  0.0000E+00  0.0000E+00
    -16.767  0.0000E+00  0.0000E+00  0.0000E+00
    -16.742  0.0000E+00  0.0000E+00  0.0000E+00
    -16.717  0.0000E+00  0.0000E+00  0.0000E+00
    -16.692  0.0000E+00  0.0000E+00  0.0000E+00
    -16.667  0.0000E+00  0.0000E+00  0.0000E+00
    -16.642  0.0000E+00  0.0000E+00  0.0000E+00
    -16.617  0.0000E+00  0.0000E+00  0.0000E+00
    -16.593  0.0000E+00  0.0000E+00  0.0000E+00
    -16.568  0.0000E+00  0.0000E+00  0.0000E+00
    -16.543  0.0000E+00  0.0000E+00  0.0000E+00
    -16.518  0.0000E+00  0.0000E+00  0.0000E+00
    -16.493  0.0000E+00  0.0000E+00  0.0000E+00
    -16.468  0.0000E+00  0.0000E+00  0.0000E+00
    -16.444  0.0000E+00  0.0000E+00  0.0000E+00
    -16.419  0.0000E+00  0.0000E+00  0.0000E+00
    -16.394  0.0000E+00  0.0000E+00  0.0000E+00
    -16.369  0.0000E+00  0.0000E+00  0.0000E+00
    -16.344  0.0000E+00  0.0000E+00  0.0000E+00
    -16.319  0.0000E+00  0.0000E+00  0.0000E+00
    -16.294  0.0000E+00  0.0000E+00  0.0000E+00
    -16.270  0.0000E+00  0.0000E+00  0.0000E+00
    -16.245  0.0000E+00  0.0000E+00  0.0000E+00
    -16.220  0.0000E+00  0.0000E+00  0.0000E+00
    -16.195  0.0000E+00  0.0000E+00  0.0000E+00
    -16.170  0.0000E+00  0.0000E+00  0.0000E+00
    -16.145  0.0000E+00  0.0000E+00  0.0000E+00
    -16.121  0.0000E+00  0.0000E+00  0.0000E+00
    -16.096  0.0000E+00  0.0000E+00  0.0000E+00
    -16.071  0.0000E+00  0.0000E+00  0.0000E+00
    -16.046  0.0000E+00  0.0000E+00  0.0000E+00
    -16.021  0.0000E+00  0.0000E+00  0.0000E+00
    -15.996  0.3162E+00  0.1584E-01  0.0000E+00
    -15.971  0.2749E+00  0.1395E-01  0.0000E+00
    -15.947  0.3129E+00  0.1602E-01  0.0000E+00
    -15.922  0.3098E+00  0.1606E-01  0.0000E+00
    -15.897  0.3306E+00  0.1729E-01  0.0000E+00
    -15.872  0.3598E+00  0.1897E-01  0.0000E+00
    -15.847  0.4164E+00  0.2206E-01  0.0000E+00
    -15.822  0.5322E+00  0.2830E-01  0.0000E+00
    -15.798  0.3939E+00  0.2140E-01  0.0000E+00
    -15.773  0.3624E+00  0.1994E-01  0.0000E+00
    -15.748  0.3013E+00  0.1691E-01  0.0000E+00
    -15.723  0.2925E+00  0.1658E-01  0.0000E+00
    -15.698  0.2726E+00  0.1568E-01  0.0000E+00
    -15.673  0.2554E+00  0.1490E-01  0.0000E+00
    -15.648  0.2326E+00  0.1381E-01  0.0000E+00
    -15.624  0.2284E+00  0.1368E-01  0.0000E+00
    -15.599  0.2241E+00  0.1354E-01  0.0000E+00
    -15.574  0.2194E+00  0.1337E-01  0.0000E+00
    -15.549  0.2087E+00  0.1290E-01  0.0000E+00
    -15.524  0.1944E+00  0.1223E-01  0.0000E+00
    -15.499  0.1914E+00  0.1214E-01  0.0000E+00
    -15.475  0.1888E+00  0.1207E-01  0.0000E+00
    -15.450  0.1862E+00  0.1200E-01  0.0000E+00
    -15.425  0.1834E+00  0.1191E-01  0.0000E+00
    -15.400  0.1800E+00  0.1179E-01  0.0000E+00
    -15.375  0.1727E+00  0.1146E-01  0.0000E+00
    -15.350  0.1689E+00  0.1131E-01  0.0000E+00
    -15.325  0.1667E+00  0.1125E-01  0.0000E+00
    -15.301  0.1650E+00  0.1120E-01  0.0000E+00
    -15.276  0.1633E+00  0.1116E-01  0.0000E+00
    -15.251  0.1617E+00  0.1112E-01  0.0000E+00
    -15.226  0.1599E+00  0.1106E-01  0.0000E+00
    -15.201  0.1573E+00  0.1096E-01  0.0000E+00
    -15.176  0.1542E+00  0.1083E-01  0.0000E+00
    -15.152  0.1543E+00  0.1087E-01  0.0000E+00
    -15.127  0.2198E+00  0.1557E-01  0.0000E+00
    -15.102  0.1729E+00  0.1233E-01  0.0000E+00
    -15.077  0.1487E+00  0.1068E-01  0.0000E+00
    -15.052  0.1351E+00  0.9759E-02  0.0000E+00
    -15.027  0.1269E+00  0.9229E-02  0.0000E+00
    -15.002  0.1343E+00  0.9840E-02  0.0000E+00
    -14.978  0.3030E-01  0.2238E-02  0.0000E+00
    -14.953  0.0000E+00  0.0000E+00  0.0000E+00
    -14.928  0.0000E+00  0.0000E+00  0.0000E+00
    -14.903  0.1953E+00  0.1409E-01  0.0000E+00
    -14.878  0.1368E+00  0.9952E-02  0.0000E+00
    -14.853  0.1294E+00  0.9467E-02  0.0000E+00
    -14.829  0.1379E+00  0.1015E-01  0.0000E+00
    -14.804  0.1592E+00  0.1178E-01  0.0000E+00
    -14.779  0.1748E+00  0.1300E-01  0.0000E+00
    -14.754  0.4245E+00  0.3208E-01  0.0000E+00
    -14.729  0.1417E+00  0.1051E-01  0.0000E+00
    -14.704  0.1419E+00  0.1053E-01  0.0000E+00
    -14.679  0.1421E+00  0.1054E-01  0.0000E+00
    -14.655  0.1429E+00  0.1058E-01  0.0000E+00
    -14.630  0.1439E+00  0.1062E-01  0.0000E+00
    -14.605  0.1446E+00  0.1065E-01  0.0000E+00
    -14.580  0.1452E+00  0.1068E-01  0.0000E+00
    -14.555  0.1459E+00  0.1071E-01  0.0000E+00
    -14.530  0.1467E+00  0.1074E-01  0.0000E+00
    -14.505  0.1480E+00  0.1080E-01  0.0000E+00
    -14.481  0.1483E+00  0.1080E-01  0.0000E+00
    -14.456  0.1486E+00  0.1080E-01  0.0000E+00
    -14.431  0.1488E+00  0.1080E-01  0.0000E+00
    -14.406  0.1519E+00  0.1093E-01  0.0000E+00
    -14.381  0.1550E+00  0.1106E-01  0.0000E+00
    -14.356  0.1573E+00  0.1115E-01  0.0000E+00
    -14.332  0.1595E+00  0.1124E-01  0.0000E+00
    -14.307  0.1618E+00  0.1133E-01  0.0000E+00
    -14.282  0.1646E+00  0.1145E-01  0.0000E+00
    -14.257  0.1680E+00  0.1161E-01  0.0000E+00
    -14.232  0.1684E+00  0.1159E-01  0.0000E+00
    -14.207  0.1688E+00  0.1156E-01  0.0000E+00
    -14.182  0.1761E+00  0.1189E-01  0.0000E+00
    -14.158  0.1834E+00  0.1221E-01  0.0000E+00
    -14.133  0.1889E+00  0.1244E-01  0.0000E+00
    -14.108  0.1939E+00  0.1265E-01  0.0000E+00
    -14.083  0.1992E+00  0.1287E-01  0.0000E+00
    -14.058  0.2062E+00  0.1320E-01  0.0000E+00
    -14.033  0.2128E+00  0.1350E-01  0.0000E+00
    -14.009  0.2204E+00  0.1380E-01  0.0000E+00
    -13.984  0.2426E+00  0.1484E-01  0.0000E+00
    -13.959  0.2553E+00  0.1541E-01  0.0000E+00
    -13.934  0.2663E+00  0.1589E-01  0.0000E+00
    -13.909  0.2771E+00  0.1637E-01  0.0000E+00
    -13.884  0.3140E+00  0.1818E-01  0.0000E+00
    -13.859  0.3857E+00  0.2180E-01  0.0000E+00
    -13.835  0.4160E+00  0.2322E-01  0.0000E+00
    -13.810  0.6604E+00  0.3538E-01  0.0000E+00
    -13.785  0.5080E+00  0.2774E-01  0.0000E+00
    -13.760  0.4185E+00  0.2323E-01  0.0000E+00
    -13.735  0.3837E+00  0.2155E-01  0.0000E+00
    -13.710  0.3552E+00  0.2009E-01  0.0000E+00
    -13.686  0.3163E+00  0.1795E-01  0.0000E+00
    -13.661  0.3075E+00  0.1751E-01  0.0000E+00
    -13.636  0.2099E+00  0.1197E-01  0.0000E+00
    -13.611  0.0000E+00  0.0000E+00  0.0000E+00
    -13.586  0.0000E+00  0.0000E+00  0.0000E+00
    -13.561  0.0000E+00  0.0000E+00  0.0000E+00
    -13.536  0.0000E+00  0.0000E+00  0.0000E+00
    -13.512  0.0000E+00  0.0000E+00  0.0000E+00
    -13.487  0.0000E+00  0.0000E+00  0.0000E+00
    -13.462  0.0000E+00  0.0000E+00  0.0000E+00
    -13.437  0.0000E+00  0.0000E+00  0.0000E+00
    -13.412  0.0000E+00  0.0000E+00  0.0000E+00
    -13.387  0.0000E+00  0.0000E+00  0.0000E+00
    -13.363  0.0000E+00  0.0000E+00  0.0000E+00
    -13.338  0.0000E+00  0.0000E+00  0.0000E+00
    -13.313  0.0000E+00  0.0000E+00  0.0000E+00
    -13.288  0.0000E+00  0.0000E+00  0.0000E+00
    -13.263  0.0000E+00  0.0000E+00  0.0000E+00
    -13.238  0.0000E+00  0.0000E+00  0.0000E+00
    -13.213  0.0000E+00  0.0000E+00  0.0000E+00
    -13.189  0.0000E+00  0.0000E+00  0.0000E+00
    -13.164  0.0000E+00  0.0000E+00  0.0000E+00
    -13.139  0.0000E+00  0.0000E+00  0.0000E+00
    -13.114  0.0000E+00  0.0000E+00  0.0000E+00
    -13.089  0.0000E+00  0.0000E+00  0.0000E+00
    -13.064  0.0000E+00  0.0000E+00  0.0000E+00
    -13.040  0.0000E+00  0.0000E+00  0.0000E+00
    -13.015  0.0000E+00  0.0000E+00  0.0000E+00
    -12.990  0.0000E+00  0.0000E+00  0.0000E+00
    -12.965  0.0000E+00  0.0000E+00  0.0000E+00
    -12.940  0.0000E+00  0.0000E+00  0.0000E+00
    -12.915  0.4083E-03  0.2958E-01  0.0000E+00
    -12.890  0.5028E-03  0.2118E-01  0.0000E+00
    -12.866  0.7562E-03  0.2546E-01  0.0000E+00
    -12.841  0.9608E-03  0.2447E-01  0.0000E+00
    -12.816  0.1158E-02  0.2505E-01  0.0000E+00
    -12.791  0.1350E-02  0.2582E-01  0.0000E+00
    -12.766  0.1574E-02  0.2704E-01  0.0000E+00
    -12.741  0.1778E-02  0.2871E-01  0.0000E+00
    -12.717  0.1989E-02  0.2871E-01  0.0000E+00
    -12.692  0.2229E-02  0.2963E-01  0.0000E+00
    -12.667  0.2431E-02  0.3077E-01  0.0000E+00
    -12.642  0.2637E-02  0.3210E-01  0.0000E+00
    -12.617  0.2947E-02  0.3409E-01  0.0000E+00
    -12.592  0.3215E-02  0.3581E-01  0.0000E+00
    -12.567  0.3496E-02  0.3713E-01  0.0000E+00
    -12.543  0.3891E-02  0.3955E-01  0.0000E+00
    -12.518  0.4410E-02  0.4284E-01  0.0000E+00
    -12.493  0.4868E-02  0.4551E-01  0.0000E+00
    -12.468  0.5333E-02  0.4808E-01  0.0000E+00
    -12.443  0.7074E-02  0.6068E-01  0.0000E+00
    -12.418  0.8487E-02  0.6070E-01  0.0000E+00
    -12.394  0.1329E-01  0.7749E-01  0.0000E+00
    -12.369  0.4368E-01  0.1745E+00  0.0000E+00
    -12.344  0.7980E-01  0.2750E+00  0.0000E+00
    -12.319  0.8356E-01  0.2803E+00  0.0000E+00
    -12.294  0.1037E+00  0.3417E+00  0.0000E+00
    -12.269  0.7207E-01  0.2431E+00  0.0000E+00
    -12.244  0.5866E-01  0.2004E+00  0.0000E+00
    -12.220  0.5889E-01  0.1960E+00  0.0000E+00
    -12.195  0.6936E-01  0.2165E+00  0.0000E+00
    -12.170  0.7754E-01  0.2317E+00  0.0000E+00
    -12.145  0.1626E-01  0.8353E-01  0.0000E+00
    -12.120  0.1323E-01  0.7952E-01  0.0000E+00
    -12.095  0.1013E-01  0.8730E-01  0.0000E+00
    -12.071  0.1002E-01  0.9542E-01  0.0000E+00
    -12.046  0.4778E-02  0.7544E-01  0.0000E+00
    -12.021  0.1998E-02  0.8397E-01  0.0000E+00
    -11.996  0.0000E+00  0.0000E+00  0.0000E+00
    -11.971  0.0000E+00  0.0000E+00  0.0000E+00
    -11.946  0.0000E+00  0.0000E+00  0.0000E+00
    -11.921  0.0000E+00  0.0000E+00  0.0000E+00
    -11.897  0.0000E+00  0.0000E+00  0.0000E+00
    -11.872  0.0000E+00  0.0000E+00  0.0000E+00
    -11.847  0.0000E+00  0.0000E+00  0.0000E+00
    -11.822  0.0000E+00  0.0000E+00  0.0000E+00
    -11.797  0.0000E+00  0.0000E+00  0.0000E+00
    -11.772  0.0000E+00  0.0000E+00  0.0000E+00
    -11.747  0.0000E+00  0.0000E+00  0.0000E+00
    -11.723  0.0000E+00  0.0000E+00  0.0000E+00
    -11.698  0.0000E+00  0.0000E+00  0.0000E+00
    -11.673  0.0000E+00  0.0000E+00  0.0000E+00
    -11.648  0.0000E+00  0.0000E+00  0.0000E+00
    -11.623  0.0000E+00  0.0000E+00  0.0000E+00
    -11.598  0.0000E+00  0.0000E+00  0.0000E+00
    -11.574  0.0000E+00  0.0000E+00  0.0000E+00
    -11.549  0.0000E+00  0.0000E+00  0.0000E+00
    -11.524  0.0000E+00  0.0000E+00  0.0000E+00
    -11.499  0.0000E+00  0.0000E+00  0.0000E+00
    -11.474  0.0000E+00  0.0000E+00  0.0000E+00
    -11.449  0.0000E+00  0.0000E+00  0.0000E+00
    -11.424  0.0000E+00  0.0000E+00  0.0000E+00
    -11.400  0.0000E+00  0.0000E+00  0.0000E+00
    -11.375  0.0000E+00  0.0000E+00  0.0000E+00
    -11.350  0.0000E+00  0.0000E+00  0.0000E+00
    -11.325  0.0000E+00  0.0000E+00  0.0000E+00
    -11.300  0.0000E+00  0.0000E+00  0.0000E+00
    -11.275  0.0000E+00  0.0000E+00  0.0000E+00
    -11.251  0.0000E+00  0.0000E+00  0.0000E+00
    -11.226  0.0000E+00  0.0000E+00  0.0000E+00
    -11.201  0.0000E+00  0.0000E+00  0.0000E+00
    -11.176  0.0000E+00  0.0000E+00  0.0000E+00
    -11.151  0.0000E+00  0.0000E+00  0.0000E+00
    -11.126  0.0000E+00  0.0000E+00  0.0000E+00
    -11.101  0.0000E+00  0.0000E+00  0.0000E+00
    -11.077  0.0000E+00  0.0000E+00  0.0000E+00
    -11.052  0.0000E+00  0.0000E+00  0.0000E+00
    -11.027  0.0000E+00  0.0000E+00  0.0000E+00
    -11.002  0.0000E+00  0.0000E+00  0.0000E+00
    -10.977  0.0000E+00  0.0000E+00  0.0000E+00
    -10.952  0.0000E+00  0.0000E+00  0.0000E+00
    -10.928  0.0000E+00  0.0000E+00  0.0000E+00
    -10.903  0.0000E+00  0.0000E+00  0.0000E+00
    -10.878  0.0000E+00  0.0000E+00  0.0000E+00
    -10.853  0.0000E+00  0.0000E+00  0.0000E+00
    -10.828  0.0000E+00  0.0000E+00  0.0000E+00
    -10.803  0.0000E+00  0.0000E+00  0.0000E+00
    -10.778  0.0000E+00  0.0000E+00  0.0000E+00
    -10.754  0.0000E+00  0.0000E+00  0.0000E+00
    -10.729  0.0000E+00  0.0000E+00  0.0000E+00
    -10.704  0.2158E+00  0.3733E-01  0.0000E+00
    -10.679  0.1976E+00  0.3323E-01  0.0000E+00
    -10.654  0.2043E+00  0.3360E-01  0.0000E+00
    -10.629  0.2139E+00  0.3461E-01  0.0000E+00
    -10.605  0.2148E+00  0.3423E-01  0.0000E+00
    -10.580  0.2187E+00  0.3448E-01  0.0000E+00
    -10.555  0.2241E+00  0.3507E-01  0.0000E+00
    -10.530  0.2334E+00  0.3628E-01  0.0000E+00
    -10.505  0.2360E+00  0.3664E-01  0.0000E+00
    -10.480  0.2390E+00  0.3700E-01  0.0000E+00
    -10.455  0.2438E+00  0.3755E-01  0.0000E+00
    -10.431  0.2540E+00  0.3893E-01  0.0000E+00
    -10.406  0.2712E+00  0.4172E-01  0.0000E+00
    -10.381  0.3308E+00  0.5130E-01  0.0000E+00
    -10.356  0.2688E+00  0.4087E-01  0.0000E+00
    -10.331  0.2538E+00  0.3818E-01  0.0000E+00
    -10.306  0.2456E+00  0.3684E-01  0.0000E+00
    -10.282  0.2553E+00  0.3894E-01  0.0000E+00
    -10.257  0.3161E+00  0.4854E-01  0.0000E+00
    -10.232  0.3989E+00  0.6331E-01  0.0000E+00
    -10.207  0.3932E+00  0.6247E-01  0.0000E+00
    -10.182  0.3536E+00  0.5314E-01  0.0000E+00
    -10.157  0.3636E+00  0.5270E-01  0.0000E+00
    -10.132  0.3829E+00  0.5359E-01  0.0000E+00
    -10.108  0.3944E+00  0.5345E-01  0.0000E+00
    -10.083  0.4351E+00  0.5626E-01  0.0000E+00
    -10.058  0.4982E+00  0.6196E-01  0.0000E+00
    -10.033  0.6533E+00  0.7744E-01  0.0000E+00
    -10.008  0.1932E+00  0.2669E-01  0.0000E+00
     -9.983  0.1796E+00  0.2560E-01  0.0000E+00
     -9.959  0.1691E+00  0.2476E-01  0.0000E+00
     -9.934  0.1337E+00  0.2082E-01  0.0000E+00
     -9.909  0.1318E+00  0.2084E-01  0.0000E+00
     -9.884  0.1300E+00  0.2086E-01  0.0000E+00
     -9.859  0.1280E+00  0.2085E-01  0.0000E+00
     -9.834  0.1256E+00  0.2080E-01  0.0000E+00
     -9.809  0.1231E+00  0.2071E-01  0.0000E+00
     -9.785  0.1201E+00  0.2053E-01  0.0000E+00
     -9.760  0.1169E+00  0.2028E-01  0.0000E+00
     -9.735  0.1136E+00  0.2012E-01  0.0000E+00
     -9.710  0.1098E+00  0.1976E-01  0.0000E+00
     -9.685  0.1071E+00  0.1951E-01  0.0000E+00
     -9.660  0.1064E+00  0.1959E-01  0.0000E+00
     -9.636  0.1056E+00  0.1963E-01  0.0000E+00
     -9.611  0.1047E+00  0.1965E-01  0.0000E+00
     -9.586  0.1039E+00  0.1968E-01  0.0000E+00
     -9.561  0.1030E+00  0.1968E-01  0.0000E+00
     -9.536  0.1046E+00  0.2020E-01  0.0000E+00
     -9.511  0.1050E+00  0.2049E-01  0.0000E+00
     -9.486  0.1048E+00  0.2063E-01  0.0000E+00
     -9.462  0.1046E+00  0.2076E-01  0.0000E+00
     -9.437  0.1038E+00  0.2078E-01  0.0000E+00
     -9.412  0.1027E+00  0.2072E-01  0.0000E+00
     -9.387  0.1017E+00  0.2066E-01  0.0000E+00
     -9.362  0.1084E+00  0.2215E-01  0.0000E+00
     -9.337  0.1115E+00  0.2290E-01  0.0000E+00
     -9.313  0.1145E+00  0.2366E-01  0.0000E+00
     -9.288  0.1154E+00  0.2400E-01  0.0000E+00
     -9.263  0.1158E+00  0.2422E-01  0.0000E+00
     -9.238  0.1573E+00  0.3293E-01  0.0000E+00
     -9.213  0.1511E+00  0.3189E-01  0.0000E+00
     -9.188  0.1303E+00  0.2772E-01  0.0000E+00
     -9.163  0.1110E+00  0.2384E-01  0.0000E+00
     -9.139  0.1042E+00  0.2253E-01  0.0000E+00
     -9.114  0.1006E+00  0.2182E-01  0.0000E+00
     -9.089  0.9696E-01  0.2110E-01  0.0000E+00
     -9.064  0.9212E-01  0.2012E-01  0.0000E+00
     -9.039  0.8733E-01  0.1914E-01  0.0000E+00
     -9.014  0.8418E-01  0.1849E-01  0.0000E+00
     -8.990  0.8153E-01  0.1795E-01  0.0000E+00
     -8.965  0.7960E-01  0.1754E-01  0.0000E+00
     -8.940  0.7765E-01  0.1712E-01  0.0000E+00
     -8.915  0.7556E-01  0.1666E-01  0.0000E+00
     -8.890  0.7297E-01  0.1608E-01  0.0000E+00
     -8.865  0.7088E-01  0.1562E-01  0.0000E+00
     -8.840  0.6884E-01  0.1516E-01  0.0000E+00
     -8.816  0.6768E-01  0.1487E-01  0.0000E+00
     -8.791  0.6653E-01  0.1457E-01  0.0000E+00
     -8.766  0.6591E-01  0.1436E-01  0.0000E+00
     -8.741  0.6555E-01  0.1416E-01  0.0000E+00
     -8.716  0.6349E-01  0.1366E-01  0.0000E+00
     -8.691  0.6103E-01  0.1308E-01  0.0000E+00
     -8.666  0.5919E-01  0.1264E-01  0.0000E+00
     -8.642  0.5735E-01  0.1220E-01  0.0000E+00
     -8.617  0.5607E-01  0.1185E-01  0.0000E+00
     -8.592  0.5494E-01  0.1154E-01  0.0000E+00
     -8.567  0.5413E-01  0.1124E-01  0.0000E+00
     -8.542  0.5257E-01  0.1085E-01  0.0000E+00
     -8.517  0.5332E-01  0.1090E-01  0.0000E+00
     -8.493  0.6197E-01  0.1245E-01  0.0000E+00
     -8.468  0.5593E-01  0.1111E-01  0.0000E+00
     -8.443  0.4664E-01  0.9179E-02  0.0000E+00
     -8.418  0.3355E-01  0.6555E-02  0.0000E+00
     -8.393  0.2039E-01  0.3940E-02  0.0000E+00
     -8.368  0.0000E+00  0.0000E+00  0.0000E+00
     -8.343  0.0000E+00  0.0000E+00  0.0000E+00
     -8.319  0.0000E+00  0.0000E+00  0.0000E+00
     -8.294  0.0000E+00  0.0000E+00  0.0000E+00
     -8.269  0.0000E+00  0.0000E+00  0.0000E+00
     -8.244  0.0000E+00  0.0000E+00  0.0000E+00
     -8.219  0.0000E+00  0.0000E+00  0.0000E+00
     -8.194  0.1003E-02  0.3425E-02  0.0000E+00
     -8.170  0.1227E-02  0.3920E-02  0.0000E+00
     -8.145  0.1288E-02  0.4221E-02  0.0000E+00
     -8.120  0.1212E-02  0.4038E-02  0.0000E+00
     -8.095  0.1026E-02  0.3716E-02  0.0000E+00
     -8.070  0.9435E-03  0.3651E-02  0.0000E+00
     -8.045  0.2306E-02  0.5532E-02  0.0000E+00
     -8.020  0.2556E-02  0.5966E-02  0.0000E+00
     -7.996  0.2772E-02  0.6379E-02  0.0000E+00
     -7.971  0.2891E-02  0.6770E-02  0.0000E+00
     -7.946  0.3054E-02  0.7222E-02  0.0000E+00
     -7.921  0.3190E-02  0.7499E-02  0.0000E+00
     -7.896  0.3426E-02  0.7973E-02  0.0000E+00
     -7.871  0.3673E-02  0.8489E-02  0.0000E+00
     -7.847  0.3917E-02  0.9103E-02  0.0000E+00
     -7.822  0.4171E-02  0.9861E-02  0.0000E+00
     -7.797  0.4405E-02  0.1070E-01  0.0000E+00
     -7.772  0.4647E-02  0.1144E-01  0.0000E+00
     -7.747  0.4884E-02  0.1216E-01  0.0000E+00
     -7.722  0.5132E-02  0.1341E-01  0.0000E+00
     -7.697  0.5517E-02  0.1535E-01  0.0000E+00
     -7.673  0.5898E-02  0.1723E-01  0.0000E+00
     -7.648  0.6358E-02  0.1952E-01  0.0000E+00
     -7.623  0.6947E-02  0.2247E-01  0.0000E+00
     -7.598  0.2425E-01  0.1344E+00  0.0000E+00
     -7.573  0.4457E-01  0.2398E+00  0.0000E+00
     -7.548  0.4556E-01  0.2641E+00  0.0000E+00
     -7.524  0.3994E-01  0.2814E+00  0.0000E+00
     -7.499  0.2920E-01  0.2093E+00  0.0000E+00
     -7.474  0.2465E-01  0.1630E+00  0.0000E+00
     -7.449  0.2319E-01  0.1384E+00  0.0000E+00
     -7.424  0.2591E-01  0.1751E+00  0.0000E+00
     -7.399  0.3472E-01  0.2922E+00  0.0000E+00
     -7.374  0.2860E-01  0.2079E+00  0.0000E+00
     -7.350  0.3660E-01  0.2731E+00  0.0000E+00
     -7.325  0.3423E-01  0.2672E+00  0.0000E+00
     -7.300  0.2758E-01  0.2240E+00  0.0000E+00
     -7.275  0.2625E-01  0.2249E+00  0.0000E+00
     -7.250  0.2459E-01  0.2285E+00  0.0000E+00
     -7.225  0.2281E-01  0.2297E+00  0.0000E+00
     -7.201  0.2290E-01  0.2493E+00  0.0000E+00
     -7.176  0.2377E-01  0.2525E+00  0.0000E+00
     -7.151  0.2744E-01  0.2820E+00  0.0000E+00
     -7.126  0.3199E-01  0.2779E+00  0.0000E+00
     -7.101  0.2227E-01  0.1789E+00  0.0000E+00
     -7.076  0.2749E-01  0.2004E+00  0.0000E+00
     -7.051  0.1916E-01  0.1392E+00  0.0000E+00
     -7.027  0.1559E-01  0.1359E+00  0.0000E+00
     -7.002  0.1517E-01  0.1420E+00  0.0000E+00
     -6.977  0.1471E-01  0.1473E+00  0.0000E+00
     -6.952  0.1467E-01  0.1234E+00  0.0000E+00
     -6.927  0.1453E-01  0.1140E+00  0.0000E+00
     -6.902  0.1370E-01  0.1112E+00  0.0000E+00
     -6.878  0.1079E-01  0.9719E-01  0.0000E+00
     -6.853  0.7303E-02  0.7486E-01  0.0000E+00
     -6.828  0.4811E-02  0.4088E-01  0.0000E+00
     -6.803  0.7596E-02  0.4259E-01  0.0000E+00
     -6.778  0.1837E-01  0.5415E-01  0.0000E+00
     -6.753  0.4750E-01  0.9095E-01  0.0000E+00
     -6.728  0.4060E-01  0.8616E-01  0.0000E+00
     -6.704  0.3769E-01  0.8580E-01  0.0000E+00
     -6.679  0.3902E-01  0.9071E-01  0.0000E+00
     -6.654  0.4751E-01  0.1078E+00  0.0000E+00
     -6.629  0.3532E-01  0.9140E-01  0.0000E+00
     -6.604  0.3245E-01  0.8818E-01  0.0000E+00
     -6.579  0.3140E-01  0.1074E+00  0.0000E+00
     -6.555  0.3489E-01  0.1217E+00  0.0000E+00
     -6.530  0.4215E-01  0.1425E+00  0.0000E+00
     -6.505  0.4351E-01  0.1542E+00  0.0000E+00
     -6.480  0.4757E-01  0.1874E+00  0.0000E+00
     -6.455  0.5640E-01  0.2614E+00  0.0000E+00
     -6.430  0.4432E-01  0.2276E+00  0.0000E+00
     -6.405  0.4114E-01  0.2301E+00  0.0000E+00
     -6.381  0.3906E-01  0.2380E+00  0.0000E+00
     -6.356  0.3784E-01  0.2531E+00  0.0000E+00
     -6.331  0.4255E-01  0.2965E+00  0.0000E+00
     -6.306  0.4154E-01  0.3198E+00  0.0000E+00
     -6.281  0.3468E-01  0.2926E+00  0.0000E+00
     -6.256  0.3898E-01  0.3321E+00  0.0000E+00
     -6.232  0.5340E-01  0.4896E+00  0.0000E+00
     -6.207  0.4588E-01  0.3936E+00  0.0000E+00
     -6.182  0.4543E-01  0.3700E+00  0.0000E+00
     -6.157  0.4477E-01  0.4247E+00  0.0000E+00
     -6.132  0.4766E-01  0.3857E+00  0.0000E+00
     -6.107  0.4262E-01  0.3008E+00  0.0000E+00
     -6.082  0.3126E-01  0.2537E+00  0.0000E+00
     -6.058  0.1250E-01  0.1986E+00  0.0000E+00
     -6.033  0.1073E-01  0.1684E+00  0.0000E+00
     -6.008  0.9810E-02  0.1598E+00  0.0000E+00
     -5.983  0.9160E-02  0.1534E+00  0.0000E+00
     -5.958  0.8757E-02  0.1499E+00  0.0000E+00
     -5.933  0.8269E-02  0.1453E+00  0.0000E+00
     -5.909  0.8429E-02  0.1445E+00  0.0000E+00
     -5.884  0.1470E-01  0.1810E+00  0.0000E+00
     -5.859  0.2143E-01  0.2198E+00  0.0000E+00
     -5.834  0.2092E-01  0.2263E+00  0.0000E+00
     -5.809  0.1769E-01  0.2065E+00  0.0000E+00
     -5.784  0.2104E-01  0.2385E+00  0.0000E+00
     -5.759  0.1966E-01  0.2289E+00  0.0000E+00
     -5.735  0.2021E-01  0.2350E+00  0.0000E+00
     -5.710  0.2553E-01  0.2833E+00  0.0000E+00
     -5.685  0.2160E-01  0.1956E+00  0.0000E+00
     -5.660  0.2140E-01  0.2004E+00  0.0000E+00
     -5.635  0.2295E-01  0.2154E+00  0.0000E+00
     -5.610  0.2593E-01  0.2438E+00  0.0000E+00
     -5.585  0.3173E-01  0.2638E+00  0.0000E+00
     -5.561  0.3393E-01  0.3267E+00  0.0000E+00
     -5.536  0.3629E-01  0.3210E+00  0.0000E+00
     -5.511  0.3330E-01  0.2293E+00  0.0000E+00
     -5.486  0.3304E-01  0.2078E+00  0.0000E+00
     -5.461  0.3277E-01  0.2248E+00  0.0000E+00
     -5.436  0.3691E-01  0.2790E+00  0.0000E+00
     -5.412  0.4104E-01  0.3379E+00  0.0000E+00
     -5.387  0.3935E-01  0.3137E+00  0.0000E+00
     -5.362  0.3797E-01  0.3118E+00  0.0000E+00
     -5.337  0.3482E-01  0.3066E+00  0.0000E+00
     -5.312  0.3270E-01  0.2989E+00  0.0000E+00
     -5.287  0.3319E-01  0.3046E+00  0.0000E+00
     -5.262  0.3248E-01  0.2686E+00  0.0000E+00
     -5.238  0.3733E-01  0.3146E+00  0.0000E+00
     -5.213  0.3313E-01  0.2682E+00  0.0000E+00
     -5.188  0.3198E-01  0.2602E+00  0.0000E+00
     -5.163  0.2863E-01  0.2540E+00  0.0000E+00
     -5.138  0.2217E-01  0.2423E+00  0.0000E+00
     -5.113  0.1836E-01  0.2450E+00  0.0000E+00
     -5.089  0.1442E-01  0.2120E+00  0.0000E+00
     -5.064  0.1353E-01  0.2026E+00  0.0000E+00
     -5.039  0.1365E-01  0.2096E+00  0.0000E+00
     -5.014  0.1512E-01  0.2261E+00  0.0000E+00
     -4.989  0.1517E-01  0.2301E+00  0.0000E+00
     -4.964  0.1532E-01  0.2357E+00  0.0000E+00
     -4.939  0.1475E-01  0.2332E+00  0.0000E+00
     -4.915  0.1432E-01  0.2320E+00  0.0000E+00
     -4.890  0.1315E-01  0.2286E+00  0.0000E+00
     -4.865  0.1269E-01  0.2364E+00  0.0000E+00
     -4.840  0.1562E-01  0.2782E+00  0.0000E+00
     -4.815  0.1839E-01  0.3544E+00  0.0000E+00
     -4.790  0.1989E-01  0.2757E+00  0.0000E+00
     -4.766  0.2454E-01  0.3019E+00  0.0000E+00
     -4.741  0.2770E-01  0.3190E+00  0.0000E+00
     -4.716  0.2667E-01  0.3964E+00  0.0000E+00
     -4.691  0.2382E-01  0.3220E+00  0.0000E+00
     -4.666  0.2309E-01  0.3030E+00  0.0000E+00
     -4.641  0.2357E-01  0.2943E+00  0.0000E+00
     -4.616  0.2481E-01  0.3018E+00  0.0000E+00
     -4.592  0.2719E-01  0.3237E+00  0.0000E+00
     -4.567  0.2837E-01  0.3113E+00  0.0000E+00
     -4.542  0.2700E-01  0.2990E+00  0.0000E+00
     -4.517  0.3182E-01  0.3255E+00  0.0000E+00
     -4.492  0.1983E-01  0.2306E+00  0.0000E+00
     -4.467  0.1873E-01  0.1897E+00  0.0000E+00
     -4.443  0.1851E-01  0.1913E+00  0.0000E+00
     -4.418  0.1860E-01  0.2002E+00  0.0000E+00
     -4.393  0.1771E-01  0.1983E+00  0.0000E+00
     -4.368  0.1301E-01  0.2025E+00  0.0000E+00
     -4.343  0.1281E-01  0.2171E+00  0.0000E+00
     -4.318  0.1325E-01  0.1439E+00  0.0000E+00
     -4.293  0.1386E-01  0.1477E+00  0.0000E+00
     -4.269  0.1449E-01  0.1511E+00  0.0000E+00
     -4.244  0.1604E-01  0.1676E+00  0.0000E+00
     -4.219  0.1689E-01  0.1739E+00  0.0000E+00
     -4.194  0.1736E-01  0.1776E+00  0.0000E+00
     -4.169  0.1725E-01  0.1770E+00  0.0000E+00
     -4.144  0.1693E-01  0.1639E+00  0.0000E+00
     -4.120  0.1716E-01  0.1636E+00  0.0000E+00
     -4.095  0.1758E-01  0.1643E+00  0.0000E+00
     -4.070  0.1785E-01  0.1637E+00  0.0000E+00
     -4.045  0.1783E-01  0.1644E+00  0.0000E+00
     -4.020  0.1846E-01  0.1739E+00  0.0000E+00
     -3.995  0.2144E-01  0.1943E+00  0.0000E+00
     -3.970  0.2167E-01  0.1991E+00  0.0000E+00
     -3.946  0.2443E-01  0.2200E+00  0.0000E+00
     -3.921  0.3244E-01  0.2421E+00  0.0000E+00
     -3.896  0.3279E-01  0.2401E+00  0.0000E+00
     -3.871  0.3427E-01  0.2556E+00  0.0000E+00
     -3.846  0.4279E-01  0.3504E+00  0.0000E+00
     -3.821  0.3955E-01  0.3379E+00  0.0000E+00
     -3.797  0.3378E-01  0.2912E+00  0.0000E+00
     -3.772  0.2501E-01  0.2051E+00  0.0000E+00
     -3.747  0.2371E-01  0.1867E+00  0.0000E+00
     -3.722  0.2276E-01  0.1762E+00  0.0000E+00
     -3.697  0.2137E-01  0.1639E+00  0.0000E+00
     -3.672  0.1894E-01  0.1468E+00  0.0000E+00
     -3.647  0.1738E-01  0.1325E+00  0.0000E+00
     -3.623  0.2169E-01  0.1734E+00  0.0000E+00
     -3.598  0.2197E-01  0.1805E+00  0.0000E+00
     -3.573  0.2353E-01  0.1932E+00  0.0000E+00
     -3.548  0.2220E-01  0.1760E+00  0.0000E+00
     -3.523  0.2075E-01  0.1768E+00  0.0000E+00
     -3.498  0.1828E-01  0.1523E+00  0.0000E+00
     -3.474  0.1861E-01  0.1585E+00  0.0000E+00
     -3.449  0.2136E-01  0.1805E+00  0.0000E+00
     -3.424  0.2278E-01  0.1989E+00  0.0000E+00
     -3.399  0.2252E-01  0.2076E+00  0.0000E+00
     -3.374  0.2335E-01  0.2204E+00  0.0000E+00
     -3.349  0.4802E-01  0.5088E+00  0.0000E+00
     -3.324  0.4053E-01  0.4449E+00  0.0000E+00
     -3.300  0.3036E-01  0.3228E+00  0.0000E+00
     -3.275  0.3234E-01  0.3566E+00  0.0000E+00
     -3.250  0.3247E-01  0.3535E+00  0.0000E+00
     -3.225  0.3111E-01  0.3290E+00  0.0000E+00
     -3.200  0.2594E-01  0.2600E+00  0.0000E+00
     -3.175  0.2027E-01  0.2061E+00  0.0000E+00
     -3.151  0.2256E-01  0.2501E+00  0.0000E+00
     -3.126  0.1981E-01  0.2144E+00  0.0000E+00
     -3.101  0.1888E-01  0.2016E+00  0.0000E+00
     -3.076  0.2116E-01  0.2479E+00  0.0000E+00
     -3.051  0.2168E-01  0.2788E+00  0.0000E+00
     -3.026  0.1557E-01  0.1306E+00  0.0000E+00
     -3.001  0.1695E-01  0.1275E+00  0.0000E+00
     -2.977  0.2068E-01  0.1455E+00  0.0000E+00
     -2.952  0.1115E-01  0.7832E-01  0.0000E+00
     -2.927  0.1169E-01  0.7793E-01  0.0000E+00
     -2.902  0.2302E-01  0.1392E+00  0.0000E+00
     -2.877  0.1866E-01  0.1106E+00  0.0000E+00
     -2.852  0.1909E-01  0.1130E+00  0.0000E+00
     -2.827  0.2636E-01  0.1661E+00  0.0000E+00
     -2.803  0.2213E-01  0.1371E+00  0.0000E+00
     -2.778  0.2374E-01  0.1513E+00  0.0000E+00
     -2.753  0.2508E-01  0.1526E+00  0.0000E+00
     -2.728  0.3614E-01  0.1941E+00  0.0000E+00
     -2.703  0.3978E-01  0.2080E+00  0.0000E+00
     -2.678  0.5040E-01  0.2688E+00  0.0000E+00
     -2.654  0.4585E-01  0.2279E+00  0.0000E+00
     -2.629  0.4283E-01  0.2208E+00  0.0000E+00
     -2.604  0.4433E-01  0.2235E+00  0.0000E+00
     -2.579  0.5369E-01  0.2450E+00  0.0000E+00
     -2.554  0.5654E-01  0.2421E+00  0.0000E+00
     -2.529  0.4477E-01  0.1831E+00  0.0000E+00
     -2.504  0.4550E-01  0.1825E+00  0.0000E+00
     -2.480  0.4752E-01  0.1874E+00  0.0000E+00
     -2.455  0.5281E-01  0.2087E+00  0.0000E+00
     -2.430  0.6044E-01  0.2334E+00  0.0000E+00
     -2.405  0.4886E-01  0.1804E+00  0.0000E+00
     -2.380  0.4457E-01  0.1603E+00  0.0000E+00
     -2.355  0.3566E-01  0.1259E+00  0.0000E+00
     -2.331  0.3807E-01  0.1306E+00  0.0000E+00
     -2.306  0.4583E-01  0.1532E+00  0.0000E+00
     -2.281  0.3260E-01  0.1045E+00  0.0000E+00
     -2.256  0.3167E-01  0.9469E-01  0.0000E+00
     -2.231  0.2589E-01  0.8099E-01  0.0000E+00
     -2.206  0.2424E-01  0.7763E-01  0.0000E+00
     -2.181  0.1987E-01  0.7063E-01  0.0000E+00
     -2.157  0.2119E-01  0.7697E-01  0.0000E+00
     -2.132  0.1434E-01  0.4386E-01  0.0000E+00
     -2.107  0.1237E-01  0.3387E-01  0.0000E+00
     -2.082  0.1277E-01  0.3464E-01  0.0000E+00
     -2.057  0.1484E-01  0.3975E-01  0.0000E+00
     -2.032  0.1426E-01  0.3808E-01  0.0000E+00
     -2.008  0.1265E-01  0.3368E-01  0.0000E+00
     -1.983  0.1439E-01  0.3823E-01  0.0000E+00
     -1.958  0.0000E+00  0.0000E+00  0.0000E+00
     -1.933  0.0000E+00  0.0000E+00  0.0000E+00
     -1.908  0.0000E+00  0.0000E+00  0.0000E+00
     -1.883  0.0000E+00  0.0000E+00  0.0000E+00
     -1.858  0.0000E+00  0.0000E+00  0.0000E+00
     -1.834  0.0000E+00  0.0000E+00  0.0000E+00
     -1.809  0.4793E-04  0.5499E-03  0.0000E+00
     -1.784  0.1632E-03  0.1730E-02  0.0000E+00
     -1.759  0.2944E-03  0.2897E-02  0.0000E+00
     -1.734  0.4663E-03  0.3420E-02  0.0000E+00
     -1.709  0.6424E-03  0.3897E-02  0.0000E+00
     -1.685  0.8218E-03  0.4352E-02  0.0000E+00
     -1.660  0.1217E-02  0.3897E-02  0.0000E+00
     -1.635  0.1725E-02  0.3809E-02  0.0000E+00
     -1.610  0.2274E-02  0.3991E-02  0.0000E+00
     -1.585  0.2939E-02  0.4335E-02  0.0000E+00
     -1.560  0.3672E-02  0.4649E-02  0.0000E+00
     -1.535  0.4858E-02  0.4845E-02  0.0000E+00
     -1.511  0.6170E-01  0.2423E-01  0.0000E+00
     -1.486  0.2222E-01  0.1290E-01  0.0000E+00
     -1.461  0.2940E-01  0.1344E-01  0.0000E+00
     -1.436  0.2496E-01  0.1158E-01  0.0000E+00
     -1.411  0.2360E-01  0.1174E-01  0.0000E+00
     -1.386  0.2535E-01  0.1515E-01  0.0000E+00
     -1.362  0.2345E-01  0.1523E-01  0.0000E+00
     -1.337  0.2166E-01  0.1515E-01  0.0000E+00
     -1.312  0.2048E-01  0.1519E-01  0.0000E+00
     -1.287  0.1859E-01  0.1485E-01  0.0000E+00
     -1.262  0.1659E-01  0.1482E-01  0.0000E+00
     -1.237  0.1546E-01  0.1476E-01  0.0000E+00
     -1.212  0.1520E-01  0.1514E-01  0.0000E+00
     -1.188  0.1520E-01  0.1590E-01  0.0000E+00
     -1.163  0.1517E-01  0.1657E-01  0.0000E+00
     -1.138  0.1538E-01  0.1734E-01  0.0000E+00
     -1.113  0.1545E-01  0.1797E-01  0.0000E+00
     -1.088  0.1515E-01  0.1850E-01  0.0000E+00
     -1.063  0.1537E-01  0.1933E-01  0.0000E+00
     -1.039  0.2011E-01  0.2696E-01  0.0000E+00
     -1.014  0.2014E-01  0.2738E-01  0.0000E+00
     -0.989  0.1324E-01  0.1834E-01  0.0000E+00
     -0.964  0.1235E-01  0.1734E-01  0.0000E+00
     -0.939  0.1199E-01  0.1710E-01  0.0000E+00
     -0.914  0.1198E-01  0.1723E-01  0.0000E+00
     -0.889  0.1196E-01  0.1735E-01  0.0000E+00
     -0.865  0.1182E-01  0.1728E-01  0.0000E+00
     -0.840  0.1223E-01  0.1831E-01  0.0000E+00
     -0.815  0.1295E-01  0.1967E-01  0.0000E+00
     -0.790  0.1361E-01  0.2081E-01  0.0000E+00
     -0.765  0.1433E-01  0.2193E-01  0.0000E+00
     -0.740  0.1600E-01  0.2568E-01  0.0000E+00
     -0.716  0.1643E-01  0.2749E-01  0.0000E+00
     -0.691  0.1652E-01  0.2722E-01  0.0000E+00
     -0.666  0.1677E-01  0.2724E-01  0.0000E+00
     -0.641  0.1705E-01  0.2795E-01  0.0000E+00
     -0.616  0.1970E-01  0.3399E-01  0.0000E+00
     -0.591  0.2490E-01  0.4572E-01  0.0000E+00
     -0.566  0.3521E-01  0.6862E-01  0.0000E+00
     -0.542  0.2080E-01  0.3830E-01  0.0000E+00
     -0.517  0.2106E-01  0.3947E-01  0.0000E+00
     -0.492  0.2031E-01  0.3968E-01  0.0000E+00
     -0.467  0.2338E-01  0.5397E-01  0.0000E+00
     -0.442  0.2677E-01  0.6549E-01  0.0000E+00
     -0.417  0.2608E-01  0.6214E-01  0.0000E+00
     -0.393  0.2597E-01  0.6233E-01  0.0000E+00
     -0.368  0.2728E-01  0.6536E-01  0.0000E+00
     -0.343  0.2948E-01  0.7272E-01  0.0000E+00
     -0.318  0.4131E-01  0.1093E+00  0.0000E+00
     -0.293  0.3291E-01  0.8253E-01  0.0000E+00
     -0.268  0.3243E-01  0.8047E-01  0.0000E+00
     -0.243  0.3303E-01  0.8028E-01  0.0000E+00
     -0.219  0.4330E-01  0.8680E-01  0.0000E+00
     -0.194  0.6378E-01  0.9660E-01  0.0000E+00
     -0.169  0.7725E-01  0.1068E+00  0.0000E+00
     -0.144  0.6938E-01  0.9452E-01  0.0000E+00
     -0.119  0.6808E-01  0.9633E-01  0.0000E+00
     -0.094  0.9311E-01  0.3352E+00  0.0000E+00
     -0.070  0.7190E-01  0.2743E+00  0.0000E+00
     -0.045  0.6430E-01  0.3165E+00  0.0000E+00
     -0.020  0.6143E-01  0.3536E+00  0.0000E+00
      0.005  0.5356E-01  0.5579E+00  0.0000E+00
      0.030  0.4376E-01  0.3916E+00  0.0000E+00
      0.055  0.3705E-01  0.2777E+00  0.0000E+00
      0.080  0.3389E-01  0.2379E+00  0.0000E+00
      0.104  0.2869E-01  0.1713E+00  0.0000E+00
      0.129  0.2697E-01  0.1644E+00  0.0000E+00
      0.154  0.2528E-01  0.1602E+00  0.0000E+00
      0.179  0.2147E-01  0.1414E+00  0.0000E+00
      0.204  0.1860E-01  0.1070E+00  0.0000E+00
      0.229  0.2027E-01  0.1032E+00  0.0000E+00
      0.254  0.3386E-01  0.1916E+00  0.0000E+00
      0.278  0.3415E-01  0.1705E+00  0.0000E+00
      0.303  0.3486E-01  0.1665E+00  0.0000E+00
      0.328  0.3873E-01  0.1651E+00  0.0000E+00
      0.353  0.3681E-01  0.1649E+00  0.0000E+00
      0.378  0.5070E-01  0.2365E+00  0.0000E+00
      0.403  0.6007E-01  0.2508E+00  0.0000E+00
      0.427  0.5786E-01  0.2227E+00  0.0000E+00
      0.452  0.5749E-01  0.2153E+00  0.0000E+00
      0.477  0.5101E-01  0.1844E+00  0.0000E+00
      0.502  0.4354E-01  0.1659E+00  0.0000E+00
      0.527  0.3948E-01  0.1453E+00  0.0000E+00
      0.552  0.4024E-01  0.1366E+00  0.0000E+00
      0.577  0.4093E-01  0.1298E+00  0.0000E+00
      0.601  0.4822E-01  0.1655E+00  0.0000E+00
      0.626  0.4880E-01  0.1608E+00  0.0000E+00
      0.651  0.5384E-01  0.1658E+00  0.0000E+00
      0.676  0.5101E-01  0.1650E+00  0.0000E+00
      0.701  0.5266E-01  0.1724E+00  0.0000E+00
      0.726  0.5977E-01  0.2204E+00  0.0000E+00
      0.750  0.6168E-01  0.2144E+00  0.0000E+00
      0.775  0.5470E-01  0.1888E+00  0.0000E+00
      0.800  0.6622E-01  0.2074E+00  0.0000E+00
      0.825  0.5986E-01  0.2040E+00  0.0000E+00
      0.850  0.6279E-01  0.2338E+00  0.0000E+00
      0.875  0.5877E-01  0.2336E+00  0.0000E+00
      0.900  0.4591E-01  0.2126E+00  0.0000E+00
      0.924  0.4747E-01  0.2195E+00  0.0000E+00
      0.949  0.4366E-01  0.2139E+00  0.0000E+00
      0.974  0.4488E-01  0.2456E+00  0.0000E+00
      0.999  0.4363E-01  0.2474E+00  0.0000E+00
      1.024  0.4058E-01  0.2319E+00  0.0000E+00
      1.049  0.4451E-01  0.2434E+00  0.0000E+00
      1.073  0.4520E-01  0.2531E+00  0.0000E+00
      1.098  0.4572E-01  0.2647E+00  0.0000E+00
      1.123  0.3813E-01  0.2347E+00  0.0000E+00
      1.148  0.3345E-01  0.2156E+00  0.0000E+00
      1.173  0.3601E-01  0.2286E+00  0.0000E+00
      1.198  0.3947E-01  0.2487E+00  0.0000E+00
      1.223  0.4045E-01  0.2721E+00  0.0000E+00
      1.247  0.5761E-01  0.3688E+00  0.0000E+00
      1.272  0.2457E-01  0.2144E+00  0.0000E+00
      1.297  0.1714E-01  0.1524E+00  0.0000E+00
      1.322  0.1181E-01  0.1072E+00  0.0000E+00
      1.347  0.1005E-01  0.8556E-01  0.0000E+00
      1.372  0.9409E-02  0.8591E-01  0.0000E+00
      1.396  0.9397E-02  0.9178E-01  0.0000E+00
      1.421  0.9973E-02  0.1033E+00  0.0000E+00
      1.446  0.1136E-01  0.1248E+00  0.0000E+00
      1.471  0.1178E-01  0.1339E+00  0.0000E+00
      1.496  0.1224E-01  0.1376E+00  0.0000E+00
      1.521  0.1278E-01  0.1394E+00  0.0000E+00
      1.546  0.1421E-01  0.1546E+00  0.0000E+00
      1.570  0.1061E-01  0.1042E+00  0.0000E+00
      1.595  0.8500E-02  0.8202E-01  0.0000E+00
      1.620  0.7395E-02  0.6524E-01  0.0000E+00
      1.645  0.6359E-02  0.5887E-01  0.0000E+00
      1.670  0.6142E-02  0.5709E-01  0.0000E+00
      1.695  0.7002E-02  0.6552E-01  0.0000E+00
      1.719  0.9444E-02  0.9069E-01  0.0000E+00
      1.744  0.8658E-02  0.7602E-01  0.0000E+00
      1.769  0.6952E-02  0.5956E-01  0.0000E+00
      1.794  0.6796E-02  0.5662E-01  0.0000E+00
      1.819  0.7468E-02  0.5664E-01  0.0000E+00
      1.844  0.9689E-02  0.6449E-01  0.0000E+00
      1.869  0.4959E-02  0.3831E-01  0.0000E+00
      1.893  0.2452E-02  0.2213E-01  0.0000E+00
      1.918  0.6908E-03  0.1027E-01  0.0000E+00
      1.943  0.5260E-03  0.8095E-02  0.0000E+00
      1.968  0.3706E-03  0.5909E-02  0.0000E+00
      1.993  0.2245E-03  0.3713E-02  0.0000E+00
      2.018  0.8782E-04  0.1508E-02  0.0000E+00
      2.042  0.0000E+00  0.0000E+00  0.0000E+00
      2.067  0.0000E+00  0.0000E+00  0.0000E+00
      2.092  0.0000E+00  0.0000E+00  0.0000E+00
      2.117  0.0000E+00  0.0000E+00  0.0000E+00
      2.142  0.0000E+00  0.0000E+00  0.0000E+00
      2.167  0.0000E+00  0.0000E+00  0.0000E+00
      2.192  0.0000E+00  0.0000E+00  0.0000E+00
      2.216  0.0000E+00  0.0000E+00  0.0000E+00
      2.241  0.0000E+00  0.0000E+00  0.0000E+00
      2.266  0.0000E+00  0.0000E+00  0.0000E+00
      2.291  0.0000E+00  0.0000E+00  0.0000E+00
      2.316  0.0000E+00  0.0000E+00  0.0000E+00
      2.341  0.0000E+00  0.0000E+00  0.0000E+00
      2.365  0.0000E+00  0.0000E+00  0.0000E+00
      2.390  0.0000E+00  0.0000E+00  0.0000E+00
      2.415  0.0000E+00  0.0000E+00  0.0000E+00
      2.440  0.0000E+00  0.0000E+00  0.0000E+00
      2.465  0.0000E+00  0.0000E+00  0.0000E+00
      2.490  0.0000E+00  0.0000E+00  0.0000E+00
      2.515  0.0000E+00  0.0000E+00  0.0000E+00
      2.539  0.0000E+00  0.0000E+00  0.0000E+00
      2.564  0.0000E+00  0.0000E+00  0.0000E+00
      2.589  0.0000E+00  0.0000E+00  0.0000E+00
      2.614  0.0000E+00  0.0000E+00  0.0000E+00
      2.639  0.0000E+00  0.0000E+00  0.0000E+00
      2.664  0.0000E+00  0.0000E+00  0.0000E+00
      2.688  0.0000E+00  0.0000E+00  0.0000E+00
      2.713  0.0000E+00  0.0000E+00  0.0000E+00
      2.738  0.0000E+00  0.0000E+00  0.0000E+00
      2.763  0.0000E+00  0.0000E+00  0.0000E+00
      2.788  0.0000E+00  0.0000E+00  0.0000E+00
      2.813  0.0000E+00  0.0000E+00  0.0000E+00
      2.838  0.0000E+00  0.0000E+00  0.0000E+00
      2.862  0.0000E+00  0.0000E+00  0.0000E+00
      2.887  0.0000E+00  0.0000E+00  0.0000E+00
      2.912  0.0000E+00  0.0000E+00  0.0000E+00
      2.937  0.0000E+00  0.0000E+00  0.0000E+00
      2.93695651    -16.91563261  800     -1.95165038      1.00000000
    -16.916  0.0000E+00  0.0000E+00  0.0000E+00
    -16.891  0.0000E+00  0.0000E+00  0.0000E+00
    -16.866  0.0000E+00  0.0000E+00  0.0000E+00
    -16.841  0.0000E+00  0.0000E+00  0.0000E+00
    -16.816  0.0000E+00  0.0000E+00  0.0000E+00
    -16.791  0.0000E+00  0.0000E+00  0.0000E+00
    -16.767  0.0000E+00  0.0000E+00  0.0000E+00
    -16.742  0.0000E+00  0.0000E+00  0.0000E+00
    -16.717  0.0000E+00  0.0000E+00  0.0000E+00
    -16.692  0.0000E+00  0.0000E+00  0.0000E+00
    -16.667  0.0000E+00  0.0000E+00  0.0000E+00
    -16.642  0.0000E+00  0.0000E+00  0.0000E+00
    -16.617  0.0000E+00  0.0000E+00  0.0000E+00
    -16.593  0.0000E+00  0.0000E+00  0.0000E+00
    -16.568  0.0000E+00  0.0000E+00  0.0000E+00
    -16.543  0.0000E+00  0.0000E+00  0.0000E+00
    -16.518  0.0000E+00  0.0000E+00  0.0000E+00
    -16.493  0.0000E+00  0.0000E+00  0.0000E+00
    -16.468  0.0000E+00  0.0000E+00  0.0000E+00
    -16.444  0.0000E+00  0.0000E+00  0.0000E+00
    -16.419  0.0000E+00  0.0000E+00  0.0000E+00
    -16.394  0.0000E+00  0.0000E+00  0.0000E+00
    -16.369  0.0000E+00  0.0000E+00  0.0000E+00
    -16.344  0.0000E+00  0.0000E+00  0.0000E+00
    -16.319  0.0000E+00  0.0000E+00  0.0000E+00
    -16.294  0.0000E+00  0.0000E+00  0.0000E+00
    -16.270  0.0000E+00  0.0000E+00  0.0000E+00
    -16.245  0.0000E+00  0.0000E+00  0.0000E+00
    -16.220  0.0000E+00  0.0000E+00  0.0000E+00
    -16.195  0.0000E+00  0.0000E+00  0.0000E+00
    -16.170  0.0000E+00  0.0000E+00  0.0000E+00
    -16.145  0.0000E+00  0.0000E+00  0.0000E+00
    -16.121  0.0000E+00  0.0000E+00  0.0000E+00
    -16.096  0.0000E+00  0.0000E+00  0.0000E+00
    -16.071  0.0000E+00  0.0000E+00  0.0000E+00
    -16.046  0.0000E+00  0.0000E+00  0.0000E+00
    -16.021  0.0000E+00  0.0000E+00  0.0000E+00
    -15.996  0.3162E+00  0.1584E-01  0.0000E+00
    -15.971  0.2749E+00  0.1395E-01  0.0000E+00
    -15.947  0.3129E+00  0.1602E-01  0.0000E+00
    -15.922  0.3098E+00  0.1606E-01  0.0000E+00
    -15.897  0.3306E+00  0.1729E-01  0.0000E+00
    -15.872  0.3599E+00  0.1897E-01  0.0000E+00
    -15.847  0.4164E+00  0.2206E-01  0.0000E+00
    -15.822  0.5322E+00  0.2830E-01  0.0000E+00
    -15.798  0.3939E+00  0.2140E-01  0.0000E+00
    -15.773  0.3624E+00  0.1994E-01  0.0000E+00
    -15.748  0.3013E+00  0.1691E-01  0.0000E+00
    -15.723  0.2925E+00  0.1658E-01  0.0000E+00
    -15.698  0.2726E+00  0.1568E-01  0.0000E+00
    -15.673  0.2554E+00  0.1490E-01  0.0000E+00
    -15.648  0.2326E+00  0.1381E-01  0.0000E+00
    -15.624  0.2284E+00  0.1368E-01  0.0000E+00
    -15.599  0.2241E+00  0.1354E-01  0.0000E+00
    -15.574  0.2194E+00  0.1337E-01  0.0000E+00
    -15.549  0.2087E+00  0.1290E-01  0.0000E+00
    -15.524  0.1944E+00  0.1223E-01  0.0000E+00
    -15.499  0.1914E+00  0.1214E-01  0.0000E+00
    -15.475  0.1888E+00  0.1207E-01  0.0000E+00
    -15.450  0.1862E+00  0.1200E-01  0.0000E+00
    -15.425  0.1834E+00  0.1191E-01  0.0000E+00
    -15.400  0.1800E+00  0.1179E-01  0.0000E+00
    -15.375  0.1727E+00  0.1146E-01  0.0000E+00
    -15.350  0.1689E+00  0.1131E-01  0.0000E+00
    -15.325  0.1667E+00  0.1125E-01  0.0000E+00
    -15.301  0.1650E+00  0.1120E-01  0.0000E+00
    -15.276  0.1633E+00  0.1116E-01  0.0000E+00
    -15.251  0.1617E+00  0.1112E-01  0.0000E+00
    -15.226  0.1599E+00  0.1106E-01  0.0000E+00
    -15.201  0.1573E+00  0.1096E-01  0.0000E+00
    -15.176  0.1542E+00  0.1083E-01  0.0000E+00
    -15.152  0.1543E+00  0.1087E-01  0.0000E+00
    -15.127  0.2198E+00  0.1557E-01  0.0000E+00
    -15.102  0.1729E+00  0.1233E-01  0.0000E+00
    -15.077  0.1487E+00  0.1068E-01  0.0000E+00
    -15.052  0.1351E+00  0.9758E-02  0.0000E+00
    -15.027  0.1269E+00  0.9229E-02  0.0000E+00
    -15.002  0.1343E+00  0.9839E-02  0.0000E+00
    -14.978  0.3030E-01  0.2237E-02  0.0000E+00
    -14.953  0.0000E+00  0.0000E+00  0.0000E+00
    -14.928  0.0000E+00  0.0000E+00  0.0000E+00
    -14.903  0.1952E+00  0.1409E-01  0.0000E+00
    -14.878  0.1368E+00  0.9952E-02  0.0000E+00
    -14.853  0.1294E+00  0.9467E-02  0.0000E+00
    -14.829  0.1379E+00  0.1015E-01  0.0000E+00
    -14.804  0.1592E+00  0.1178E-01  0.0000E+00
    -14.779  0.1747E+00  0.1300E-01  0.0000E+00
    -14.754  0.4245E+00  0.3208E-01  0.0000E+00
    -14.729  0.1417E+00  0.1051E-01  0.0000E+00
    -14.704  0.1419E+00  0.1053E-01  0.0000E+00
    -14.679  0.1421E+00  0.1054E-01  0.0000E+00
    -14.655  0.1429E+00  0.1058E-01  0.0000E+00
    -14.630  0.1439E+00  0.1062E-01  0.0000E+00
    -14.605  0.1446E+00  0.1065E-01  0.0000E+00
    -14.580  0.1452E+00  0.1068E-01  0.0000E+00
    -14.555  0.1459E+00  0.1071E-01  0.0000E+00
    -14.530  0.1467E+00  0.1074E-01  0.0000E+00
    -14.505  0.1480E+00  0.1080E-01  0.0000E+00
    -14.481  0.1483E+00  0.1080E-01  0.0000E+00
    -14.456  0.1485E+00  0.1080E-01  0.0000E+00
    -14.431  0.1488E+00  0.1080E-01  0.0000E+00
    -14.406  0.1519E+00  0.1093E-01  0.0000E+00
    -14.381  0.1550E+00  0.1106E-01  0.0000E+00
    -14.356  0.1573E+00  0.1115E-01  0.0000E+00
    -14.332  0.1595E+00  0.1124E-01  0.0000E+00
    -14.307  0.1618E+00  0.1133E-01  0.0000E+00
    -14.282  0.1646E+00  0.1145E-01  0.0000E+00
    -14.257  0.1680E+00  0.1161E-01  0.0000E+00
    -14.232  0.1684E+00  0.1159E-01  0.0000E+00
    -14.207  0.1688E+00  0.1156E-01  0.0000E+00
    -14.182  0.1761E+00  0.1189E-01  0.0000E+00
    -14.158  0.1834E+00  0.1221E-01  0.0000E+00
    -14.133  0.1889E+00  0.1244E-01  0.0000E+00
    -14.108  0.1939E+00  0.1265E-01  0.0000E+00
    -14.083  0.1992E+00  0.1287E-01  0.0000E+00
    -14.058  0.2062E+00  0.1320E-01  0.0000E+00
    -14.033  0.2128E+00  0.1350E-01  0.0000E+00
    -14.009  0.2204E+00  0.1380E-01  0.0000E+00
    -13.984  0.2426E+00  0.1484E-01  0.0000E+00
    -13.959  0.2553E+00  0.1540E-01  0.0000E+00
    -13.934  0.2663E+00  0.1589E-01  0.0000E+00
    -13.909  0.2771E+00  0.1637E-01  0.0000E+00
    -13.884  0.3140E+00  0.1818E-01  0.0000E+00
    -13.859  0.3857E+00  0.2180E-01  0.0000E+00
    -13.835  0.4160E+00  0.2322E-01  0.0000E+00
    -13.810  0.6604E+00  0.3538E-01  0.0000E+00
    -13.785  0.5080E+00  0.2774E-01  0.0000E+00
    -13.760  0.4185E+00  0.2323E-01  0.0000E+00
    -13.735  0.3837E+00  0.2154E-01  0.0000E+00
    -13.710  0.3552E+00  0.2009E-01  0.0000E+00
    -13.686  0.3163E+00  0.1795E-01  0.0000E+00
    -13.661  0.3075E+00  0.1751E-01  0.0000E+00
    -13.636  0.2099E+00  0.1197E-01  0.0000E+00
    -13.611  0.0000E+00  0.0000E+00  0.0000E+00
    -13.586  0.0000E+00  0.0000E+00  0.0000E+00
    -13.561  0.0000E+00  0.0000E+00  0.0000E+00
    -13.536  0.0000E+00  0.0000E+00  0.0000E+00
    -13.512  0.0000E+00  0.0000E+00  0.0000E+00
    -13.487  0.0000E+00  0.0000E+00  0.0000E+00
    -13.462  0.0000E+00  0.0000E+00  0.0000E+00
    -13.437  0.0000E+00  0.0000E+00  0.0000E+00
    -13.412  0.0000E+00  0.0000E+00  0.0000E+00
    -13.387  0.0000E+00  0.0000E+00  0.0000E+00
    -13.363  0.0000E+00  0.0000E+00  0.0000E+00
    -13.338  0.0000E+00  0.0000E+00  0.0000E+00
    -13.313  0.0000E+00  0.0000E+00  0.0000E+00
    -13.288  0.0000E+00  0.0000E+00  0.0000E+00
    -13.263  0.0000E+00  0.0000E+00  0.0000E+00
    -13.238  0.0000E+00  0.0000E+00  0.0000E+00
    -13.213  0.0000E+00  0.0000E+00  0.0000E+00
    -13.189  0.0000E+00  0.0000E+00  0.0000E+00
    -13.164  0.0000E+00  0.0000E+00  0.0000E+00
    -13.139  0.0000E+00  0.0000E+00  0.0000E+00
    -13.114  0.0000E+00  0.0000E+00  0.0000E+00
    -13.089  0.0000E+00  0.0000E+00  0.0000E+00
    -13.064  0.0000E+00  0.0000E+00  0.0000E+00
    -13.040  0.0000E+00  0.0000E+00  0.0000E+00
    -13.015  0.0000E+00  0.0000E+00  0.0000E+00
    -12.990  0.0000E+00  0.0000E+00  0.0000E+00
    -12.965  0.0000E+00  0.0000E+00  0.0000E+00
    -12.940  0.0000E+00  0.0000E+00  0.0000E+00
    -12.915  0.4087E-03  0.2958E-01  0.0000E+00
    -12.890  0.5031E-03  0.2118E-01  0.0000E+00
    -12.866  0.7565E-03  0.2546E-01  0.0000E+00
    -12.841  0.9611E-03  0.2447E-01  0.0000E+00
    -12.816  0.1158E-02  0.2506E-01  0.0000E+00
    -12.791  0.1351E-02  0.2582E-01  0.0000E+00
    -12.766  0.1575E-02  0.2704E-01  0.0000E+00
    -12.741  0.1778E-02  0.2871E-01  0.0000E+00
    -12.717  0.1989E-02  0.2872E-01  0.0000E+00
    -12.692  0.2229E-02  0.2964E-01  0.0000E+00
    -12.667  0.2432E-02  0.3078E-01  0.0000E+00
    -12.642  0.2638E-02  0.3210E-01  0.0000E+00
    -12.617  0.2947E-02  0.3409E-01  0.0000E+00
    -12.592  0.3216E-02  0.3582E-01  0.0000E+00
    -12.567  0.3496E-02  0.3713E-01  0.0000E+00
    -12.543  0.3892E-02  0.3955E-01  0.0000E+00
    -12.518  0.4411E-02  0.4284E-01  0.0000E+00
    -12.493  0.4870E-02  0.4552E-01  0.0000E+00
    -12.468  0.5335E-02  0.4808E-01  0.0000E+00
    -12.443  0.7076E-02  0.6069E-01  0.0000E+00
    -12.418  0.8489E-02  0.6071E-01  0.0000E+00
    -12.394  0.1329E-01  0.7750E-01  0.0000E+00
    -12.369  0.4369E-01  0.1745E+00  0.0000E+00
    -12.344  0.7980E-01  0.2750E+00  0.0000E+00
    -12.319  0.8356E-01  0.2803E+00  0.0000E+00
    -12.294  0.1037E+00  0.3417E+00  0.0000E+00
    -12.269  0.7207E-01  0.2431E+00  0.0000E+00
    -12.244  0.5866E-01  0.2004E+00  0.0000E+00
    -12.220  0.5889E-01  0.1960E+00  0.0000E+00
    -12.195  0.6936E-01  0.2165E+00  0.0000E+00
    -12.170  0.7753E-01  0.2317E+00  0.0000E+00
    -12.145  0.1625E-01  0.8352E-01  0.0000E+00
    -12.120  0.1323E-01  0.7951E-01  0.0000E+00
    -12.095  0.1013E-01  0.8730E-01  0.0000E+00
    -12.071  0.1002E-01  0.9542E-01  0.0000E+00
    -12.046  0.4777E-02  0.7544E-01  0.0000E+00
    -12.021  0.1998E-02  0.8397E-01  0.0000E+00
    -11.996  0.0000E+00  0.0000E+00  0.0000E+00
    -11.971  0.0000E+00  0.0000E+00  0.0000E+00
    -11.946  0.0000E+00  0.0000E+00  0.0000E+00
    -11.921  0.0000E+00  0.0000E+00  0.0000E+00
    -11.897  0.0000E+00  0.0000E+00  0.0000E+00
    -11.872  0.0000E+00  0.0000E+00  0.0000E+00
    -11.847  0.0000E+00  0.0000E+00  0.0000E+00
    -11.822  0.0000E+00  0.0000E+00  0.0000E+00
    -11.797  0.0000E+00  0.0000E+00  0.0000E+00
    -11.772  0.0000E+00  0.0000E+00  0.0000E+00
    -11.747  0.0000E+00  0.0000E+00  0.0000E+00
    -11.723  0.0000E+00  0.0000E+00  0.0000E+00
    -11.698  0.0000E+00  0.0000E+00  0.0000E+00
    -11.673  0.0000E+00  0.0000E+00  0.0000E+00
    -11.648  0.0000E+00  0.0000E+00  0.0000E+00
    -11.623  0.0000E+00  0.0000E+00  0.0000E+00
    -11.598  0.0000E+00  0.0000E+00  0.0000E+00
    -11.574  0.0000E+00  0.0000E+00  0.0000E+00
    -11.549  0.0000E+00  0.0000E+00  0.0000E+00
    -11.524  0.0000E+00  0.0000E+00  0.0000E+00
    -11.499  0.0000E+00  0.0000E+00  0.0000E+00
    -11.474  0.0000E+00  0.0000E+00  0.0000E+00
    -11.449  0.0000E+00  0.0000E+00  0.0000E+00
    -11.424  0.0000E+00  0.0000E+00  0.0000E+00
    -11.400  0.0000E+00  0.0000E+00  0.0000E+00
    -11.375  0.0000E+00  0.0000E+00  0.0000E+00
    -11.350  0.0000E+00  0.0000E+00  0.0000E+00
    -11.325  0.0000E+00  0.0000E+00  0.0000E+00
    -11.300  0.0000E+00  0.0000E+00  0.0000E+00
    -11.275  0.0000E+00  0.0000E+00  0.0000E+00
    -11.251  0.0000E+00  0.0000E+00  0.0000E+00
    -11.226  0.0000E+00  0.0000E+00  0.0000E+00
    -11.201  0.0000E+00  0.0000E+00  0.0000E+00
    -11.176  0.0000E+00  0.0000E+00  0.0000E+00
    -11.151  0.0000E+00  0.0000E+00  0.0000E+00
    -11.126  0.0000E+00  0.0000E+00  0.0000E+00
    -11.101  0.0000E+00  0.0000E+00  0.0000E+00
    -11.077  0.0000E+00  0.0000E+00  0.0000E+00
    -11.052  0.0000E+00  0.0000E+00  0.0000E+00
    -11.027  0.0000E+00  0.0000E+00  0.0000E+00
    -11.002  0.0000E+00  0.0000E+00  0.0000E+00
    -10.977  0.0000E+00  0.0000E+00  0.0000E+00
    -10.952  0.0000E+00  0.0000E+00  0.0000E+00
    -10.928  0.0000E+00  0.0000E+00  0.0000E+00
    -10.903  0.0000E+00  0.0000E+00  0.0000E+00
    -10.878  0.0000E+00  0.0000E+00  0.0000E+00
    -10.853  0.0000E+00  0.0000E+00  0.0000E+00
    -10.828  0.0000E+00  0.0000E+00  0.0000E+00
    -10.803  0.0000E+00  0.0000E+00  0.0000E+00
    -10.778  0.0000E+00  0.0000E+00  0.0000E+00
    -10.754  0.0000E+00  0.0000E+00  0.0000E+00
    -10.729  0.0000E+00  0.0000E+00  0.0000E+00
    -10.704  0.2158E+00  0.3733E-01  0.0000E+00
    -10.679  0.1976E+00  0.3323E-01  0.0000E+00
    -10.654  0.2043E+00  0.3360E-01  0.0000E+00
    -10.629  0.2139E+00  0.3461E-01  0.0000E+00
    -10.605  0.2148E+00  0.3423E-01  0.0000E+00
    -10.580  0.2187E+00  0.3448E-01  0.0000E+00
    -10.555  0.2242E+00  0.3507E-01  0.0000E+00
    -10.530  0.2334E+00  0.3627E-01  0.0000E+00
    -10.505  0.2360E+00  0.3664E-01  0.0000E+00
    -10.480  0.2390E+00  0.3700E-01  0.0000E+00
    -10.455  0.2438E+00  0.3755E-01  0.0000E+00
    -10.431  0.2540E+00  0.3892E-01  0.0000E+00
    -10.406  0.2712E+00  0.4172E-01  0.0000E+00
    -10.381  0.3308E+00  0.5129E-01  0.0000E+00
    -10.356  0.2689E+00  0.4086E-01  0.0000E+00
    -10.331  0.2539E+00  0.3817E-01  0.0000E+00
    -10.306  0.2457E+00  0.3683E-01  0.0000E+00
    -10.282  0.2553E+00  0.3895E-01  0.0000E+00
    -10.257  0.3160E+00  0.4854E-01  0.0000E+00
    -10.232  0.3989E+00  0.6332E-01  0.0000E+00
    -10.207  0.3932E+00  0.6247E-01  0.0000E+00
    -10.182  0.3536E+00  0.5314E-01  0.0000E+00
    -10.157  0.3636E+00  0.5270E-01  0.0000E+00
    -10.132  0.3829E+00  0.5359E-01  0.0000E+00
    -10.108  0.3945E+00  0.5345E-01  0.0000E+00
    -10.083  0.4353E+00  0.5625E-01  0.0000E+00
    -10.058  0.4985E+00  0.6195E-01  0.0000E+00
    -10.033  0.6530E+00  0.7745E-01  0.0000E+00
    -10.008  0.1930E+00  0.2670E-01  0.0000E+00
     -9.983  0.1795E+00  0.2560E-01  0.0000E+00
     -9.959  0.1690E+00  0.2476E-01  0.0000E+00
     -9.934  0.1336E+00  0.2082E-01  0.0000E+00
     -9.909  0.1318E+00  0.2085E-01  0.0000E+00
     -9.884  0.1299E+00  0.2086E-01  0.0000E+00
     -9.859  0.1279E+00  0.2086E-01  0.0000E+00
     -9.834  0.1256E+00  0.2080E-01  0.0000E+00
     -9.809  0.1231E+00  0.2071E-01  0.0000E+00
     -9.785  0.1201E+00  0.2053E-01  0.0000E+00
     -9.760  0.1169E+00  0.2029E-01  0.0000E+00
     -9.735  0.1136E+00  0.2012E-01  0.0000E+00
     -9.710  0.1098E+00  0.1977E-01  0.0000E+00
     -9.685  0.1071E+00  0.1951E-01  0.0000E+00
     -9.660  0.1064E+00  0.1959E-01  0.0000E+00
     -9.636  0.1056E+00  0.1963E-01  0.0000E+00
     -9.611  0.1047E+00  0.1966E-01  0.0000E+00
     -9.586  0.1039E+00  0.1968E-01  0.0000E+00
     -9.561  0.1030E+00  0.1968E-01  0.0000E+00
     -9.536  0.1046E+00  0.2020E-01  0.0000E+00
     -9.511  0.1050E+00  0.2049E-01  0.0000E+00
     -9.486  0.1048E+00  0.2064E-01  0.0000E+00
     -9.462  0.1046E+00  0.2077E-01  0.0000E+00
     -9.437  0.1038E+00  0.2078E-01  0.0000E+00
     -9.412  0.1027E+00  0.2072E-01  0.0000E+00
     -9.387  0.1017E+00  0.2066E-01  0.0000E+00
     -9.362  0.1084E+00  0.2215E-01  0.0000E+00
     -9.337  0.1115E+00  0.2290E-01  0.0000E+00
     -9.313  0.1145E+00  0.2366E-01  0.0000E+00
     -9.288  0.1154E+00  0.2401E-01  0.0000E+00
     -9.263  0.1158E+00  0.2422E-01  0.0000E+00
     -9.238  0.1573E+00  0.3293E-01  0.0000E+00
     -9.213  0.1511E+00  0.3189E-01  0.0000E+00
     -9.188  0.1303E+00  0.2772E-01  0.0000E+00
     -9.163  0.1110E+00  0.2385E-01  0.0000E+00
     -9.139  0.1042E+00  0.2254E-01  0.0000E+00
     -9.114  0.1006E+00  0.2182E-01  0.0000E+00
     -9.089  0.9696E-01  0.2110E-01  0.0000E+00
     -9.064  0.9212E-01  0.2012E-01  0.0000E+00
     -9.039  0.8733E-01  0.1914E-01  0.0000E+00
     -9.014  0.8417E-01  0.1850E-01  0.0000E+00
     -8.990  0.8152E-01  0.1795E-01  0.0000E+00
     -8.965  0.7960E-01  0.1754E-01  0.0000E+00
     -8.940  0.7765E-01  0.1712E-01  0.0000E+00
     -8.915  0.7556E-01  0.1666E-01  0.0000E+00
     -8.890  0.7296E-01  0.1608E-01  0.0000E+00
     -8.865  0.7088E-01  0.1562E-01  0.0000E+00
     -8.840  0.6884E-01  0.1516E-01  0.0000E+00
     -8.816  0.6768E-01  0.1487E-01  0.0000E+00
     -8.791  0.6653E-01  0.1457E-01  0.0000E+00
     -8.766  0.6591E-01  0.1436E-01  0.0000E+00
     -8.741  0.6555E-01  0.1416E-01  0.0000E+00
     -8.716  0.6349E-01  0.1366E-01  0.0000E+00
     -8.691  0.6103E-01  0.1308E-01  0.0000E+00
     -8.666  0.5919E-01  0.1264E-01  0.0000E+00
     -8.642  0.5735E-01  0.1220E-01  0.0000E+00
     -8.617  0.5607E-01  0.1186E-01  0.0000E+00
     -8.592  0.5494E-01  0.1154E-01  0.0000E+00
     -8.567  0.5413E-01  0.1124E-01  0.0000E+00
     -8.542  0.5257E-01  0.1086E-01  0.0000E+00
     -8.517  0.5332E-01  0.1090E-01  0.0000E+00
     -8.493  0.6197E-01  0.1245E-01  0.0000E+00
     -8.468  0.5593E-01  0.1111E-01  0.0000E+00
     -8.443  0.4664E-01  0.9180E-02  0.0000E+00
     -8.418  0.3355E-01  0.6555E-02  0.0000E+00
     -8.393  0.2039E-01  0.3940E-02  0.0000E+00
     -8.368  0.0000E+00  0.0000E+00  0.0000E+00
     -8.343  0.0000E+00  0.0000E+00  0.0000E+00
     -8.319  0.0000E+00  0.0000E+00  0.0000E+00
     -8.294  0.0000E+00  0.0000E+00  0.0000E+00
     -8.269  0.0000E+00  0.0000E+00  0.0000E+00
     -8.244  0.0000E+00  0.0000E+00  0.0000E+00
     -8.219  0.0000E+00  0.0000E+00  0.0000E+00
     -8.194  0.1003E-02  0.3425E-02  0.0000E+00
     -8.170  0.1227E-02  0.3920E-02  0.0000E+00
     -8.145  0.1288E-02  0.4221E-02  0.0000E+00
     -8.120  0.1212E-02  0.4038E-02  0.0000E+00
     -8.095  0.1026E-02  0.3716E-02  0.0000E+00
     -8.070  0.9433E-03  0.3651E-02  0.0000E+00
     -8.045  0.2306E-02  0.5532E-02  0.0000E+00
     -8.020  0.2556E-02  0.5966E-02  0.0000E+00
     -7.996  0.2772E-02  0.6379E-02  0.0000E+00
     -7.971  0.2891E-02  0.6770E-02  0.0000E+00
     -7.946  0.3054E-02  0.7222E-02  0.0000E+00
     -7.921  0.3190E-02  0.7499E-02  0.0000E+00
     -7.896  0.3426E-02  0.7973E-02  0.0000E+00
     -7.871  0.3673E-02  0.8489E-02  0.0000E+00
     -7.847  0.3917E-02  0.9104E-02  0.0000E+00
     -7.822  0.4171E-02  0.9861E-02  0.0000E+00
     -7.797  0.4405E-02  0.1070E-01  0.0000E+00
     -7.772  0.4647E-02  0.1144E-01  0.0000E+00
     -7.747  0.4884E-02  0.1216E-01  0.0000E+00
     -7.722  0.5132E-02  0.1341E-01  0.0000E+00
     -7.697  0.5516E-02  0.1535E-01  0.0000E+00
     -7.673  0.5898E-02  0.1723E-01  0.0000E+00
     -7.648  0.6357E-02  0.1952E-01  0.0000E+00
     -7.623  0.6947E-02  0.2247E-01  0.0000E+00
     -7.598  0.2425E-01  0.1344E+00  0.0000E+00
     -7.573  0.4457E-01  0.2398E+00  0.0000E+00
     -7.548  0.4556E-01  0.2641E+00  0.0000E+00
     -7.524  0.3994E-01  0.2814E+00  0.0000E+00
     -7.499  0.2920E-01  0.2093E+00  0.0000E+00
     -7.474  0.2465E-01  0.1631E+00  0.0000E+00
     -7.449  0.2320E-01  0.1384E+00  0.0000E+00
     -7.424  0.2591E-01  0.1752E+00  0.0000E+00
     -7.399  0.3473E-01  0.2923E+00  0.0000E+00
     -7.374  0.2860E-01  0.2080E+00  0.0000E+00
     -7.350  0.3659E-01  0.2731E+00  0.0000E+00
     -7.325  0.3423E-01  0.2672E+00  0.0000E+00
     -7.300  0.2758E-01  0.2239E+00  0.0000E+00
     -7.275  0.2625E-01  0.2249E+00  0.0000E+00
     -7.250  0.2459E-01  0.2284E+00  0.0000E+00
     -7.225  0.2281E-01  0.2296E+00  0.0000E+00
     -7.201  0.2290E-01  0.2493E+00  0.0000E+00
     -7.176  0.2377E-01  0.2525E+00  0.0000E+00
     -7.151  0.2744E-01  0.2820E+00  0.0000E+00
     -7.126  0.3199E-01  0.2779E+00  0.0000E+00
     -7.101  0.2227E-01  0.1789E+00  0.0000E+00
     -7.076  0.2749E-01  0.2004E+00  0.0000E+00
     -7.051  0.1916E-01  0.1392E+00  0.0000E+00
     -7.027  0.1559E-01  0.1359E+00  0.0000E+00
     -7.002  0.1517E-01  0.1420E+00  0.0000E+00
     -6.977  0.1470E-01  0.1473E+00  0.0000E+00
     -6.952  0.1467E-01  0.1234E+00  0.0000E+00
     -6.927  0.1453E-01  0.1140E+00  0.0000E+00
     -6.902  0.1370E-01  0.1112E+00  0.0000E+00
     -6.878  0.1078E-01  0.9720E-01  0.0000E+00
     -6.853  0.7302E-02  0.7486E-01  0.0000E+00
     -6.828  0.4810E-02  0.4088E-01  0.0000E+00
     -6.803  0.7596E-02  0.4259E-01  0.0000E+00
     -6.778  0.1836E-01  0.5415E-01  0.0000E+00
     -6.753  0.4750E-01  0.9096E-01  0.0000E+00
     -6.728  0.4060E-01  0.8616E-01  0.0000E+00
     -6.704  0.3769E-01  0.8581E-01  0.0000E+00
     -6.679  0.3902E-01  0.9071E-01  0.0000E+00
     -6.654  0.4751E-01  0.1078E+00  0.0000E+00
     -6.629  0.3532E-01  0.9140E-01  0.0000E+00
     -6.604  0.3245E-01  0.8819E-01  0.0000E+00
     -6.579  0.3140E-01  0.1074E+00  0.0000E+00
     -6.555  0.3489E-01  0.1217E+00  0.0000E+00
     -6.530  0.4215E-01  0.1425E+00  0.0000E+00
     -6.505  0.4351E-01  0.1542E+00  0.0000E+00
     -6.480  0.4757E-01  0.1874E+00  0.0000E+00
     -6.455  0.5640E-01  0.2614E+00  0.0000E+00
     -6.430  0.4432E-01  0.2276E+00  0.0000E+00
     -6.405  0.4114E-01  0.2301E+00  0.0000E+00
     -6.381  0.3906E-01  0.2380E+00  0.0000E+00
     -6.356  0.3784E-01  0.2532E+00  0.0000E+00
     -6.331  0.4255E-01  0.2965E+00  0.0000E+00
     -6.306  0.4154E-01  0.3198E+00  0.0000E+00
     -6.281  0.3468E-01  0.2926E+00  0.0000E+00
     -6.256  0.3898E-01  0.3322E+00  0.0000E+00
     -6.232  0.5340E-01  0.4895E+00  0.0000E+00
     -6.207  0.4587E-01  0.3937E+00  0.0000E+00
     -6.182  0.4543E-01  0.3700E+00  0.0000E+00
     -6.157  0.4476E-01  0.4247E+00  0.0000E+00
     -6.132  0.4766E-01  0.3857E+00  0.0000E+00
     -6.107  0.4261E-01  0.3008E+00  0.0000E+00
     -6.082  0.3125E-01  0.2537E+00  0.0000E+00
     -6.058  0.1250E-01  0.1986E+00  0.0000E+00
     -6.033  0.1073E-01  0.1684E+00  0.0000E+00
     -6.008  0.9809E-02  0.1598E+00  0.0000E+00
     -5.983  0.9159E-02  0.1534E+00  0.0000E+00
     -5.958  0.8757E-02  0.1499E+00  0.0000E+00
     -5.933  0.8268E-02  0.1453E+00  0.0000E+00
     -5.909  0.8428E-02  0.1445E+00  0.0000E+00
     -5.884  0.1470E-01  0.1810E+00  0.0000E+00
     -5.859  0.2143E-01  0.2198E+00  0.0000E+00
     -5.834  0.2092E-01  0.2263E+00  0.0000E+00
     -5.809  0.1769E-01  0.2065E+00  0.0000E+00
     -5.784  0.2104E-01  0.2386E+00  0.0000E+00
     -5.759  0.1966E-01  0.2289E+00  0.0000E+00
     -5.735  0.2021E-01  0.2350E+00  0.0000E+00
     -5.710  0.2553E-01  0.2833E+00  0.0000E+00
     -5.685  0.2160E-01  0.1956E+00  0.0000E+00
     -5.660  0.2140E-01  0.2004E+00  0.0000E+00
     -5.635  0.2295E-01  0.2154E+00  0.0000E+00
     -5.610  0.2594E-01  0.2438E+00  0.0000E+00
     -5.585  0.3173E-01  0.2638E+00  0.0000E+00
     -5.561  0.3393E-01  0.3267E+00  0.0000E+00
     -5.536  0.3629E-01  0.3210E+00  0.0000E+00
     -5.511  0.3330E-01  0.2293E+00  0.0000E+00
     -5.486  0.3304E-01  0.2078E+00  0.0000E+00
     -5.461  0.3277E-01  0.2249E+00  0.0000E+00
     -5.436  0.3691E-01  0.2790E+00  0.0000E+00
     -5.412  0.4103E-01  0.3379E+00  0.0000E+00
     -5.387  0.3935E-01  0.3137E+00  0.0000E+00
     -5.362  0.3796E-01  0.3119E+00  0.0000E+00
     -5.337  0.3482E-01  0.3066E+00  0.0000E+00
     -5.312  0.3270E-01  0.2989E+00  0.0000E+00
     -5.287  0.3319E-01  0.3045E+00  0.0000E+00
     -5.262  0.3249E-01  0.2686E+00  0.0000E+00
     -5.238  0.3733E-01  0.3146E+00  0.0000E+00
     -5.213  0.3313E-01  0.2682E+00  0.0000E+00
     -5.188  0.3198E-01  0.2602E+00  0.0000E+00
     -5.163  0.2863E-01  0.2539E+00  0.0000E+00
     -5.138  0.2217E-01  0.2423E+00  0.0000E+00
     -5.113  0.1836E-01  0.2450E+00  0.0000E+00
     -5.089  0.1442E-01  0.2120E+00  0.0000E+00
     -5.064  0.1353E-01  0.2026E+00  0.0000E+00
     -5.039  0.1365E-01  0.2096E+00  0.0000E+00
     -5.014  0.1512E-01  0.2261E+00  0.0000E+00
     -4.989  0.1517E-01  0.2301E+00  0.0000E+00
     -4.964  0.1532E-01  0.2357E+00  0.0000E+00
     -4.939  0.1475E-01  0.2332E+00  0.0000E+00
     -4.915  0.1432E-01  0.2320E+00  0.0000E+00
     -4.890  0.1315E-01  0.2286E+00  0.0000E+00
     -4.865  0.1269E-01  0.2364E+00  0.0000E+00
     -4.840  0.1562E-01  0.2782E+00  0.0000E+00
     -4.815  0.1839E-01  0.3544E+00  0.0000E+00
     -4.790  0.1989E-01  0.2757E+00  0.0000E+00
     -4.766  0.2454E-01  0.3019E+00  0.0000E+00
     -4.741  0.2770E-01  0.3189E+00  0.0000E+00
     -4.716  0.2667E-01  0.3963E+00  0.0000E+00
     -4.691  0.2382E-01  0.3220E+00  0.0000E+00
     -4.666  0.2309E-01  0.3030E+00  0.0000E+00
     -4.641  0.2357E-01  0.2943E+00  0.0000E+00
     -4.616  0.2481E-01  0.3018E+00  0.0000E+00
     -4.592  0.2719E-01  0.3237E+00  0.0000E+00
     -4.567  0.2837E-01  0.3113E+00  0.0000E+00
     -4.542  0.2700E-01  0.2990E+00  0.0000E+00
     -4.517  0.3182E-01  0.3255E+00  0.0000E+00
     -4.492  0.1983E-01  0.2306E+00  0.0000E+00
     -4.467  0.1873E-01  0.1897E+00  0.0000E+00
     -4.443  0.1851E-01  0.1912E+00  0.0000E+00
     -4.418  0.1860E-01  0.2002E+00  0.0000E+00
     -4.393  0.1771E-01  0.1983E+00  0.0000E+00
     -4.368  0.1301E-01  0.2025E+00  0.0000E+00
     -4.343  0.1281E-01  0.2171E+00  0.0000E+00
     -4.318  0.1325E-01  0.1439E+00  0.0000E+00
     -4.293  0.1386E-01  0.1477E+00  0.0000E+00
     -4.269  0.1449E-01  0.1511E+00  0.0000E+00
     -4.244  0.1604E-01  0.1676E+00  0.0000E+00
     -4.219  0.1689E-01  0.1739E+00  0.0000E+00
     -4.194  0.1736E-01  0.1776E+00  0.0000E+00
     -4.169  0.1725E-01  0.1770E+00  0.0000E+00
     -4.144  0.1693E-01  0.1639E+00  0.0000E+00
     -4.120  0.1716E-01  0.1637E+00  0.0000E+00
     -4.095  0.1758E-01  0.1643E+00  0.0000E+00
     -4.070  0.1785E-01  0.1637E+00  0.0000E+00
     -4.045  0.1783E-01  0.1644E+00  0.0000E+00
     -4.020  0.1846E-01  0.1739E+00  0.0000E+00
     -3.995  0.2144E-01  0.1943E+00  0.0000E+00
     -3.970  0.2167E-01  0.1992E+00  0.0000E+00
     -3.946  0.2443E-01  0.2200E+00  0.0000E+00
     -3.921  0.3244E-01  0.2421E+00  0.0000E+00
     -3.896  0.3279E-01  0.2401E+00  0.0000E+00
     -3.871  0.3426E-01  0.2556E+00  0.0000E+00
     -3.846  0.4279E-01  0.3504E+00  0.0000E+00
     -3.821  0.3954E-01  0.3379E+00  0.0000E+00
     -3.797  0.3378E-01  0.2912E+00  0.0000E+00
     -3.772  0.2501E-01  0.2051E+00  0.0000E+00
     -3.747  0.2371E-01  0.1867E+00  0.0000E+00
     -3.722  0.2276E-01  0.1762E+00  0.0000E+00
     -3.697  0.2137E-01  0.1639E+00  0.0000E+00
     -3.672  0.1894E-01  0.1468E+00  0.0000E+00
     -3.647  0.1738E-01  0.1325E+00  0.0000E+00
     -3.623  0.2169E-01  0.1734E+00  0.0000E+00
     -3.598  0.2197E-01  0.1805E+00  0.0000E+00
     -3.573  0.2353E-01  0.1932E+00  0.0000E+00
     -3.548  0.2220E-01  0.1760E+00  0.0000E+00
     -3.523  0.2075E-01  0.1768E+00  0.0000E+00
     -3.498  0.1828E-01  0.1524E+00  0.0000E+00
     -3.474  0.1861E-01  0.1585E+00  0.0000E+00
     -3.449  0.2136E-01  0.1806E+00  0.0000E+00
     -3.424  0.2278E-01  0.1989E+00  0.0000E+00
     -3.399  0.2252E-01  0.2076E+00  0.0000E+00
     -3.374  0.2335E-01  0.2204E+00  0.0000E+00
     -3.349  0.4802E-01  0.5088E+00  0.0000E+00
     -3.324  0.4053E-01  0.4449E+00  0.0000E+00
     -3.300  0.3035E-01  0.3227E+00  0.0000E+00
     -3.275  0.3233E-01  0.3566E+00  0.0000E+00
     -3.250  0.3247E-01  0.3535E+00  0.0000E+00
     -3.225  0.3111E-01  0.3290E+00  0.0000E+00
     -3.200  0.2594E-01  0.2600E+00  0.0000E+00
     -3.175  0.2027E-01  0.2061E+00  0.0000E+00
     -3.151  0.2256E-01  0.2501E+00  0.0000E+00
     -3.126  0.1981E-01  0.2144E+00  0.0000E+00
     -3.101  0.1888E-01  0.2016E+00  0.0000E+00
     -3.076  0.2116E-01  0.2479E+00  0.0000E+00
     -3.051  0.2168E-01  0.2788E+00  0.0000E+00
     -3.026  0.1557E-01  0.1306E+00  0.0000E+00
     -3.001  0.1695E-01  0.1275E+00  0.0000E+00
     -2.977  0.2068E-01  0.1455E+00  0.0000E+00
     -2.952  0.1115E-01  0.7831E-01  0.0000E+00
     -2.927  0.1169E-01  0.7793E-01  0.0000E+00
     -2.902  0.2302E-01  0.1392E+00  0.0000E+00
     -2.877  0.1866E-01  0.1106E+00  0.0000E+00
     -2.852  0.1909E-01  0.1130E+00  0.0000E+00
     -2.827  0.2635E-01  0.1660E+00  0.0000E+00
     -2.803  0.2213E-01  0.1371E+00  0.0000E+00
     -2.778  0.2374E-01  0.1513E+00  0.0000E+00
     -2.753  0.2508E-01  0.1526E+00  0.0000E+00
     -2.728  0.3614E-01  0.1941E+00  0.0000E+00
     -2.703  0.3978E-01  0.2080E+00  0.0000E+00
     -2.678  0.5040E-01  0.2688E+00  0.0000E+00
     -2.654  0.4585E-01  0.2279E+00  0.0000E+00
     -2.629  0.4283E-01  0.2208E+00  0.0000E+00
     -2.604  0.4433E-01  0.2235E+00  0.0000E+00
     -2.579  0.5370E-01  0.2450E+00  0.0000E+00
     -2.554  0.5654E-01  0.2421E+00  0.0000E+00
     -2.529  0.4478E-01  0.1831E+00  0.0000E+00
     -2.504  0.4551E-01  0.1825E+00  0.0000E+00
     -2.480  0.4752E-01  0.1874E+00  0.0000E+00
     -2.455  0.5281E-01  0.2087E+00  0.0000E+00
     -2.430  0.6044E-01  0.2334E+00  0.0000E+00
     -2.405  0.4887E-01  0.1804E+00  0.0000E+00
     -2.380  0.4456E-01  0.1602E+00  0.0000E+00
     -2.355  0.3564E-01  0.1258E+00  0.0000E+00
     -2.331  0.3805E-01  0.1305E+00  0.0000E+00
     -2.306  0.4581E-01  0.1531E+00  0.0000E+00
     -2.281  0.3260E-01  0.1044E+00  0.0000E+00
     -2.256  0.3167E-01  0.9468E-01  0.0000E+00
     -2.231  0.2588E-01  0.8098E-01  0.0000E+00
     -2.206  0.2424E-01  0.7763E-01  0.0000E+00
     -2.181  0.1986E-01  0.7063E-01  0.0000E+00
     -2.157  0.2119E-01  0.7697E-01  0.0000E+00
     -2.132  0.1434E-01  0.4386E-01  0.0000E+00
     -2.107  0.1236E-01  0.3386E-01  0.0000E+00
     -2.082  0.1277E-01  0.3464E-01  0.0000E+00
     -2.057  0.1484E-01  0.3975E-01  0.0000E+00
     -2.032  0.1426E-01  0.3808E-01  0.0000E+00
     -2.008  0.1265E-01  0.3368E-01  0.0000E+00
     -1.983  0.1439E-01  0.3823E-01  0.0000E+00
     -1.958  0.0000E+00  0.0000E+00  0.0000E+00
     -1.933  0.0000E+00  0.0000E+00  0.0000E+00
     -1.908  0.0000E+00  0.0000E+00  0.0000E+00
     -1.883  0.0000E+00  0.0000E+00  0.0000E+00
     -1.858  0.0000E+00  0.0000E+00  0.0000E+00
     -1.834  0.0000E+00  0.0000E+00  0.0000E+00
     -1.809  0.4793E-04  0.5499E-03  0.0000E+00
     -1.784  0.1633E-03  0.1730E-02  0.0000E+00
     -1.759  0.2944E-03  0.2897E-02  0.0000E+00
     -1.734  0.4663E-03  0.3419E-02  0.0000E+00
     -1.709  0.6425E-03  0.3897E-02  0.0000E+00
     -1.685  0.8219E-03  0.4352E-02  0.0000E+00
     -1.660  0.1217E-02  0.3897E-02  0.0000E+00
     -1.635  0.1725E-02  0.3809E-02  0.0000E+00
     -1.610  0.2274E-02  0.3991E-02  0.0000E+00
     -1.585  0.2939E-02  0.4335E-02  0.0000E+00
     -1.560  0.3672E-02  0.4649E-02  0.0000E+00
     -1.535  0.4858E-02  0.4845E-02  0.0000E+00
     -1.511  0.6170E-01  0.2422E-01  0.0000E+00
     -1.486  0.2222E-01  0.1290E-01  0.0000E+00
     -1.461  0.2939E-01  0.1343E-01  0.0000E+00
     -1.436  0.2496E-01  0.1158E-01  0.0000E+00
     -1.411  0.2360E-01  0.1174E-01  0.0000E+00
     -1.386  0.2535E-01  0.1515E-01  0.0000E+00
     -1.362  0.2345E-01  0.1523E-01  0.0000E+00
     -1.337  0.2166E-01  0.1515E-01  0.0000E+00
     -1.312  0.2048E-01  0.1519E-01  0.0000E+00
     -1.287  0.1858E-01  0.1485E-01  0.0000E+00
     -1.262  0.1657E-01  0.1483E-01  0.0000E+00
     -1.237  0.1544E-01  0.1478E-01  0.0000E+00
     -1.212  0.1518E-01  0.1515E-01  0.0000E+00
     -1.188  0.1516E-01  0.1593E-01  0.0000E+00
     -1.163  0.1512E-01  0.1661E-01  0.0000E+00
     -1.138  0.1532E-01  0.1738E-01  0.0000E+00
     -1.113  0.1538E-01  0.1802E-01  0.0000E+00
     -1.088  0.1508E-01  0.1856E-01  0.0000E+00
     -1.063  0.1529E-01  0.1940E-01  0.0000E+00
     -1.039  0.2007E-01  0.2699E-01  0.0000E+00
     -1.014  0.2024E-01  0.2731E-01  0.0000E+00
     -0.989  0.1332E-01  0.1828E-01  0.0000E+00
     -0.964  0.1241E-01  0.1729E-01  0.0000E+00
     -0.939  0.1203E-01  0.1706E-01  0.0000E+00
     -0.914  0.1201E-01  0.1721E-01  0.0000E+00
     -0.889  0.1199E-01  0.1732E-01  0.0000E+00
     -0.865  0.1185E-01  0.1726E-01  0.0000E+00
     -0.840  0.1225E-01  0.1829E-01  0.0000E+00
     -0.815  0.1297E-01  0.1966E-01  0.0000E+00
     -0.790  0.1362E-01  0.2080E-01  0.0000E+00
     -0.765  0.1434E-01  0.2192E-01  0.0000E+00
     -0.740  0.1602E-01  0.2567E-01  0.0000E+00
     -0.716  0.1643E-01  0.2750E-01  0.0000E+00
     -0.691  0.1652E-01  0.2722E-01  0.0000E+00
     -0.666  0.1677E-01  0.2725E-01  0.0000E+00
     -0.641  0.1705E-01  0.2795E-01  0.0000E+00
     -0.616  0.1970E-01  0.3399E-01  0.0000E+00
     -0.591  0.2490E-01  0.4573E-01  0.0000E+00
     -0.566  0.3522E-01  0.6863E-01  0.0000E+00
     -0.542  0.2080E-01  0.3831E-01  0.0000E+00
     -0.517  0.2106E-01  0.3948E-01  0.0000E+00
     -0.492  0.2031E-01  0.3969E-01  0.0000E+00
     -0.467  0.2338E-01  0.5398E-01  0.0000E+00
     -0.442  0.2678E-01  0.6550E-01  0.0000E+00
     -0.417  0.2608E-01  0.6214E-01  0.0000E+00
     -0.393  0.2598E-01  0.6233E-01  0.0000E+00
     -0.368  0.2729E-01  0.6536E-01  0.0000E+00
     -0.343  0.2948E-01  0.7271E-01  0.0000E+00
     -0.318  0.4131E-01  0.1093E+00  0.0000E+00
     -0.293  0.3291E-01  0.8252E-01  0.0000E+00
     -0.268  0.3243E-01  0.8046E-01  0.0000E+00
     -0.243  0.3303E-01  0.8027E-01  0.0000E+00
     -0.219  0.4330E-01  0.8681E-01  0.0000E+00
     -0.194  0.6378E-01  0.9664E-01  0.0000E+00
     -0.169  0.7727E-01  0.1068E+00  0.0000E+00
     -0.144  0.6938E-01  0.9459E-01  0.0000E+00
     -0.119  0.6804E-01  0.9641E-01  0.0000E+00
     -0.094  0.9298E-01  0.3355E+00  0.0000E+00
     -0.070  0.7189E-01  0.2744E+00  0.0000E+00
     -0.045  0.6429E-01  0.3165E+00  0.0000E+00
     -0.020  0.6140E-01  0.3536E+00  0.0000E+00
      0.005  0.5351E-01  0.5579E+00  0.0000E+00
      0.030  0.4371E-01  0.3916E+00  0.0000E+00
      0.055  0.3699E-01  0.2776E+00  0.0000E+00
      0.080  0.3382E-01  0.2378E+00  0.0000E+00
      0.104  0.2861E-01  0.1713E+00  0.0000E+00
      0.129  0.2689E-01  0.1643E+00  0.0000E+00
      0.154  0.2521E-01  0.1601E+00  0.0000E+00
      0.179  0.2143E-01  0.1414E+00  0.0000E+00
      0.204  0.1855E-01  0.1070E+00  0.0000E+00
      0.229  0.2023E-01  0.1032E+00  0.0000E+00
      0.254  0.3377E-01  0.1910E+00  0.0000E+00
      0.278  0.3403E-01  0.1703E+00  0.0000E+00
      0.303  0.3474E-01  0.1663E+00  0.0000E+00
      0.328  0.3864E-01  0.1651E+00  0.0000E+00
      0.353  0.3672E-01  0.1651E+00  0.0000E+00
      0.378  0.5061E-01  0.2368E+00  0.0000E+00
      0.403  0.5996E-01  0.2512E+00  0.0000E+00
      0.427  0.5772E-01  0.2227E+00  0.0000E+00
      0.452  0.5738E-01  0.2160E+00  0.0000E+00
      0.477  0.5089E-01  0.1852E+00  0.0000E+00
      0.502  0.4340E-01  0.1669E+00  0.0000E+00
      0.527  0.3939E-01  0.1460E+00  0.0000E+00
      0.552  0.4023E-01  0.1369E+00  0.0000E+00
      0.577  0.4099E-01  0.1298E+00  0.0000E+00
      0.601  0.4832E-01  0.1655E+00  0.0000E+00
      0.626  0.4888E-01  0.1607E+00  0.0000E+00
      0.651  0.5388E-01  0.1656E+00  0.0000E+00
      0.676  0.5104E-01  0.1647E+00  0.0000E+00
      0.701  0.5270E-01  0.1721E+00  0.0000E+00
      0.726  0.5943E-01  0.2202E+00  0.0000E+00
      0.750  0.6071E-01  0.2159E+00  0.0000E+00
      0.775  0.5429E-01  0.1919E+00  0.0000E+00
      0.800  0.6616E-01  0.2093E+00  0.0000E+00
      0.825  0.6031E-01  0.2019E+00  0.0000E+00
      0.850  0.6314E-01  0.2305E+00  0.0000E+00
      0.875  0.5858E-01  0.2220E+00  0.0000E+00
      0.900  0.4512E-01  0.2016E+00  0.0000E+00
      0.924  0.4713E-01  0.2133E+00  0.0000E+00
      0.949  0.4412E-01  0.2118E+00  0.0000E+00
      0.974  0.4488E-01  0.2442E+00  0.0000E+00
      0.999  0.4360E-01  0.2459E+00  0.0000E+00
      1.024  0.4061E-01  0.2296E+00  0.0000E+00
      1.049  0.4438E-01  0.2401E+00  0.0000E+00
      1.073  0.4533E-01  0.2504E+00  0.0000E+00
      1.098  0.4598E-01  0.2622E+00  0.0000E+00
      1.123  0.3844E-01  0.2320E+00  0.0000E+00
      1.148  0.3384E-01  0.2127E+00  0.0000E+00
      1.173  0.3654E-01  0.2266E+00  0.0000E+00
      1.198  0.4009E-01  0.2483E+00  0.0000E+00
      1.223  0.4102E-01  0.2723E+00  0.0000E+00
      1.247  0.5749E-01  0.3690E+00  0.0000E+00
      1.272  0.2476E-01  0.2169E+00  0.0000E+00
      1.297  0.1741E-01  0.1562E+00  0.0000E+00
      1.322  0.1191E-01  0.1108E+00  0.0000E+00
      1.347  0.1016E-01  0.8753E-01  0.0000E+00
      1.372  0.9524E-02  0.8559E-01  0.0000E+00
      1.396  0.9550E-02  0.8930E-01  0.0000E+00
      1.421  0.1025E-01  0.9976E-01  0.0000E+00
      1.446  0.1173E-01  0.1198E+00  0.0000E+00
      1.471  0.1206E-01  0.1287E+00  0.0000E+00
      1.496  0.1242E-01  0.1343E+00  0.0000E+00
      1.521  0.1283E-01  0.1385E+00  0.0000E+00
      1.546  0.1406E-01  0.1535E+00  0.0000E+00
      1.570  0.1063E-01  0.1023E+00  0.0000E+00
      1.595  0.8687E-02  0.8071E-01  0.0000E+00
      1.620  0.7548E-02  0.6570E-01  0.0000E+00
      1.645  0.6540E-02  0.5978E-01  0.0000E+00
      1.670  0.6274E-02  0.5840E-01  0.0000E+00
      1.695  0.7173E-02  0.6663E-01  0.0000E+00
      1.719  0.9815E-02  0.8870E-01  0.0000E+00
      1.744  0.8662E-02  0.7503E-01  0.0000E+00
      1.769  0.7535E-02  0.6307E-01  0.0000E+00
      1.794  0.7293E-02  0.6193E-01  0.0000E+00
      1.819  0.7511E-02  0.6365E-01  0.0000E+00
      1.844  0.8724E-02  0.6895E-01  0.0000E+00
      1.869  0.5077E-02  0.4097E-01  0.0000E+00
      1.893  0.2525E-02  0.2412E-01  0.0000E+00
      1.918  0.7366E-03  0.1181E-01  0.0000E+00
      1.943  0.5597E-03  0.9338E-02  0.0000E+00
      1.968  0.3934E-03  0.6839E-02  0.0000E+00
      1.993  0.2378E-03  0.4313E-02  0.0000E+00
      2.018  0.9276E-04  0.1758E-02  0.0000E+00
      2.042  0.0000E+00  0.0000E+00  0.0000E+00
      2.067  0.0000E+00  0.0000E+00  0.0000E+00
      2.092  0.0000E+00  0.0000E+00  0.0000E+00
      2.117  0.0000E+00  0.0000E+00  0.0000E+00
      2.142  0.0000E+00  0.0000E+00  0.0000E+00
      2.167  0.0000E+00  0.0000E+00  0.0000E+00
      2.192  0.0000E+00  0.0000E+00  0.0000E+00
      2.216  0.0000E+00  0.0000E+00  0.0000E+00
      2.241  0.0000E+00  0.0000E+00  0.0000E+00
      2.266  0.0000E+00  0.0000E+00  0.0000E+00
      2.291  0.0000E+00  0.0000E+00  0.0000E+00
      2.316  0.0000E+00  0.0000E+00  0.0000E+00
      2.341  0.0000E+00  0.0000E+00  0.0000E+00
      2.365  0.0000E+00  0.0000E+00  0.0000E+00
      2.390  0.0000E+00  0.0000E+00  0.0000E+00
      2.415  0.0000E+00  0.0000E+00  0.0000E+00
      2.440  0.0000E+00  0.0000E+00  0.0000E+00
      2.465  0.0000E+00  0.0000E+00  0.0000E+00
      2.490  0.0000E+00  0.0000E+00  0.0000E+00
      2.515  0.0000E+00  0.0000E+00  0.0000E+00
      2.539  0.0000E+00  0.0000E+00  0.0000E+00
      2.564  0.0000E+00  0.0000E+00  0.0000E+00
      2.589  0.0000E+00  0.0000E+00  0.0000E+00
      2.614  0.0000E+00  0.0000E+00  0.0000E+00
      2.639  0.0000E+00  0.0000E+00  0.0000E+00
      2.664  0.0000E+00  0.0000E+00  0.0000E+00
      2.688  0.0000E+00  0.0000E+00  0.0000E+00
      2.713  0.0000E+00  0.0000E+00  0.0000E+00
      2.738  0.0000E+00  0.0000E+00  0.0000E+00
      2.763  0.0000E+00  0.0000E+00  0.0000E+00
      2.788  0.0000E+00  0.0000E+00  0.0000E+00
      2.813  0.0000E+00  0.0000E+00  0.0000E+00
      2.838  0.0000E+00  0.0000E+00  0.0000E+00
      2.862  0.0000E+00  0.0000E+00  0.0000E+00
      2.887  0.0000E+00  0.0000E+00  0.0000E+00
      2.912  0.0000E+00  0.0000E+00  0.0000E+00
      2.937  0.0000E+00  0.0000E+00  0.0000E+00
      2.93695651    -16.91563261  800     -1.95165038      1.00000000
    -16.916  0.0000E+00  0.0000E+00  0.0000E+00
    -16.891  0.0000E+00  0.0000E+00  0.0000E+00
    -16.866  0.0000E+00  0.0000E+00  0.0000E+00
    -16.841  0.0000E+00  0.0000E+00  0.0000E+00
    -16.816  0.0000E+00  0.0000E+00  0.0000E+00
    -16.791  0.0000E+00  0.0000E+00  0.0000E+00
    -16.767  0.0000E+00  0.0000E+00  0.0000E+00
    -16.742  0.0000E+00  0.0000E+00  0.0000E+00
    -16.717  0.0000E+00  0.0000E+00  0.0000E+00
    -16.692  0.0000E+00  0.0000E+00  0.0000E+00
    -16.667  0.0000E+00  0.0000E+00  0.0000E+00
    -16.642  0.0000E+00  0.0000E+00  0.0000E+00
    -16.617  0.0000E+00  0.0000E+00  0.0000E+00
    -16.593  0.0000E+00  0.0000E+00  0.0000E+00
    -16.568  0.0000E+00  0.0000E+00  0.0000E+00
    -16.543  0.0000E+00  0.0000E+00  0.0000E+00
    -16.518  0.0000E+00  0.0000E+00  0.0000E+00
    -16.493  0.0000E+00  0.0000E+00  0.0000E+00
    -16.468  0.0000E+00  0.0000E+00  0.0000E+00
    -16.444  0.0000E+00  0.0000E+00  0.0000E+00
    -16.419  0.0000E+00  0.0000E+00  0.0000E+00
    -16.394  0.0000E+00  0.0000E+00  0.0000E+00
    -16.369  0.0000E+00  0.0000E+00  0.0000E+00
    -16.344  0.0000E+00  0.0000E+00  0.0000E+00
    -16.319  0.0000E+00  0.0000E+00  0.0000E+00
    -16.294  0.0000E+00  0.0000E+00  0.0000E+00
    -16.270  0.0000E+00  0.0000E+00  0.0000E+00
    -16.245  0.0000E+00  0.0000E+00  0.0000E+00
    -16.220  0.0000E+00  0.0000E+00  0.0000E+00
    -16.195  0.0000E+00  0.0000E+00  0.0000E+00
    -16.170  0.0000E+00  0.0000E+00  0.0000E+00
    -16.145  0.0000E+00  0.0000E+00  0.0000E+00
    -16.121  0.0000E+00  0.0000E+00  0.0000E+00
    -16.096  0.0000E+00  0.0000E+00  0.0000E+00
    -16.071  0.0000E+00  0.0000E+00  0.0000E+00
    -16.046  0.0000E+00  0.0000E+00  0.0000E+00
    -16.021  0.0000E+00  0.0000E+00  0.0000E+00
    -15.996  0.5794E-01  0.4904E-02  0.9892E-03
    -15.971  0.4648E-01  0.5661E-02  0.8666E-03
    -15.947  0.4955E-01  0.7636E-02  0.9946E-03
    -15.922  0.4430E-01  0.9212E-02  0.9977E-03
    -15.897  0.4223E-01  0.1153E-01  0.1080E-02
    -15.872  0.4132E-01  0.1410E-01  0.1194E-02
    -15.847  0.4064E-01  0.1862E-01  0.1407E-02
    -15.822  0.3651E-01  0.2873E-01  0.1846E-02
    -15.798  0.3000E-01  0.2032E-01  0.1396E-02
    -15.773  0.2749E-01  0.1873E-01  0.1305E-02
    -15.748  0.2525E-01  0.1482E-01  0.1107E-02
    -15.723  0.2430E-01  0.1445E-01  0.1089E-02
    -15.698  0.2149E-01  0.1384E-01  0.1038E-02
    -15.673  0.1995E-01  0.1302E-01  0.9914E-03
    -15.648  0.1879E-01  0.1166E-01  0.9233E-03
    -15.624  0.1814E-01  0.1154E-01  0.9193E-03
    -15.599  0.1758E-01  0.1138E-01  0.9146E-03
    -15.574  0.1712E-01  0.1116E-01  0.9080E-03
    -15.549  0.1589E-01  0.1073E-01  0.8841E-03
    -15.524  0.1476E-01  0.9993E-02  0.8468E-03
    -15.499  0.1417E-01  0.9943E-02  0.8470E-03
    -15.475  0.1368E-01  0.9879E-02  0.8477E-03
    -15.450  0.1329E-01  0.9794E-02  0.8485E-03
    -15.425  0.1296E-01  0.9668E-02  0.8480E-03
    -15.400  0.1266E-01  0.9488E-02  0.8453E-03
    -15.375  0.1236E-01  0.9012E-02  0.8297E-03
    -15.350  0.1145E-01  0.8983E-02  0.8307E-03
    -15.325  0.1091E-01  0.8959E-02  0.8346E-03
    -15.301  0.1053E-01  0.8926E-02  0.8392E-03
    -15.276  0.1021E-01  0.8877E-02  0.8437E-03
    -15.251  0.9930E-02  0.8816E-02  0.8479E-03
    -15.226  0.9694E-02  0.8725E-02  0.8514E-03
    -15.201  0.9481E-02  0.8569E-02  0.8526E-03
    -15.176  0.9300E-02  0.8354E-02  0.8520E-03
    -15.152  0.9191E-02  0.8381E-02  0.8603E-03
    -15.127  0.1450E-01  0.1176E-01  0.1240E-02
    -15.102  0.9190E-02  0.9597E-02  0.1001E-02
    -15.077  0.6411E-02  0.8478E-02  0.8813E-03
    -15.052  0.4695E-02  0.7854E-02  0.8183E-03
    -15.027  0.3352E-02  0.7504E-02  0.7859E-03
    -15.002  0.2338E-02  0.8061E-02  0.8522E-03
    -14.978  0.2373E-03  0.1847E-02  0.1978E-03
    -14.953  0.0000E+00  0.0000E+00  0.0000E+00
    -14.928  0.0000E+00  0.0000E+00  0.0000E+00
    -14.903  0.1499E-01  0.1035E-01  0.1268E-02
    -14.878  0.9322E-02  0.7341E-02  0.9086E-03
    -14.853  0.7655E-02  0.7040E-02  0.8834E-03
    -14.829  0.6941E-02  0.7598E-02  0.9668E-03
    -14.804  0.6561E-02  0.8862E-02  0.1143E-02
    -14.779  0.6537E-02  0.9706E-02  0.1261E-02
    -14.754  0.6366E-02  0.2412E-01  0.3166E-02
    -14.729  0.4984E-02  0.7834E-02  0.1065E-02
    -14.704  0.4895E-02  0.7840E-02  0.1076E-02
    -14.679  0.4806E-02  0.7845E-02  0.1086E-02
    -14.655  0.4533E-02  0.7896E-02  0.1116E-02
    -14.630  0.4233E-02  0.7947E-02  0.1151E-02
    -14.605  0.4033E-02  0.7967E-02  0.1178E-02
    -14.580  0.3866E-02  0.7975E-02  0.1204E-02
    -14.555  0.3718E-02  0.7974E-02  0.1230E-02
    -14.530  0.3586E-02  0.7960E-02  0.1258E-02
    -14.505  0.3459E-02  0.7910E-02  0.1301E-02
    -14.481  0.3377E-02  0.7901E-02  0.1315E-02
    -14.456  0.3296E-02  0.7892E-02  0.1328E-02
    -14.431  0.3215E-02  0.7883E-02  0.1342E-02
    -14.406  0.2993E-02  0.8007E-02  0.1406E-02
    -14.381  0.2794E-02  0.8114E-02  0.1471E-02
    -14.356  0.2650E-02  0.8170E-02  0.1521E-02
    -14.332  0.2532E-02  0.8206E-02  0.1570E-02
    -14.307  0.2428E-02  0.8232E-02  0.1620E-02
    -14.282  0.2337E-02  0.8254E-02  0.1679E-02
    -14.257  0.2264E-02  0.8268E-02  0.1748E-02
    -14.232  0.2199E-02  0.8234E-02  0.1768E-02
    -14.207  0.2134E-02  0.8200E-02  0.1787E-02
    -14.182  0.2047E-02  0.8444E-02  0.1921E-02
    -14.158  0.1982E-02  0.8661E-02  0.2056E-02
    -14.133  0.1939E-02  0.8781E-02  0.2162E-02
    -14.108  0.1909E-02  0.8865E-02  0.2261E-02
    -14.083  0.1893E-02  0.8934E-02  0.2363E-02
    -14.058  0.1894E-02  0.9019E-02  0.2489E-02
    -14.033  0.1905E-02  0.9073E-02  0.2610E-02
    -14.009  0.2000E-02  0.9234E-02  0.2762E-02
    -13.984  0.2358E-02  0.9856E-02  0.3165E-02
    -13.959  0.2593E-02  0.1011E-01  0.3409E-02
    -13.934  0.2811E-02  0.1026E-01  0.3624E-02
    -13.909  0.3027E-02  0.1038E-01  0.3835E-02
    -13.884  0.3908E-02  0.1123E-01  0.4501E-02
    -13.859  0.5632E-02  0.1291E-01  0.5761E-02
    -13.835  0.6705E-02  0.1338E-01  0.6362E-02
    -13.810  0.1483E-01  0.1943E-01  0.1085E-01
    -13.785  0.9890E-02  0.1465E-01  0.8149E-02
    -13.760  0.6817E-02  0.1183E-01  0.6553E-02
    -13.735  0.5165E-02  0.1050E-01  0.5901E-02
    -13.710  0.4113E-02  0.9397E-02  0.5397E-02
    -13.686  0.3151E-02  0.8161E-02  0.4775E-02
    -13.661  0.2480E-02  0.7664E-02  0.4609E-02
    -13.636  0.1339E-02  0.5056E-02  0.3129E-02
    -13.611  0.0000E+00  0.0000E+00  0.0000E+00
    -13.586  0.0000E+00  0.0000E+00  0.0000E+00
    -13.561  0.0000E+00  0.0000E+00  0.0000E+00
    -13.536  0.0000E+00  0.0000E+00  0.0000E+00
    -13.512  0.0000E+00  0.0000E+00  0.0000E+00
    -13.487  0.0000E+00  0.0000E+00  0.0000E+00
    -13.462  0.0000E+00  0.0000E+00  0.0000E+00
    -13.437  0.0000E+00  0.0000E+00  0.0000E+00
    -13.412  0.0000E+00  0.0000E+00  0.0000E+00
    -13.387  0.0000E+00  0.0000E+00  0.0000E+00
    -13.363  0.0000E+00  0.0000E+00  0.0000E+00
    -13.338  0.0000E+00  0.0000E+00  0.0000E+00
    -13.313  0.0000E+00  0.0000E+00  0.0000E+00
    -13.288  0.0000E+00  0.0000E+00  0.0000E+00
    -13.263  0.0000E+00  0.0000E+00  0.0000E+00
    -13.238  0.0000E+00  0.0000E+00  0.0000E+00
    -13.213  0.0000E+00  0.0000E+00  0.0000E+00
    -13.189  0.0000E+00  0.0000E+00  0.0000E+00
    -13.164  0.0000E+00  0.0000E+00  0.0000E+00
    -13.139  0.0000E+00  0.0000E+00  0.0000E+00
    -13.114  0.0000E+00  0.0000E+00  0.0000E+00
    -13.089  0.0000E+00  0.0000E+00  0.0000E+00
    -13.064  0.0000E+00  0.0000E+00  0.0000E+00
    -13.040  0.0000E+00  0.0000E+00  0.0000E+00
    -13.015  0.0000E+00  0.0000E+00  0.0000E+00
    -12.990  0.0000E+00  0.0000E+00  0.0000E+00
    -12.965  0.0000E+00  0.0000E+00  0.0000E+00
    -12.940  0.0000E+00  0.0000E+00  0.0000E+00
    -12.915  0.1631E+00  0.1174E-01  0.2203E-02
    -12.890  0.1123E+00  0.9584E-02  0.1570E-02
    -12.866  0.1316E+00  0.1238E-01  0.1886E-02
    -12.841  0.1209E+00  0.1328E-01  0.1813E-02
    -12.816  0.1196E+00  0.1460E-01  0.1866E-02
    -12.791  0.1184E+00  0.1616E-01  0.1917E-02
    -12.766  0.1193E+00  0.1798E-01  0.2019E-02
    -12.741  0.1234E+00  0.1978E-01  0.2154E-02
    -12.717  0.1163E+00  0.2126E-01  0.2179E-02
    -12.692  0.1133E+00  0.2325E-01  0.2280E-02
    -12.667  0.1131E+00  0.2498E-01  0.2397E-02
    -12.642  0.1136E+00  0.2682E-01  0.2524E-02
    -12.617  0.1124E+00  0.2985E-01  0.2684E-02
    -12.592  0.1124E+00  0.3222E-01  0.2854E-02
    -12.567  0.1097E+00  0.3432E-01  0.3057E-02
    -12.543  0.1085E+00  0.3760E-01  0.3299E-02
    -12.518  0.1072E+00  0.4187E-01  0.3621E-02
    -12.493  0.1060E+00  0.4518E-01  0.3918E-02
    -12.468  0.1053E+00  0.4816E-01  0.4220E-02
    -12.443  0.1122E+00  0.6286E-01  0.5034E-02
    -12.418  0.1042E+00  0.6021E-01  0.5507E-02
    -12.394  0.1091E+00  0.7303E-01  0.7420E-02
    -12.369  0.1934E+00  0.1195E+00  0.2033E-01
    -12.344  0.2295E+00  0.1694E+00  0.3314E-01
    -12.319  0.1833E+00  0.1751E+00  0.3242E-01
    -12.294  0.1649E+00  0.2228E+00  0.3763E-01
    -12.269  0.1466E+00  0.1512E+00  0.2932E-01
    -12.244  0.1328E+00  0.1224E+00  0.2560E-01
    -12.220  0.1313E+00  0.1168E+00  0.2611E-01
    -12.195  0.1295E+00  0.1243E+00  0.2893E-01
    -12.170  0.1272E+00  0.1306E+00  0.2932E-01
    -12.145  0.7139E-01  0.6199E-01  0.1519E-01
    -12.120  0.7464E-01  0.5983E-01  0.1571E-01
    -12.095  0.9220E-01  0.6838E-01  0.1934E-01
    -12.071  0.1113E+00  0.7295E-01  0.2291E-01
    -12.046  0.6272E-01  0.6328E-01  0.1692E-01
    -12.021  0.5018E-01  0.7496E-01  0.1826E-01
    -11.996  0.0000E+00  0.0000E+00  0.0000E+00
    -11.971  0.0000E+00  0.0000E+00  0.0000E+00
    -11.946  0.0000E+00  0.0000E+00  0.0000E+00
    -11.921  0.0000E+00  0.0000E+00  0.0000E+00
    -11.897  0.0000E+00  0.0000E+00  0.0000E+00
    -11.872  0.0000E+00  0.0000E+00  0.0000E+00
    -11.847  0.0000E+00  0.0000E+00  0.0000E+00
    -11.822  0.0000E+00  0.0000E+00  0.0000E+00
    -11.797  0.0000E+00  0.0000E+00  0.0000E+00
    -11.772  0.0000E+00  0.0000E+00  0.0000E+00
    -11.747  0.0000E+00  0.0000E+00  0.0000E+00
    -11.723  0.0000E+00  0.0000E+00  0.0000E+00
    -11.698  0.0000E+00  0.0000E+00  0.0000E+00
    -11.673  0.0000E+00  0.0000E+00  0.0000E+00
    -11.648  0.0000E+00  0.0000E+00  0.0000E+00
    -11.623  0.0000E+00  0.0000E+00  0.0000E+00
    -11.598  0.0000E+00  0.0000E+00  0.0000E+00
    -11.574  0.0000E+00  0.0000E+00  0.0000E+00
    -11.549  0.0000E+00  0.0000E+00  0.0000E+00
    -11.524  0.0000E+00  0.0000E+00  0.0000E+00
    -11.499  0.0000E+00  0.0000E+00  0.0000E+00
    -11.474  0.0000E+00  0.0000E+00  0.0000E+00
    -11.449  0.0000E+00  0.0000E+00  0.0000E+00
    -11.424  0.0000E+00  0.0000E+00  0.0000E+00
    -11.400  0.0000E+00  0.0000E+00  0.0000E+00
    -11.375  0.0000E+00  0.0000E+00  0.0000E+00
    -11.350  0.0000E+00  0.0000E+00  0.0000E+00
    -11.325  0.0000E+00  0.0000E+00  0.0000E+00
    -11.300  0.0000E+00  0.0000E+00  0.0000E+00
    -11.275  0.0000E+00  0.0000E+00  0.0000E+00
    -11.251  0.0000E+00  0.0000E+00  0.0000E+00
    -11.226  0.0000E+00  0.0000E+00  0.0000E+00
    -11.201  0.0000E+00  0.0000E+00  0.0000E+00
    -11.176  0.0000E+00  0.0000E+00  0.0000E+00
    -11.151  0.0000E+00  0.0000E+00  0.0000E+00
    -11.126  0.0000E+00  0.0000E+00  0.0000E+00
    -11.101  0.0000E+00  0.0000E+00  0.0000E+00
    -11.077  0.0000E+00  0.0000E+00  0.0000E+00
    -11.052  0.0000E+00  0.0000E+00  0.0000E+00
    -11.027  0.0000E+00  0.0000E+00  0.0000E+00
    -11.002  0.0000E+00  0.0000E+00  0.0000E+00
    -10.977  0.0000E+00  0.0000E+00  0.0000E+00
    -10.952  0.0000E+00  0.0000E+00  0.0000E+00
    -10.928  0.0000E+00  0.0000E+00  0.0000E+00
    -10.903  0.0000E+00  0.0000E+00  0.0000E+00
    -10.878  0.0000E+00  0.0000E+00  0.0000E+00
    -10.853  0.0000E+00  0.0000E+00  0.0000E+00
    -10.828  0.0000E+00  0.0000E+00  0.0000E+00
    -10.803  0.0000E+00  0.0000E+00  0.0000E+00
    -10.778  0.0000E+00  0.0000E+00  0.0000E+00
    -10.754  0.0000E+00  0.0000E+00  0.0000E+00
    -10.729  0.0000E+00  0.0000E+00  0.0000E+00
    -10.704  0.3044E-01  0.3643E-01  0.1783E-01
    -10.679  0.2321E-01  0.3824E-01  0.1508E-01
    -10.654  0.1988E-01  0.4370E-01  0.1441E-01
    -10.629  0.1806E-01  0.4884E-01  0.1399E-01
    -10.605  0.1546E-01  0.5205E-01  0.1289E-01
    -10.580  0.1498E-01  0.5470E-01  0.1212E-01
    -10.555  0.1617E-01  0.5681E-01  0.1162E-01
    -10.530  0.1789E-01  0.5965E-01  0.1142E-01
    -10.505  0.2046E-01  0.5981E-01  0.1092E-01
    -10.480  0.2329E-01  0.5996E-01  0.1057E-01
    -10.455  0.2751E-01  0.6019E-01  0.1026E-01
    -10.431  0.3145E-01  0.6213E-01  0.1026E-01
    -10.406  0.3738E-01  0.6508E-01  0.1042E-01
    -10.381  0.4736E-01  0.8039E-01  0.1104E-01
    -10.356  0.4674E-01  0.6010E-01  0.1037E-01
    -10.331  0.4916E-01  0.5411E-01  0.1020E-01
    -10.306  0.4942E-01  0.5050E-01  0.1033E-01
    -10.282  0.5037E-01  0.5066E-01  0.1130E-01
    -10.257  0.6909E-01  0.6245E-01  0.1219E-01
    -10.232  0.8681E-01  0.7765E-01  0.1479E-01
    -10.207  0.8381E-01  0.7272E-01  0.1647E-01
    -10.182  0.7945E-01  0.6789E-01  0.1306E-01
    -10.157  0.9051E-01  0.6923E-01  0.1228E-01
    -10.132  0.1075E+00  0.7106E-01  0.1191E-01
    -10.108  0.1093E+00  0.7390E-01  0.1182E-01
    -10.083  0.1365E+00  0.7991E-01  0.1159E-01
    -10.058  0.1603E+00  0.9248E-01  0.1231E-01
    -10.033  0.2305E+00  0.1167E+00  0.1484E-01
    -10.008  0.1140E+00  0.2477E-01  0.1879E-02
     -9.983  0.1086E+00  0.2181E-01  0.1768E-02
     -9.959  0.1045E+00  0.1952E-01  0.1708E-02
     -9.934  0.8680E-01  0.1385E-01  0.1334E-02
     -9.909  0.8636E-01  0.1335E-01  0.1353E-02
     -9.884  0.8579E-01  0.1290E-01  0.1372E-02
     -9.859  0.8503E-01  0.1246E-01  0.1387E-02
     -9.834  0.8395E-01  0.1202E-01  0.1398E-02
     -9.809  0.8274E-01  0.1157E-01  0.1405E-02
     -9.785  0.8123E-01  0.1109E-01  0.1402E-02
     -9.760  0.7966E-01  0.1058E-01  0.1389E-02
     -9.735  0.7909E-01  0.1005E-01  0.1374E-02
     -9.710  0.7813E-01  0.9380E-02  0.1350E-02
     -9.685  0.7741E-01  0.8883E-02  0.1339E-02
     -9.660  0.7730E-01  0.8803E-02  0.1355E-02
     -9.636  0.7705E-01  0.8718E-02  0.1369E-02
     -9.611  0.7673E-01  0.8631E-02  0.1382E-02
     -9.586  0.7641E-01  0.8545E-02  0.1394E-02
     -9.561  0.7606E-01  0.8453E-02  0.1404E-02
     -9.536  0.7915E-01  0.8687E-02  0.1426E-02
     -9.511  0.8072E-01  0.8798E-02  0.1445E-02
     -9.486  0.8143E-01  0.8826E-02  0.1461E-02
     -9.462  0.8213E-01  0.8847E-02  0.1476E-02
     -9.437  0.8220E-01  0.8805E-02  0.1488E-02
     -9.412  0.8213E-01  0.8692E-02  0.1496E-02
     -9.387  0.8210E-01  0.8588E-02  0.1503E-02
     -9.362  0.9132E-01  0.9604E-02  0.1552E-02
     -9.337  0.9576E-01  0.1016E-01  0.1590E-02
     -9.313  0.1002E+00  0.1072E-01  0.1631E-02
     -9.288  0.1019E+00  0.1102E-01  0.1668E-02
     -9.263  0.1028E+00  0.1124E-01  0.1704E-02
     -9.238  0.1581E+00  0.1756E-01  0.1917E-02
     -9.213  0.1503E+00  0.1693E-01  0.1972E-02
     -9.188  0.1230E+00  0.1396E-01  0.1938E-02
     -9.163  0.9780E-01  0.1124E-01  0.1899E-02
     -9.139  0.8923E-01  0.1039E-01  0.1893E-02
     -9.114  0.8472E-01  0.9913E-02  0.1890E-02
     -9.089  0.8022E-01  0.9432E-02  0.1884E-02
     -9.064  0.7407E-01  0.8779E-02  0.1871E-02
     -9.039  0.6796E-01  0.8191E-02  0.1849E-02
     -9.014  0.6416E-01  0.7856E-02  0.1824E-02
     -8.990  0.6099E-01  0.7573E-02  0.1800E-02
     -8.965  0.5871E-01  0.7363E-02  0.1781E-02
     -8.940  0.5639E-01  0.7155E-02  0.1760E-02
     -8.915  0.5375E-01  0.6931E-02  0.1736E-02
     -8.890  0.5016E-01  0.6635E-02  0.1710E-02
     -8.865  0.4778E-01  0.6445E-02  0.1670E-02
     -8.840  0.4543E-01  0.6262E-02  0.1630E-02
     -8.816  0.4392E-01  0.6172E-02  0.1598E-02
     -8.791  0.4241E-01  0.6086E-02  0.1565E-02
     -8.766  0.4109E-01  0.6065E-02  0.1534E-02
     -8.741  0.3947E-01  0.6089E-02  0.1501E-02
     -8.716  0.3717E-01  0.5935E-02  0.1440E-02
     -8.691  0.3481E-01  0.5744E-02  0.1368E-02
     -8.666  0.3326E-01  0.5610E-02  0.1311E-02
     -8.642  0.3171E-01  0.5477E-02  0.1254E-02
     -8.617  0.3025E-01  0.5418E-02  0.1199E-02
     -8.592  0.2883E-01  0.5383E-02  0.1145E-02
     -8.567  0.2707E-01  0.5415E-02  0.1076E-02
     -8.542  0.2582E-01  0.5323E-02  0.1019E-02
     -8.517  0.2540E-01  0.5510E-02  0.9861E-03
     -8.493  0.2801E-01  0.6629E-02  0.1049E-02
     -8.468  0.2445E-01  0.6095E-02  0.8962E-03
     -8.443  0.1983E-01  0.5165E-02  0.7107E-03
     -8.418  0.1402E-01  0.3757E-02  0.4926E-03
     -8.393  0.8282E-02  0.2324E-02  0.2817E-03
     -8.368  0.0000E+00  0.0000E+00  0.0000E+00
     -8.343  0.0000E+00  0.0000E+00  0.0000E+00
     -8.319  0.0000E+00  0.0000E+00  0.0000E+00
     -8.294  0.0000E+00  0.0000E+00  0.0000E+00
     -8.269  0.0000E+00  0.0000E+00  0.0000E+00
     -8.244  0.0000E+00  0.0000E+00  0.0000E+00
     -8.219  0.0000E+00  0.0000E+00  0.0000E+00
     -8.194  0.2796E+00  0.3858E-02  0.4366E-02
     -8.170  0.3058E+00  0.5335E-02  0.4764E-02
     -8.145  0.3179E+00  0.6767E-02  0.4864E-02
     -8.120  0.2831E+00  0.7511E-02  0.4259E-02
     -8.095  0.2398E+00  0.8329E-02  0.3475E-02
     -8.070  0.2262E+00  0.9012E-02  0.3205E-02
     -8.045  0.3095E+00  0.1086E-01  0.4966E-02
     -8.020  0.3222E+00  0.1209E-01  0.5192E-02
     -7.996  0.3317E+00  0.1354E-01  0.5349E-02
     -7.971  0.3257E+00  0.1488E-01  0.5235E-02
     -7.946  0.3154E+00  0.1599E-01  0.5101E-02
     -7.921  0.3079E+00  0.1685E-01  0.5030E-02
     -7.896  0.3127E+00  0.1786E-01  0.5158E-02
     -7.871  0.3160E+00  0.1891E-01  0.5267E-02
     -7.847  0.3172E+00  0.2048E-01  0.5317E-02
     -7.822  0.3208E+00  0.2183E-01  0.5406E-02
     -7.797  0.3225E+00  0.2331E-01  0.5468E-02
     -7.772  0.3252E+00  0.2472E-01  0.5547E-02
     -7.747  0.3279E+00  0.2611E-01  0.5626E-02
     -7.722  0.3247E+00  0.2765E-01  0.5675E-02
     -7.697  0.3291E+00  0.2952E-01  0.5866E-02
     -7.673  0.3338E+00  0.3137E-01  0.6051E-02
     -7.648  0.3385E+00  0.3369E-01  0.6243E-02
     -7.623  0.3438E+00  0.3612E-01  0.6482E-02
     -7.598  0.3767E+00  0.7861E-01  0.1166E-01
     -7.573  0.4100E+00  0.1201E+00  0.1707E-01
     -7.548  0.4406E+00  0.1300E+00  0.1841E-01
     -7.524  0.5047E+00  0.1327E+00  0.1984E-01
     -7.499  0.4341E+00  0.1047E+00  0.1552E-01
     -7.474  0.3798E+00  0.8966E-01  0.1268E-01
     -7.449  0.3751E+00  0.8878E-01  0.1145E-01
     -7.424  0.3706E+00  0.1128E+00  0.1187E-01
     -7.399  0.3659E+00  0.1798E+00  0.1402E-01
     -7.374  0.3603E+00  0.1352E+00  0.1269E-01
     -7.350  0.4418E+00  0.1715E+00  0.1504E-01
     -7.325  0.4784E+00  0.1734E+00  0.1520E-01
     -7.300  0.3678E+00  0.1399E+00  0.1247E-01
     -7.275  0.3411E+00  0.1331E+00  0.1178E-01
     -7.250  0.3320E+00  0.1281E+00  0.1188E-01
     -7.225  0.3093E+00  0.1236E+00  0.1156E-01
     -7.201  0.2952E+00  0.1252E+00  0.1180E-01
     -7.176  0.2939E+00  0.1221E+00  0.1259E-01
     -7.151  0.3261E+00  0.1407E+00  0.1493E-01
     -7.126  0.2986E+00  0.1061E+00  0.1636E-01
     -7.101  0.2436E+00  0.7674E-01  0.1143E-01
     -7.076  0.3287E+00  0.8675E-01  0.1334E-01
     -7.051  0.2843E+00  0.7724E-01  0.1006E-01
     -7.027  0.2881E+00  0.8387E-01  0.9553E-02
     -7.002  0.3518E+00  0.1001E+00  0.1111E-01
     -6.977  0.3973E+00  0.1087E+00  0.1246E-01
     -6.952  0.3733E+00  0.8850E-01  0.1120E-01
     -6.927  0.3257E+00  0.6934E-01  0.1000E-01
     -6.902  0.2892E+00  0.5213E-01  0.9031E-02
     -6.878  0.2489E+00  0.3871E-01  0.8070E-02
     -6.853  0.1933E+00  0.2999E-01  0.6220E-02
     -6.828  0.1141E+00  0.1654E-01  0.3087E-02
     -6.803  0.1255E+00  0.1989E-01  0.3527E-02
     -6.778  0.1370E+00  0.3093E-01  0.4627E-02
     -6.753  0.1485E+00  0.6603E-01  0.6627E-02
     -6.728  0.1575E+00  0.6158E-01  0.6336E-02
     -6.704  0.1638E+00  0.6101E-01  0.6290E-02
     -6.679  0.1663E+00  0.6522E-01  0.6487E-02
     -6.654  0.1699E+00  0.8174E-01  0.7147E-02
     -6.629  0.1403E+00  0.6273E-01  0.6043E-02
     -6.604  0.1269E+00  0.5805E-01  0.5676E-02
     -6.579  0.1541E+00  0.7265E-01  0.8817E-02
     -6.555  0.1580E+00  0.8288E-01  0.1019E-01
     -6.530  0.1739E+00  0.1013E+00  0.1233E-01
     -6.505  0.1954E+00  0.1092E+00  0.1378E-01
     -6.480  0.2590E+00  0.1332E+00  0.1879E-01
     -6.455  0.3016E+00  0.1616E+00  0.2472E-01
     -6.430  0.2346E+00  0.1340E+00  0.2121E-01
     -6.405  0.2291E+00  0.1306E+00  0.2122E-01
     -6.381  0.2297E+00  0.1285E+00  0.2202E-01
     -6.356  0.2449E+00  0.1320E+00  0.2421E-01
     -6.331  0.2919E+00  0.1483E+00  0.2921E-01
     -6.306  0.2797E+00  0.1567E+00  0.2929E-01
     -6.281  0.2441E+00  0.1360E+00  0.2440E-01
     -6.256  0.3130E+00  0.1478E+00  0.2601E-01
     -6.232  0.4662E+00  0.2083E+00  0.3778E-01
     -6.207  0.3661E+00  0.1743E+00  0.2815E-01
     -6.182  0.3176E+00  0.1483E+00  0.2421E-01
     -6.157  0.3272E+00  0.1562E+00  0.2513E-01
     -6.132  0.2586E+00  0.1462E+00  0.2221E-01
     -6.107  0.1966E+00  0.1263E+00  0.1806E-01
     -6.082  0.1594E+00  0.1010E+00  0.1439E-01
     -6.058  0.1196E+00  0.6152E-01  0.9425E-02
     -6.033  0.2318E-01  0.4765E-01  0.7607E-02
     -6.008  0.1931E-01  0.4325E-01  0.6973E-02
     -5.983  0.1672E-01  0.3982E-01  0.6487E-02
     -5.958  0.1520E-01  0.3760E-01  0.6213E-02
     -5.933  0.1362E-01  0.3522E-01  0.5901E-02
     -5.909  0.1503E-01  0.3451E-01  0.5804E-02
     -5.884  0.4297E-01  0.4973E-01  0.8033E-02
     -5.859  0.7189E-01  0.6511E-01  0.1044E-01
     -5.834  0.7003E-01  0.6623E-01  0.1051E-01
     -5.809  0.5640E-01  0.5968E-01  0.9511E-02
     -5.784  0.8902E-01  0.7862E-01  0.1187E-01
     -5.759  0.7582E-01  0.6863E-01  0.1112E-01
     -5.735  0.8021E-01  0.7100E-01  0.1154E-01
     -5.710  0.9604E-01  0.8147E-01  0.1401E-01
     -5.685  0.9541E-01  0.6932E-01  0.1124E-01
     -5.660  0.9648E-01  0.7154E-01  0.1150E-01
     -5.635  0.1045E+00  0.7942E-01  0.1267E-01
     -5.610  0.1158E+00  0.9233E-01  0.1442E-01
     -5.585  0.1290E+00  0.1036E+00  0.1649E-01
     -5.561  0.1366E+00  0.1074E+00  0.1925E-01
     -5.536  0.1525E+00  0.1336E+00  0.2090E-01
     -5.511  0.1578E+00  0.1354E+00  0.1850E-01
     -5.486  0.1656E+00  0.1464E+00  0.1892E-01
     -5.461  0.1662E+00  0.1659E+00  0.2091E-01
     -5.436  0.1779E+00  0.2178E+00  0.2788E-01
     -5.412  0.1880E+00  0.2773E+00  0.3663E-01
     -5.387  0.1656E+00  0.2502E+00  0.3150E-01
     -5.362  0.1628E+00  0.2526E+00  0.3061E-01
     -5.337  0.1575E+00  0.2561E+00  0.2995E-01
     -5.312  0.1553E+00  0.2543E+00  0.2934E-01
     -5.287  0.1746E+00  0.2324E+00  0.3056E-01
     -5.262  0.1650E+00  0.1867E+00  0.2862E-01
     -5.238  0.2093E+00  0.2037E+00  0.3609E-01
     -5.213  0.1580E+00  0.1756E+00  0.2896E-01
     -5.188  0.1437E+00  0.1650E+00  0.2722E-01
     -5.163  0.1240E+00  0.1513E+00  0.2532E-01
     -5.138  0.9005E-01  0.1254E+00  0.2178E-01
     -5.113  0.6813E-01  0.1139E+00  0.1988E-01
     -5.089  0.5549E-01  0.9869E-01  0.1576E-01
     -5.064  0.5263E-01  0.9567E-01  0.1454E-01
     -5.039  0.5104E-01  0.9561E-01  0.1460E-01
     -5.014  0.5767E-01  0.1178E+00  0.1571E-01
     -4.989  0.5368E-01  0.1083E+00  0.1566E-01
     -4.964  0.5444E-01  0.1088E+00  0.1607E-01
     -4.939  0.5341E-01  0.1079E+00  0.1597E-01
     -4.915  0.5206E-01  0.1067E+00  0.1569E-01
     -4.890  0.4725E-01  0.1031E+00  0.1509E-01
     -4.865  0.4741E-01  0.1072E+00  0.1526E-01
     -4.840  0.6856E-01  0.1728E+00  0.1903E-01
     -4.815  0.8106E-01  0.1808E+00  0.2209E-01
     -4.790  0.8923E-01  0.1698E+00  0.2032E-01
     -4.766  0.1213E+00  0.2142E+00  0.2306E-01
     -4.741  0.1515E+00  0.2390E+00  0.2466E-01
     -4.716  0.1560E+00  0.2569E+00  0.2830E-01
     -4.691  0.1424E+00  0.2433E+00  0.2521E-01
     -4.666  0.1371E+00  0.2347E+00  0.2495E-01
     -4.641  0.1457E+00  0.2376E+00  0.2543E-01
     -4.616  0.1490E+00  0.2664E+00  0.2743E-01
     -4.592  0.1584E+00  0.3079E+00  0.3101E-01
     -4.567  0.1556E+00  0.3034E+00  0.3177E-01
     -4.542  0.1406E+00  0.2796E+00  0.3150E-01
     -4.517  0.1570E+00  0.3060E+00  0.3672E-01
     -4.492  0.9740E-01  0.2366E+00  0.2687E-01
     -4.467  0.8094E-01  0.2149E+00  0.2447E-01
     -4.443  0.7554E-01  0.2198E+00  0.2430E-01
     -4.418  0.7096E-01  0.2222E+00  0.2570E-01
     -4.393  0.6538E-01  0.2171E+00  0.2560E-01
     -4.368  0.3902E-01  0.1953E+00  0.2635E-01
     -4.343  0.3819E-01  0.1951E+00  0.2756E-01
     -4.318  0.3921E-01  0.1736E+00  0.2122E-01
     -4.293  0.4044E-01  0.1742E+00  0.2183E-01
     -4.269  0.4167E-01  0.1745E+00  0.2242E-01
     -4.244  0.4420E-01  0.1823E+00  0.2400E-01
     -4.219  0.4463E-01  0.1834E+00  0.2482E-01
     -4.194  0.4549E-01  0.1845E+00  0.2554E-01
     -4.169  0.4605E-01  0.1822E+00  0.2568E-01
     -4.144  0.4343E-01  0.1687E+00  0.2446E-01
     -4.120  0.4333E-01  0.1634E+00  0.2424E-01
     -4.095  0.4316E-01  0.1599E+00  0.2437E-01
     -4.070  0.4274E-01  0.1579E+00  0.2452E-01
     -4.045  0.4285E-01  0.1578E+00  0.2468E-01
     -4.020  0.4434E-01  0.1631E+00  0.2562E-01
     -3.995  0.4848E-01  0.1775E+00  0.2862E-01
     -3.970  0.5186E-01  0.2335E+00  0.3217E-01
     -3.946  0.5441E-01  0.2608E+00  0.3507E-01
     -3.921  0.5360E-01  0.2635E+00  0.3605E-01
     -3.896  0.5239E-01  0.2484E+00  0.3583E-01
     -3.871  0.5274E-01  0.2530E+00  0.3785E-01
     -3.846  0.6263E-01  0.2969E+00  0.4739E-01
     -3.821  0.5538E-01  0.3148E+00  0.4900E-01
     -3.797  0.4800E-01  0.3023E+00  0.4523E-01
     -3.772  0.4749E-01  0.2597E+00  0.3751E-01
     -3.747  0.4874E-01  0.2525E+00  0.3777E-01
     -3.722  0.5017E-01  0.2457E+00  0.3776E-01
     -3.697  0.5367E-01  0.2138E+00  0.3680E-01
     -3.672  0.4356E-01  0.1919E+00  0.3298E-01
     -3.647  0.4023E-01  0.1821E+00  0.3001E-01
     -3.623  0.5000E-01  0.2355E+00  0.3777E-01
     -3.598  0.4730E-01  0.3117E+00  0.4060E-01
     -3.573  0.4257E-01  0.3569E+00  0.4363E-01
     -3.548  0.3970E-01  0.3208E+00  0.3894E-01
     -3.523  0.5342E-01  0.3326E+00  0.4226E-01
     -3.498  0.4150E-01  0.2720E+00  0.3625E-01
     -3.474  0.4210E-01  0.2811E+00  0.3775E-01
     -3.449  0.4539E-01  0.3163E+00  0.4214E-01
     -3.424  0.4550E-01  0.3353E+00  0.4484E-01
     -3.399  0.4860E-01  0.3277E+00  0.4524E-01
     -3.374  0.4887E-01  0.3031E+00  0.4643E-01
     -3.349  0.1200E+00  0.4394E+00  0.6768E-01
     -3.324  0.1644E+00  0.4938E+00  0.7706E-01
     -3.300  0.7538E-01  0.3520E+00  0.5798E-01
     -3.275  0.8803E-01  0.3864E+00  0.6440E-01
     -3.250  0.8601E-01  0.3910E+00  0.7109E-01
     -3.225  0.8353E-01  0.3286E+00  0.6688E-01
     -3.200  0.7468E-01  0.2847E+00  0.6170E-01
     -3.175  0.6471E-01  0.2235E+00  0.5229E-01
     -3.151  0.8366E-01  0.2536E+00  0.5653E-01
     -3.126  0.6869E-01  0.2090E+00  0.5079E-01
     -3.101  0.6706E-01  0.2009E+00  0.4945E-01
     -3.076  0.7459E-01  0.2087E+00  0.5301E-01
     -3.051  0.8165E-01  0.2141E+00  0.5622E-01
     -3.026  0.6040E-01  0.1937E+00  0.4528E-01
     -3.001  0.5670E-01  0.1928E+00  0.4545E-01
     -2.977  0.6343E-01  0.2170E+00  0.4926E-01
     -2.952  0.5233E-01  0.1675E+00  0.3773E-01
     -2.927  0.5086E-01  0.1684E+00  0.3750E-01
     -2.902  0.6468E-01  0.2775E+00  0.4431E-01
     -2.877  0.5643E-01  0.2205E+00  0.4052E-01
     -2.852  0.5422E-01  0.2205E+00  0.4024E-01
     -2.827  0.6118E-01  0.2852E+00  0.4619E-01
     -2.803  0.5634E-01  0.2380E+00  0.4388E-01
     -2.778  0.6101E-01  0.2484E+00  0.4571E-01
     -2.753  0.5371E-01  0.2397E+00  0.4430E-01
     -2.728  0.4712E-01  0.2828E+00  0.5291E-01
     -2.703  0.4381E-01  0.2690E+00  0.4530E-01
     -2.678  0.4364E-01  0.3022E+00  0.4681E-01
     -2.654  0.3927E-01  0.2756E+00  0.4940E-01
     -2.629  0.3613E-01  0.2572E+00  0.4906E-01
     -2.604  0.3344E-01  0.2585E+00  0.5475E-01
     -2.579  0.3312E-01  0.3031E+00  0.7364E-01
     -2.554  0.3478E-01  0.3230E+00  0.8720E-01
     -2.529  0.3477E-01  0.2690E+00  0.7940E-01
     -2.504  0.3366E-01  0.2718E+00  0.8441E-01
     -2.480  0.3241E-01  0.2806E+00  0.9153E-01
     -2.455  0.3249E-01  0.3060E+00  0.1086E+00
     -2.430  0.3185E-01  0.3366E+00  0.1200E+00
     -2.405  0.2658E-01  0.2695E+00  0.1026E+00
     -2.380  0.2263E-01  0.2336E+00  0.8948E-01
     -2.355  0.1799E-01  0.1777E+00  0.6094E-01
     -2.331  0.1621E-01  0.1824E+00  0.6178E-01
     -2.306  0.1460E-01  0.2083E+00  0.6834E-01
     -2.281  0.1277E-01  0.1539E+00  0.6361E-01
     -2.256  0.1097E-01  0.1520E+00  0.7121E-01
     -2.231  0.8551E-02  0.1176E+00  0.5841E-01
     -2.206  0.7520E-02  0.1072E+00  0.5564E-01
     -2.181  0.6468E-02  0.7988E-01  0.4051E-01
     -2.157  0.5549E-02  0.8429E-01  0.4595E-01
     -2.132  0.3876E-02  0.4306E-01  0.2130E-01
     -2.107  0.3105E-02  0.3096E-01  0.1433E-01
     -2.082  0.2521E-02  0.2983E-01  0.1407E-01
     -2.057  0.1834E-02  0.3116E-01  0.1513E-01
     -2.032  0.1438E-02  0.2858E-01  0.1401E-01
     -2.008  0.9840E-03  0.2445E-01  0.1202E-01
     -1.983  0.7081E-03  0.2619E-01  0.1298E-01
     -1.958  0.0000E+00  0.0000E+00  0.0000E+00
     -1.933  0.0000E+00  0.0000E+00  0.0000E+00
     -1.908  0.0000E+00  0.0000E+00  0.0000E+00
     -1.883  0.0000E+00  0.0000E+00  0.0000E+00
     -1.858  0.0000E+00  0.0000E+00  0.0000E+00
     -1.834  0.0000E+00  0.0000E+00  0.0000E+00
     -1.809  0.5640E-02  0.3454E-02  0.1100E-03
     -1.784  0.1780E-01  0.1092E-01  0.3540E-03
     -1.759  0.2991E-01  0.1837E-01  0.6064E-03
     -1.734  0.3627E-01  0.2237E-01  0.8009E-03
     -1.709  0.4239E-01  0.2623E-01  0.1001E-02
     -1.685  0.4847E-01  0.3009E-01  0.1208E-02
     -1.660  0.4466E-01  0.2683E-01  0.1289E-02
     -1.635  0.4540E-01  0.2640E-01  0.1490E-02
     -1.610  0.4934E-01  0.2806E-01  0.1759E-02
     -1.585  0.5498E-01  0.3057E-01  0.2081E-02
     -1.560  0.6028E-01  0.3271E-01  0.2412E-02
     -1.535  0.6358E-01  0.3234E-01  0.2830E-02
     -1.511  0.3058E+00  0.5419E-01  0.3110E-01
     -1.486  0.1642E+00  0.5934E-01  0.1170E-01
     -1.461  0.2167E+00  0.8056E-01  0.1360E-01
     -1.436  0.1976E+00  0.7963E-01  0.1188E-01
     -1.411  0.2013E+00  0.8643E-01  0.1196E-01
     -1.386  0.2061E+00  0.1279E+00  0.1280E-01
     -1.362  0.2056E+00  0.1336E+00  0.1257E-01
     -1.337  0.2006E+00  0.1353E+00  0.1229E-01
     -1.312  0.1995E+00  0.1378E+00  0.1229E-01
     -1.287  0.1902E+00  0.1364E+00  0.1188E-01
     -1.262  0.1814E+00  0.1419E+00  0.1147E-01
     -1.237  0.1728E+00  0.1414E+00  0.1136E-01
     -1.212  0.1702E+00  0.1432E+00  0.1160E-01
     -1.188  0.1722E+00  0.1486E+00  0.1215E-01
     -1.163  0.1737E+00  0.1538E+00  0.1280E-01
     -1.138  0.1781E+00  0.1606E+00  0.1356E-01
     -1.113  0.1826E+00  0.1665E+00  0.1432E-01
     -1.088  0.1815E+00  0.1693E+00  0.1492E-01
     -1.063  0.1839E+00  0.1734E+00  0.1571E-01
     -1.039  0.2387E+00  0.2317E+00  0.2129E-01
     -1.014  0.2277E+00  0.2171E+00  0.2107E-01
     -0.989  0.1646E+00  0.1588E+00  0.1567E-01
     -0.964  0.1546E+00  0.1499E+00  0.1541E-01
     -0.939  0.1502E+00  0.1463E+00  0.1547E-01
     -0.914  0.1486E+00  0.1452E+00  0.1604E-01
     -0.889  0.1477E+00  0.1448E+00  0.1668E-01
     -0.865  0.1459E+00  0.1435E+00  0.1727E-01
     -0.840  0.1469E+00  0.1461E+00  0.1845E-01
     -0.815  0.1508E+00  0.1506E+00  0.1992E-01
     -0.790  0.1551E+00  0.1541E+00  0.2142E-01
     -0.765  0.1603E+00  0.1595E+00  0.2343E-01
     -0.740  0.1845E+00  0.1815E+00  0.2919E-01
     -0.716  0.1803E+00  0.1705E+00  0.3093E-01
     -0.691  0.1699E+00  0.1579E+00  0.3099E-01
     -0.666  0.1641E+00  0.1488E+00  0.3138E-01
     -0.641  0.1633E+00  0.1464E+00  0.3201E-01
     -0.616  0.1820E+00  0.1643E+00  0.3592E-01
     -0.591  0.2110E+00  0.1894E+00  0.4208E-01
     -0.566  0.2486E+00  0.2097E+00  0.6034E-01
     -0.542  0.1533E+00  0.1546E+00  0.2619E-01
     -0.517  0.1362E+00  0.1406E+00  0.2466E-01
     -0.492  0.1195E+00  0.1249E+00  0.2244E-01
     -0.467  0.1446E+00  0.1505E+00  0.2467E-01
     -0.442  0.1546E+00  0.1604E+00  0.2588E-01
     -0.417  0.1292E+00  0.1337E+00  0.2354E-01
     -0.393  0.1230E+00  0.1271E+00  0.2317E-01
     -0.368  0.1154E+00  0.1190E+00  0.2276E-01
     -0.343  0.1227E+00  0.1282E+00  0.2447E-01
     -0.318  0.1351E+00  0.1439E+00  0.2776E-01
     -0.293  0.1122E+00  0.1144E+00  0.2424E-01
     -0.268  0.1204E+00  0.1182E+00  0.2675E-01
     -0.243  0.1283E+00  0.1236E+00  0.2999E-01
     -0.219  0.1294E+00  0.1249E+00  0.3518E-01
     -0.194  0.1246E+00  0.1233E+00  0.4350E-01
     -0.169  0.1442E+00  0.1508E+00  0.5483E-01
     -0.144  0.1283E+00  0.1319E+00  0.4985E-01
     -0.119  0.1381E+00  0.1394E+00  0.5443E-01
     -0.094  0.1854E+00  0.2630E+00  0.7079E-01
     -0.070  0.1458E+00  0.2344E+00  0.5638E-01
     -0.045  0.1454E+00  0.2692E+00  0.5364E-01
     -0.020  0.1388E+00  0.2998E+00  0.5317E-01
      0.005  0.1589E+00  0.4658E+00  0.6484E-01
      0.030  0.9574E-01  0.3710E+00  0.4930E-01
      0.055  0.7228E-01  0.3005E+00  0.4228E-01
      0.080  0.6386E-01  0.2681E+00  0.3895E-01
      0.104  0.5667E-01  0.1930E+00  0.3128E-01
      0.129  0.6068E-01  0.1828E+00  0.3076E-01
      0.154  0.6652E-01  0.1738E+00  0.3036E-01
      0.179  0.4771E-01  0.1459E+00  0.2566E-01
      0.204  0.2580E-01  0.1191E+00  0.1971E-01
      0.229  0.2614E-01  0.1191E+00  0.2202E-01
      0.254  0.4375E-01  0.1717E+00  0.6267E-01
      0.278  0.4228E-01  0.1688E+00  0.5737E-01
      0.303  0.4795E-01  0.1751E+00  0.5918E-01
      0.328  0.5551E-01  0.1828E+00  0.5394E-01
      0.353  0.5764E-01  0.1726E+00  0.5264E-01
      0.378  0.8750E-01  0.2395E+00  0.6889E-01
      0.403  0.8585E-01  0.2289E+00  0.7086E-01
      0.427  0.8284E-01  0.2101E+00  0.6106E-01
      0.452  0.7186E-01  0.2200E+00  0.5478E-01
      0.477  0.6631E-01  0.1793E+00  0.4695E-01
      0.502  0.6001E-01  0.1595E+00  0.4464E-01
      0.527  0.5210E-01  0.1482E+00  0.3990E-01
      0.552  0.4871E-01  0.1491E+00  0.3957E-01
      0.577  0.4658E-01  0.1493E+00  0.3971E-01
      0.601  0.6563E-01  0.1860E+00  0.5417E-01
      0.626  0.6357E-01  0.1912E+00  0.5230E-01
      0.651  0.6477E-01  0.2046E+00  0.5962E-01
      0.676  0.7261E-01  0.2184E+00  0.6541E-01
      0.701  0.6974E-01  0.2206E+00  0.7471E-01
      0.726  0.8671E-01  0.2602E+00  0.8674E-01
      0.750  0.8763E-01  0.2493E+00  0.8269E-01
      0.775  0.7137E-01  0.2095E+00  0.7302E-01
      0.800  0.8428E-01  0.2336E+00  0.8184E-01
      0.825  0.1027E+00  0.2218E+00  0.8030E-01
      0.850  0.1143E+00  0.2378E+00  0.8981E-01
      0.875  0.1104E+00  0.2337E+00  0.8793E-01
      0.900  0.8857E-01  0.2200E+00  0.8010E-01
      0.924  0.9589E-01  0.2358E+00  0.8944E-01
      0.949  0.7738E-01  0.2302E+00  0.8639E-01
      0.974  0.7121E-01  0.2721E+00  0.9251E-01
      0.999  0.6920E-01  0.2746E+00  0.9246E-01
      1.024  0.7156E-01  0.2568E+00  0.9086E-01
      1.049  0.7252E-01  0.2730E+00  0.9880E-01
      1.073  0.7724E-01  0.2920E+00  0.1068E+00
      1.098  0.7493E-01  0.3187E+00  0.1123E+00
      1.123  0.7167E-01  0.2748E+00  0.9802E-01
      1.148  0.7389E-01  0.2414E+00  0.8788E-01
      1.173  0.7457E-01  0.2548E+00  0.9277E-01
      1.198  0.7600E-01  0.2773E+00  0.9964E-01
      1.223  0.8126E-01  0.3040E+00  0.1051E+00
      1.247  0.9739E-01  0.4351E+00  0.1327E+00
      1.272  0.9187E-01  0.2212E+00  0.8770E-01
      1.297  0.6488E-01  0.1407E+00  0.6076E-01
      1.322  0.5379E-01  0.1033E+00  0.4781E-01
      1.347  0.4086E-01  0.8057E-01  0.3651E-01
      1.372  0.4473E-01  0.7704E-01  0.3559E-01
      1.396  0.4812E-01  0.7796E-01  0.3618E-01
      1.421  0.5355E-01  0.8475E-01  0.3979E-01
      1.446  0.6712E-01  0.9786E-01  0.4810E-01
      1.471  0.6447E-01  0.1070E+00  0.5029E-01
      1.496  0.5998E-01  0.1158E+00  0.5120E-01
      1.521  0.5523E-01  0.1254E+00  0.5187E-01
      1.546  0.5952E-01  0.1439E+00  0.5885E-01
      1.570  0.2047E-01  0.1158E+00  0.3126E-01
      1.595  0.2042E-01  0.1129E+00  0.2673E-01
      1.620  0.1973E-01  0.1070E+00  0.2397E-01
      1.645  0.1977E-01  0.1061E+00  0.2324E-01
      1.670  0.2009E-01  0.1099E+00  0.2384E-01
      1.695  0.2619E-01  0.1749E+00  0.4093E-01
      1.719  0.3703E-01  0.2922E+00  0.7026E-01
      1.744  0.3539E-01  0.2754E+00  0.5841E-01
      1.769  0.3332E-01  0.2375E+00  0.4568E-01
      1.794  0.3490E-01  0.2568E+00  0.4334E-01
      1.819  0.4092E-01  0.3044E+00  0.4616E-01
      1.844  0.4909E-01  0.3797E+00  0.5510E-01
      1.869  0.3653E-01  0.2214E+00  0.3045E-01
      1.893  0.2291E-01  0.1241E+00  0.1599E-01
      1.918  0.3490E-02  0.1543E-01  0.4347E-02
      1.943  0.2784E-02  0.1203E-01  0.3444E-02
      1.968  0.2057E-02  0.8682E-02  0.2527E-02
      1.993  0.1308E-02  0.5396E-02  0.1597E-02
      2.018  0.5374E-03  0.2168E-02  0.6521E-03
      2.042  0.0000E+00  0.0000E+00  0.0000E+00
      2.067  0.0000E+00  0.0000E+00  0.0000E+00
      2.092  0.0000E+00  0.0000E+00  0.0000E+00
      2.117  0.0000E+00  0.0000E+00  0.0000E+00
      2.142  0.0000E+00  0.0000E+00  0.0000E+00
      2.167  0.0000E+00  0.0000E+00  0.0000E+00
      2.192  0.0000E+00  0.0000E+00  0.0000E+00
      2.216  0.0000E+00  0.0000E+00  0.0000E+00
      2.241  0.0000E+00  0.0000E+00  0.0000E+00
      2.266  0.0000E+00  0.0000E+00  0.0000E+00
      2.291  0.0000E+00  0.0000E+00  0.0000E+00
      2.316  0.0000E+00  0.0000E+00  0.0000E+00
      2.341  0.0000E+00  0.0000E+00  0.0000E+00
      2.365  0.0000E+00  0.0000E+00  0.0000E+00
      2.390  0.0000E+00  0.0000E+00  0.0000E+00
      2.415  0.0000E+00  0.0000E+00  0.0000E+00
      2.440  0.0000E+00  0.0000E+00  0.0000E+00
      2.465  0.0000E+00  0.0000E+00  0.0000E+00
      2.490  0.0000E+00  0.0000E+00  0.0000E+00
      2.515  0.0000E+00  0.0000E+00  0.0000E+00
      2.539  0.0000E+00  0.0000E+00  0.0000E+00
      2.564  0.0000E+00  0.0000E+00  0.0000E+00
      2.589  0.0000E+00  0.0000E+00  0.0000E+00
      2.614  0.0000E+00  0.0000E+00  0.0000E+00
      2.639  0.0000E+00  0.0000E+00  0.0000E+00
      2.664  0.0000E+00  0.0000E+00  0.0000E+00
      2.688  0.0000E+00  0.0000E+00  0.0000E+00
      2.713  0.0000E+00  0.0000E+00  0.0000E+00
      2.738  0.0000E+00  0.0000E+00  0.0000E+00
      2.763  0.0000E+00  0.0000E+00  0.0000E+00
      2.788  0.0000E+00  0.0000E+00  0.0000E+00
      2.813  0.0000E+00  0.0000E+00  0.0000E+00
      2.838  0.0000E+00  0.0000E+00  0.0000E+00
      2.862  0.0000E+00  0.0000E+00  0.0000E+00
      2.887  0.0000E+00  0.0000E+00  0.0000E+00
      2.912  0.0000E+00  0.0000E+00  0.0000E+00
      2.937  0.0000E+00  0.0000E+00  0.0000E+00
      2.93695651    -16.91563261  800     -1.95165038      1.00000000
    -16.916  0.0000E+00  0.0000E+00  0.0000E+00
    -16.891  0.0000E+00  0.0000E+00  0.0000E+00
    -16.866  0.0000E+00  0.0000E+00  0.0000E+00
    -16.841  0.0000E+00  0.0000E+00  0.0000E+00
    -16.816  0.0000E+00  0.0000E+00  0.0000E+00
    -16.791  0.0000E+00  0.0000E+00  0.0000E+00
    -16.767  0.0000E+00  0.0000E+00  0.0000E+00
    -16.742  0.0000E+00  0.0000E+00  0.0000E+00
    -16.717  0.0000E+00  0.0000E+00  0.0000E+00
    -16.692  0.0000E+00  0.0000E+00  0.0000E+00
    -16.667  0.0000E+00  0.0000E+00  0.0000E+00
    -16.642  0.0000E+00  0.0000E+00  0.0000E+00
    -16.617  0.0000E+00  0.0000E+00  0.0000E+00
    -16.593  0.0000E+00  0.0000E+00  0.0000E+00
    -16.568  0.0000E+00  0.0000E+00  0.0000E+00
    -16.543  0.0000E+00  0.0000E+00  0.0000E+00
    -16.518  0.0000E+00  0.0000E+00  0.0000E+00
    -16.493  0.0000E+00  0.0000E+00  0.0000E+00
    -16.468  0.0000E+00  0.0000E+00  0.0000E+00
    -16.444  0.0000E+00  0.0000E+00  0.0000E+00
    -16.419  0.0000E+00  0.0000E+00  0.0000E+00
    -16.394  0.0000E+00  0.0000E+00  0.0000E+00
    -16.369  0.0000E+00  0.0000E+00  0.0000E+00
    -16.344  0.0000E+00  0.0000E+00  0.0000E+00
    -16.319  0.0000E+00  0.0000E+00  0.0000E+00
    -16.294  0.0000E+00  0.0000E+00  0.0000E+00
    -16.270  0.0000E+00  0.0000E+00  0.0000E+00
    -16.245  0.0000E+00  0.0000E+00  0.0000E+00
    -16.220  0.0000E+00  0.0000E+00  0.0000E+00
    -16.195  0.0000E+00  0.0000E+00  0.0000E+00
    -16.170  0.0000E+00  0.0000E+00  0.0000E+00
    -16.145  0.0000E+00  0.0000E+00  0.0000E+00
    -16.121  0.0000E+00  0.0000E+00  0.0000E+00
    -16.096  0.0000E+00  0.0000E+00  0.0000E+00
    -16.071  0.0000E+00  0.0000E+00  0.0000E+00
    -16.046  0.0000E+00  0.0000E+00  0.0000E+00
    -16.021  0.0000E+00  0.0000E+00  0.0000E+00
    -15.996  0.5794E-01  0.4904E-02  0.9892E-03
    -15.971  0.4648E-01  0.5661E-02  0.8666E-03
    -15.947  0.4955E-01  0.7636E-02  0.9947E-03
    -15.922  0.4430E-01  0.9212E-02  0.9977E-03
    -15.897  0.4223E-01  0.1153E-01  0.1080E-02
    -15.872  0.4132E-01  0.1410E-01  0.1194E-02
    -15.847  0.4064E-01  0.1862E-01  0.1407E-02
    -15.822  0.3651E-01  0.2873E-01  0.1846E-02
    -15.798  0.3000E-01  0.2032E-01  0.1396E-02
    -15.773  0.2749E-01  0.1873E-01  0.1305E-02
    -15.748  0.2525E-01  0.1482E-01  0.1107E-02
    -15.723  0.2430E-01  0.1445E-01  0.1089E-02
    -15.698  0.2149E-01  0.1384E-01  0.1038E-02
    -15.673  0.1995E-01  0.1302E-01  0.9914E-03
    -15.648  0.1879E-01  0.1166E-01  0.9234E-03
    -15.624  0.1814E-01  0.1154E-01  0.9193E-03
    -15.599  0.1758E-01  0.1138E-01  0.9146E-03
    -15.574  0.1712E-01  0.1116E-01  0.9080E-03
    -15.549  0.1589E-01  0.1073E-01  0.8841E-03
    -15.524  0.1476E-01  0.9993E-02  0.8468E-03
    -15.499  0.1417E-01  0.9944E-02  0.8470E-03
    -15.475  0.1368E-01  0.9879E-02  0.8478E-03
    -15.450  0.1329E-01  0.9794E-02  0.8485E-03
    -15.425  0.1296E-01  0.9669E-02  0.8480E-03
    -15.400  0.1266E-01  0.9488E-02  0.8454E-03
    -15.375  0.1236E-01  0.9012E-02  0.8297E-03
    -15.350  0.1145E-01  0.8983E-02  0.8308E-03
    -15.325  0.1091E-01  0.8959E-02  0.8347E-03
    -15.301  0.1053E-01  0.8926E-02  0.8392E-03
    -15.276  0.1021E-01  0.8878E-02  0.8437E-03
    -15.251  0.9931E-02  0.8816E-02  0.8480E-03
    -15.226  0.9695E-02  0.8725E-02  0.8514E-03
    -15.201  0.9482E-02  0.8569E-02  0.8527E-03
    -15.176  0.9301E-02  0.8354E-02  0.8521E-03
    -15.152  0.9193E-02  0.8381E-02  0.8604E-03
    -15.127  0.1450E-01  0.1176E-01  0.1240E-02
    -15.102  0.9191E-02  0.9598E-02  0.1001E-02
    -15.077  0.6412E-02  0.8479E-02  0.8814E-03
    -15.052  0.4695E-02  0.7855E-02  0.8184E-03
    -15.027  0.3352E-02  0.7505E-02  0.7860E-03
    -15.002  0.2338E-02  0.8063E-02  0.8523E-03
    -14.978  0.2373E-03  0.1848E-02  0.1978E-03
    -14.953  0.0000E+00  0.0000E+00  0.0000E+00
    -14.928  0.0000E+00  0.0000E+00  0.0000E+00
    -14.903  0.1498E-01  0.1035E-01  0.1267E-02
    -14.878  0.9320E-02  0.7341E-02  0.9085E-03
    -14.853  0.7653E-02  0.7040E-02  0.8833E-03
    -14.829  0.6940E-02  0.7597E-02  0.9667E-03
    -14.804  0.6560E-02  0.8862E-02  0.1143E-02
    -14.779  0.6536E-02  0.9705E-02  0.1261E-02
    -14.754  0.6365E-02  0.2411E-01  0.3166E-02
    -14.729  0.4983E-02  0.7833E-02  0.1065E-02
    -14.704  0.4894E-02  0.7839E-02  0.1076E-02
    -14.679  0.4805E-02  0.7845E-02  0.1086E-02
    -14.655  0.4532E-02  0.7895E-02  0.1116E-02
    -14.630  0.4232E-02  0.7946E-02  0.1151E-02
    -14.605  0.4033E-02  0.7967E-02  0.1178E-02
    -14.580  0.3865E-02  0.7975E-02  0.1204E-02
    -14.555  0.3718E-02  0.7973E-02  0.1230E-02
    -14.530  0.3586E-02  0.7959E-02  0.1258E-02
    -14.505  0.3458E-02  0.7910E-02  0.1301E-02
    -14.481  0.3377E-02  0.7901E-02  0.1315E-02
    -14.456  0.3296E-02  0.7892E-02  0.1328E-02
    -14.431  0.3214E-02  0.7883E-02  0.1342E-02
    -14.406  0.2993E-02  0.8007E-02  0.1406E-02
    -14.381  0.2793E-02  0.8114E-02  0.1471E-02
    -14.356  0.2650E-02  0.8170E-02  0.1521E-02
    -14.332  0.2532E-02  0.8206E-02  0.1570E-02
    -14.307  0.2428E-02  0.8232E-02  0.1620E-02
    -14.282  0.2337E-02  0.8254E-02  0.1679E-02
    -14.257  0.2264E-02  0.8268E-02  0.1748E-02
    -14.232  0.2199E-02  0.8234E-02  0.1768E-02
    -14.207  0.2134E-02  0.8200E-02  0.1787E-02
    -14.182  0.2046E-02  0.8444E-02  0.1921E-02
    -14.158  0.1982E-02  0.8660E-02  0.2056E-02
    -14.133  0.1939E-02  0.8781E-02  0.2162E-02
    -14.108  0.1909E-02  0.8865E-02  0.2261E-02
    -14.083  0.1893E-02  0.8933E-02  0.2363E-02
    -14.058  0.1894E-02  0.9019E-02  0.2489E-02
    -14.033  0.1905E-02  0.9072E-02  0.2610E-02
    -14.009  0.2000E-02  0.9234E-02  0.2762E-02
    -13.984  0.2358E-02  0.9856E-02  0.3165E-02
    -13.959  0.2593E-02  0.1011E-01  0.3409E-02
    -13.934  0.2811E-02  0.1026E-01  0.3624E-02
    -13.909  0.3027E-02  0.1038E-01  0.3835E-02
    -13.884  0.3908E-02  0.1123E-01  0.4501E-02
    -13.859  0.5632E-02  0.1291E-01  0.5761E-02
    -13.835  0.6705E-02  0.1338E-01  0.6362E-02
    -13.810  0.1483E-01  0.1943E-01  0.1085E-01
    -13.785  0.9890E-02  0.1465E-01  0.8148E-02
    -13.760  0.6817E-02  0.1183E-01  0.6553E-02
    -13.735  0.5164E-02  0.1050E-01  0.5901E-02
    -13.710  0.4113E-02  0.9397E-02  0.5397E-02
    -13.686  0.3151E-02  0.8161E-02  0.4775E-02
    -13.661  0.2480E-02  0.7664E-02  0.4609E-02
    -13.636  0.1338E-02  0.5056E-02  0.3129E-02
    -13.611  0.0000E+00  0.0000E+00  0.0000E+00
    -13.586  0.0000E+00  0.0000E+00  0.0000E+00
    -13.561  0.0000E+00  0.0000E+00  0.0000E+00
    -13.536  0.0000E+00  0.0000E+00  0.0000E+00
    -13.512  0.0000E+00  0.0000E+00  0.0000E+00
    -13.487  0.0000E+00  0.0000E+00  0.0000E+00
    -13.462  0.0000E+00  0.0000E+00  0.0000E+00
    -13.437  0.0000E+00  0.0000E+00  0.0000E+00
    -13.412  0.0000E+00  0.0000E+00  0.0000E+00
    -13.387  0.0000E+00  0.0000E+00  0.0000E+00
    -13.363  0.0000E+00  0.0000E+00  0.0000E+00
    -13.338  0.0000E+00  0.0000E+00  0.0000E+00
    -13.313  0.0000E+00  0.0000E+00  0.0000E+00
    -13.288  0.0000E+00  0.0000E+00  0.0000E+00
    -13.263  0.0000E+00  0.0000E+00  0.0000E+00
    -13.238  0.0000E+00  0.0000E+00  0.0000E+00
    -13.213  0.0000E+00  0.0000E+00  0.0000E+00
    -13.189  0.0000E+00  0.0000E+00  0.0000E+00
    -13.164  0.0000E+00  0.0000E+00  0.0000E+00
    -13.139  0.0000E+00  0.0000E+00  0.0000E+00
    -13.114  0.0000E+00  0.0000E+00  0.0000E+00
    -13.089  0.0000E+00  0.0000E+00  0.0000E+00
    -13.064  0.0000E+00  0.0000E+00  0.0000E+00
    -13.040  0.0000E+00  0.0000E+00  0.0000E+00
    -13.015  0.0000E+00  0.0000E+00  0.0000E+00
    -12.990  0.0000E+00  0.0000E+00  0.0000E+00
    -12.965  0.0000E+00  0.0000E+00  0.0000E+00
    -12.940  0.0000E+00  0.0000E+00  0.0000E+00
    -12.915  0.1631E+00  0.1174E-01  0.2203E-02
    -12.890  0.1123E+00  0.9584E-02  0.1570E-02
    -12.866  0.1316E+00  0.1238E-01  0.1886E-02
    -12.841  0.1209E+00  0.1328E-01  0.1813E-02
    -12.816  0.1196E+00  0.1460E-01  0.1866E-02
    -12.791  0.1184E+00  0.1616E-01  0.1917E-02
    -12.766  0.1193E+00  0.1798E-01  0.2019E-02
    -12.741  0.1234E+00  0.1978E-01  0.2154E-02
    -12.717  0.1163E+00  0.2126E-01  0.2179E-02
    -12.692  0.1133E+00  0.2325E-01  0.2280E-02
    -12.667  0.1131E+00  0.2498E-01  0.2397E-02
    -12.642  0.1136E+00  0.2682E-01  0.2524E-02
    -12.617  0.1124E+00  0.2985E-01  0.2685E-02
    -12.592  0.1124E+00  0.3222E-01  0.2854E-02
    -12.567  0.1097E+00  0.3432E-01  0.3058E-02
    -12.543  0.1085E+00  0.3760E-01  0.3299E-02
    -12.518  0.1072E+00  0.4187E-01  0.3621E-02
    -12.493  0.1060E+00  0.4518E-01  0.3918E-02
    -12.468  0.1053E+00  0.4816E-01  0.4221E-02
    -12.443  0.1122E+00  0.6286E-01  0.5035E-02
    -12.418  0.1042E+00  0.6020E-01  0.5508E-02
    -12.394  0.1091E+00  0.7303E-01  0.7422E-02
    -12.369  0.1933E+00  0.1195E+00  0.2033E-01
    -12.344  0.2295E+00  0.1694E+00  0.3315E-01
    -12.319  0.1833E+00  0.1751E+00  0.3242E-01
    -12.294  0.1649E+00  0.2228E+00  0.3763E-01
    -12.269  0.1466E+00  0.1512E+00  0.2932E-01
    -12.244  0.1328E+00  0.1224E+00  0.2560E-01
    -12.220  0.1313E+00  0.1168E+00  0.2611E-01
    -12.195  0.1295E+00  0.1243E+00  0.2893E-01
    -12.170  0.1272E+00  0.1306E+00  0.2931E-01
    -12.145  0.7142E-01  0.6199E-01  0.1518E-01
    -12.120  0.7466E-01  0.5983E-01  0.1571E-01
    -12.095  0.9222E-01  0.6838E-01  0.1933E-01
    -12.071  0.1113E+00  0.7294E-01  0.2291E-01
    -12.046  0.6273E-01  0.6328E-01  0.1692E-01
    -12.021  0.5018E-01  0.7496E-01  0.1825E-01
    -11.996  0.0000E+00  0.0000E+00  0.0000E+00
    -11.971  0.0000E+00  0.0000E+00  0.0000E+00
    -11.946  0.0000E+00  0.0000E+00  0.0000E+00
    -11.921  0.0000E+00  0.0000E+00  0.0000E+00
    -11.897  0.0000E+00  0.0000E+00  0.0000E+00
    -11.872  0.0000E+00  0.0000E+00  0.0000E+00
    -11.847  0.0000E+00  0.0000E+00  0.0000E+00
    -11.822  0.0000E+00  0.0000E+00  0.0000E+00
    -11.797  0.0000E+00  0.0000E+00  0.0000E+00
    -11.772  0.0000E+00  0.0000E+00  0.0000E+00
    -11.747  0.0000E+00  0.0000E+00  0.0000E+00
    -11.723  0.0000E+00  0.0000E+00  0.0000E+00
    -11.698  0.0000E+00  0.0000E+00  0.0000E+00
    -11.673  0.0000E+00  0.0000E+00  0.0000E+00
    -11.648  0.0000E+00  0.0000E+00  0.0000E+00
    -11.623  0.0000E+00  0.0000E+00  0.0000E+00
    -11.598  0.0000E+00  0.0000E+00  0.0000E+00
    -11.574  0.0000E+00  0.0000E+00  0.0000E+00
    -11.549  0.0000E+00  0.0000E+00  0.0000E+00
    -11.524  0.0000E+00  0.0000E+00  0.0000E+00
    -11.499  0.0000E+00  0.0000E+00  0.0000E+00
    -11.474  0.0000E+00  0.0000E+00  0.0000E+00
    -11.449  0.0000E+00  0.0000E+00  0.0000E+00
    -11.424  0.0000E+00  0.0000E+00  0.0000E+00
    -11.400  0.0000E+00  0.0000E+00  0.0000E+00
    -11.375  0.0000E+00  0.0000E+00  0.0000E+00
    -11.350  0.0000E+00  0.0000E+00  0.0000E+00
    -11.325  0.0000E+00  0.0000E+00  0.0000E+00
    -11.300  0.0000E+00  0.0000E+00  0.0000E+00
    -11.275  0.0000E+00  0.0000E+00  0.0000E+00
    -11.251  0.0000E+00  0.0000E+00  0.0000E+00
    -11.226  0.0000E+00  0.0000E+00  0.0000E+00
    -11.201  0.0000E+00  0.0000E+00  0.0000E+00
    -11.176  0.0000E+00  0.0000E+00  0.0000E+00
    -11.151  0.0000E+00  0.0000E+00  0.0000E+00
    -11.126  0.0000E+00  0.0000E+00  0.0000E+00
    -11.101  0.0000E+00  0.0000E+00  0.0000E+00
    -11.077  0.0000E+00  0.0000E+00  0.0000E+00
    -11.052  0.0000E+00  0.0000E+00  0.0000E+00
    -11.027  0.0000E+00  0.0000E+00  0.0000E+00
    -11.002  0.0000E+00  0.0000E+00  0.0000E+00
    -10.977  0.0000E+00  0.0000E+00  0.0000E+00
    -10.952  0.0000E+00  0.0000E+00  0.0000E+00
    -10.928  0.0000E+00  0.0000E+00  0.0000E+00
    -10.903  0.0000E+00  0.0000E+00  0.0000E+00
    -10.878  0.0000E+00  0.0000E+00  0.0000E+00
    -10.853  0.0000E+00  0.0000E+00  0.0000E+00
    -10.828  0.0000E+00  0.0000E+00  0.0000E+00
    -10.803  0.0000E+00  0.0000E+00  0.0000E+00
    -10.778  0.0000E+00  0.0000E+00  0.0000E+00
    -10.754  0.0000E+00  0.0000E+00  0.0000E+00
    -10.729  0.0000E+00  0.0000E+00  0.0000E+00
    -10.704  0.3044E-01  0.3643E-01  0.1783E-01
    -10.679  0.2321E-01  0.3824E-01  0.1508E-01
    -10.654  0.1988E-01  0.4370E-01  0.1441E-01
    -10.629  0.1806E-01  0.4884E-01  0.1399E-01
    -10.605  0.1546E-01  0.5205E-01  0.1289E-01
    -10.580  0.1498E-01  0.5470E-01  0.1212E-01
    -10.555  0.1617E-01  0.5681E-01  0.1162E-01
    -10.530  0.1790E-01  0.5965E-01  0.1142E-01
    -10.505  0.2046E-01  0.5981E-01  0.1092E-01
    -10.480  0.2329E-01  0.5996E-01  0.1057E-01
    -10.455  0.2751E-01  0.6019E-01  0.1026E-01
    -10.431  0.3145E-01  0.6213E-01  0.1026E-01
    -10.406  0.3738E-01  0.6507E-01  0.1042E-01
    -10.381  0.4737E-01  0.8038E-01  0.1104E-01
    -10.356  0.4674E-01  0.6008E-01  0.1037E-01
    -10.331  0.4916E-01  0.5410E-01  0.1020E-01
    -10.306  0.4942E-01  0.5049E-01  0.1033E-01
    -10.282  0.5036E-01  0.5066E-01  0.1130E-01
    -10.257  0.6909E-01  0.6245E-01  0.1219E-01
    -10.232  0.8680E-01  0.7766E-01  0.1479E-01
    -10.207  0.8380E-01  0.7273E-01  0.1647E-01
    -10.182  0.7945E-01  0.6790E-01  0.1306E-01
    -10.157  0.9051E-01  0.6923E-01  0.1228E-01
    -10.132  0.1075E+00  0.7105E-01  0.1191E-01
    -10.108  0.1093E+00  0.7389E-01  0.1182E-01
    -10.083  0.1365E+00  0.7989E-01  0.1159E-01
    -10.058  0.1603E+00  0.9244E-01  0.1231E-01
    -10.033  0.2305E+00  0.1168E+00  0.1484E-01
    -10.008  0.1140E+00  0.2479E-01  0.1880E-02
     -9.983  0.1086E+00  0.2182E-01  0.1769E-02
     -9.959  0.1045E+00  0.1953E-01  0.1708E-02
     -9.934  0.8680E-01  0.1385E-01  0.1334E-02
     -9.909  0.8636E-01  0.1335E-01  0.1354E-02
     -9.884  0.8579E-01  0.1290E-01  0.1372E-02
     -9.859  0.8503E-01  0.1246E-01  0.1388E-02
     -9.834  0.8395E-01  0.1202E-01  0.1399E-02
     -9.809  0.8275E-01  0.1157E-01  0.1405E-02
     -9.785  0.8123E-01  0.1109E-01  0.1402E-02
     -9.760  0.7966E-01  0.1059E-01  0.1389E-02
     -9.735  0.7909E-01  0.1005E-01  0.1374E-02
     -9.710  0.7813E-01  0.9381E-02  0.1350E-02
     -9.685  0.7741E-01  0.8883E-02  0.1339E-02
     -9.660  0.7730E-01  0.8803E-02  0.1355E-02
     -9.636  0.7705E-01  0.8719E-02  0.1369E-02
     -9.611  0.7673E-01  0.8631E-02  0.1382E-02
     -9.586  0.7641E-01  0.8546E-02  0.1394E-02
     -9.561  0.7606E-01  0.8454E-02  0.1404E-02
     -9.536  0.7915E-01  0.8687E-02  0.1426E-02
     -9.511  0.8072E-01  0.8799E-02  0.1445E-02
     -9.486  0.8143E-01  0.8827E-02  0.1461E-02
     -9.462  0.8213E-01  0.8847E-02  0.1476E-02
     -9.437  0.8220E-01  0.8805E-02  0.1488E-02
     -9.412  0.8213E-01  0.8692E-02  0.1496E-02
     -9.387  0.8210E-01  0.8588E-02  0.1503E-02
     -9.362  0.9132E-01  0.9604E-02  0.1552E-02
     -9.337  0.9576E-01  0.1016E-01  0.1590E-02
     -9.313  0.1002E+00  0.1072E-01  0.1631E-02
     -9.288  0.1019E+00  0.1102E-01  0.1668E-02
     -9.263  0.1028E+00  0.1124E-01  0.1704E-02
     -9.238  0.1581E+00  0.1756E-01  0.1917E-02
     -9.213  0.1503E+00  0.1693E-01  0.1972E-02
     -9.188  0.1230E+00  0.1396E-01  0.1938E-02
     -9.163  0.9780E-01  0.1124E-01  0.1899E-02
     -9.139  0.8923E-01  0.1039E-01  0.1893E-02
     -9.114  0.8472E-01  0.9913E-02  0.1890E-02
     -9.089  0.8022E-01  0.9433E-02  0.1884E-02
     -9.064  0.7407E-01  0.8780E-02  0.1871E-02
     -9.039  0.6796E-01  0.8191E-02  0.1849E-02
     -9.014  0.6416E-01  0.7856E-02  0.1824E-02
     -8.990  0.6099E-01  0.7573E-02  0.1800E-02
     -8.965  0.5871E-01  0.7363E-02  0.1781E-02
     -8.940  0.5639E-01  0.7155E-02  0.1760E-02
     -8.915  0.5375E-01  0.6931E-02  0.1736E-02
     -8.890  0.5016E-01  0.6635E-02  0.1710E-02
     -8.865  0.4778E-01  0.6445E-02  0.1670E-02
     -8.840  0.4543E-01  0.6262E-02  0.1630E-02
     -8.816  0.4392E-01  0.6172E-02  0.1598E-02
     -8.791  0.4241E-01  0.6086E-02  0.1565E-02
     -8.766  0.4109E-01  0.6065E-02  0.1534E-02
     -8.741  0.3947E-01  0.6089E-02  0.1501E-02
     -8.716  0.3717E-01  0.5935E-02  0.1440E-02
     -8.691  0.3481E-01  0.5744E-02  0.1368E-02
     -8.666  0.3326E-01  0.5610E-02  0.1311E-02
     -8.642  0.3171E-01  0.5477E-02  0.1254E-02
     -8.617  0.3025E-01  0.5418E-02  0.1199E-02
     -8.592  0.2883E-01  0.5383E-02  0.1145E-02
     -8.567  0.2707E-01  0.5415E-02  0.1076E-02
     -8.542  0.2582E-01  0.5323E-02  0.1019E-02
     -8.517  0.2540E-01  0.5510E-02  0.9861E-03
     -8.493  0.2801E-01  0.6629E-02  0.1049E-02
     -8.468  0.2445E-01  0.6095E-02  0.8962E-03
     -8.443  0.1983E-01  0.5165E-02  0.7107E-03
     -8.418  0.1402E-01  0.3757E-02  0.4926E-03
     -8.393  0.8282E-02  0.2324E-02  0.2817E-03
     -8.368  0.0000E+00  0.0000E+00  0.0000E+00
     -8.343  0.0000E+00  0.0000E+00  0.0000E+00
     -8.319  0.0000E+00  0.0000E+00  0.0000E+00
     -8.294  0.0000E+00  0.0000E+00  0.0000E+00
     -8.269  0.0000E+00  0.0000E+00  0.0000E+00
     -8.244  0.0000E+00  0.0000E+00  0.0000E+00
     -8.219  0.0000E+00  0.0000E+00  0.0000E+00
     -8.194  0.2796E+00  0.3858E-02  0.4366E-02
     -8.170  0.3058E+00  0.5335E-02  0.4764E-02
     -8.145  0.3179E+00  0.6767E-02  0.4864E-02
     -8.120  0.2831E+00  0.7510E-02  0.4258E-02
     -8.095  0.2398E+00  0.8328E-02  0.3475E-02
     -8.070  0.2262E+00  0.9012E-02  0.3205E-02
     -8.045  0.3095E+00  0.1085E-01  0.4966E-02
     -8.020  0.3222E+00  0.1209E-01  0.5191E-02
     -7.996  0.3317E+00  0.1354E-01  0.5349E-02
     -7.971  0.3257E+00  0.1488E-01  0.5235E-02
     -7.946  0.3154E+00  0.1599E-01  0.5101E-02
     -7.921  0.3079E+00  0.1685E-01  0.5030E-02
     -7.896  0.3127E+00  0.1785E-01  0.5158E-02
     -7.871  0.3160E+00  0.1891E-01  0.5266E-02
     -7.847  0.3172E+00  0.2048E-01  0.5317E-02
     -7.822  0.3208E+00  0.2183E-01  0.5406E-02
     -7.797  0.3225E+00  0.2331E-01  0.5468E-02
     -7.772  0.3252E+00  0.2472E-01  0.5547E-02
     -7.747  0.3279E+00  0.2611E-01  0.5626E-02
     -7.722  0.3247E+00  0.2765E-01  0.5675E-02
     -7.697  0.3291E+00  0.2952E-01  0.5866E-02
     -7.673  0.3338E+00  0.3137E-01  0.6051E-02
     -7.648  0.3385E+00  0.3369E-01  0.6243E-02
     -7.623  0.3438E+00  0.3612E-01  0.6482E-02
     -7.598  0.3767E+00  0.7861E-01  0.1166E-01
     -7.573  0.4100E+00  0.1201E+00  0.1707E-01
     -7.548  0.4406E+00  0.1300E+00  0.1841E-01
     -7.524  0.5047E+00  0.1327E+00  0.1984E-01
     -7.499  0.4341E+00  0.1047E+00  0.1552E-01
     -7.474  0.3797E+00  0.8964E-01  0.1268E-01
     -7.449  0.3751E+00  0.8876E-01  0.1145E-01
     -7.424  0.3705E+00  0.1128E+00  0.1187E-01
     -7.399  0.3659E+00  0.1797E+00  0.1402E-01
     -7.374  0.3603E+00  0.1352E+00  0.1269E-01
     -7.350  0.4419E+00  0.1715E+00  0.1504E-01
     -7.325  0.4785E+00  0.1734E+00  0.1520E-01
     -7.300  0.3678E+00  0.1399E+00  0.1247E-01
     -7.275  0.3411E+00  0.1331E+00  0.1177E-01
     -7.250  0.3320E+00  0.1281E+00  0.1188E-01
     -7.225  0.3093E+00  0.1236E+00  0.1156E-01
     -7.201  0.2952E+00  0.1252E+00  0.1180E-01
     -7.176  0.2939E+00  0.1221E+00  0.1259E-01
     -7.151  0.3261E+00  0.1407E+00  0.1493E-01
     -7.126  0.2986E+00  0.1061E+00  0.1636E-01
     -7.101  0.2436E+00  0.7675E-01  0.1143E-01
     -7.076  0.3287E+00  0.8675E-01  0.1334E-01
     -7.051  0.2843E+00  0.7724E-01  0.1006E-01
     -7.027  0.2881E+00  0.8387E-01  0.9553E-02
     -7.002  0.3518E+00  0.1001E+00  0.1111E-01
     -6.977  0.3973E+00  0.1087E+00  0.1246E-01
     -6.952  0.3733E+00  0.8850E-01  0.1120E-01
     -6.927  0.3257E+00  0.6934E-01  0.1000E-01
     -6.902  0.2892E+00  0.5213E-01  0.9031E-02
     -6.878  0.2489E+00  0.3871E-01  0.8069E-02
     -6.853  0.1933E+00  0.2999E-01  0.6220E-02
     -6.828  0.1141E+00  0.1654E-01  0.3087E-02
     -6.803  0.1255E+00  0.1989E-01  0.3527E-02
     -6.778  0.1370E+00  0.3093E-01  0.4627E-02
     -6.753  0.1485E+00  0.6603E-01  0.6627E-02
     -6.728  0.1575E+00  0.6158E-01  0.6336E-02
     -6.704  0.1638E+00  0.6101E-01  0.6290E-02
     -6.679  0.1663E+00  0.6522E-01  0.6487E-02
     -6.654  0.1699E+00  0.8174E-01  0.7147E-02
     -6.629  0.1403E+00  0.6273E-01  0.6043E-02
     -6.604  0.1269E+00  0.5805E-01  0.5676E-02
     -6.579  0.1541E+00  0.7265E-01  0.8817E-02
     -6.555  0.1580E+00  0.8288E-01  0.1019E-01
     -6.530  0.1739E+00  0.1013E+00  0.1234E-01
     -6.505  0.1954E+00  0.1092E+00  0.1378E-01
     -6.480  0.2590E+00  0.1332E+00  0.1879E-01
     -6.455  0.3016E+00  0.1616E+00  0.2472E-01
     -6.430  0.2346E+00  0.1340E+00  0.2121E-01
     -6.405  0.2291E+00  0.1306E+00  0.2122E-01
     -6.381  0.2297E+00  0.1285E+00  0.2202E-01
     -6.356  0.2449E+00  0.1320E+00  0.2421E-01
     -6.331  0.2919E+00  0.1483E+00  0.2921E-01
     -6.306  0.2797E+00  0.1567E+00  0.2929E-01
     -6.281  0.2442E+00  0.1360E+00  0.2440E-01
     -6.256  0.3130E+00  0.1478E+00  0.2601E-01
     -6.232  0.4662E+00  0.2083E+00  0.3778E-01
     -6.207  0.3661E+00  0.1743E+00  0.2815E-01
     -6.182  0.3176E+00  0.1483E+00  0.2421E-01
     -6.157  0.3273E+00  0.1562E+00  0.2513E-01
     -6.132  0.2586E+00  0.1462E+00  0.2221E-01
     -6.107  0.1966E+00  0.1263E+00  0.1806E-01
     -6.082  0.1594E+00  0.1010E+00  0.1439E-01
     -6.058  0.1196E+00  0.6151E-01  0.9425E-02
     -6.033  0.2318E-01  0.4764E-01  0.7607E-02
     -6.008  0.1931E-01  0.4325E-01  0.6973E-02
     -5.983  0.1672E-01  0.3981E-01  0.6487E-02
     -5.958  0.1520E-01  0.3760E-01  0.6212E-02
     -5.933  0.1362E-01  0.3522E-01  0.5900E-02
     -5.909  0.1502E-01  0.3451E-01  0.5804E-02
     -5.884  0.4297E-01  0.4973E-01  0.8033E-02
     -5.859  0.7189E-01  0.6511E-01  0.1044E-01
     -5.834  0.7003E-01  0.6623E-01  0.1051E-01
     -5.809  0.5640E-01  0.5967E-01  0.9511E-02
     -5.784  0.8902E-01  0.7862E-01  0.1187E-01
     -5.759  0.7582E-01  0.6863E-01  0.1112E-01
     -5.735  0.8021E-01  0.7100E-01  0.1154E-01
     -5.710  0.9604E-01  0.8147E-01  0.1401E-01
     -5.685  0.9541E-01  0.6932E-01  0.1124E-01
     -5.660  0.9648E-01  0.7154E-01  0.1150E-01
     -5.635  0.1045E+00  0.7942E-01  0.1267E-01
     -5.610  0.1158E+00  0.9233E-01  0.1442E-01
     -5.585  0.1290E+00  0.1036E+00  0.1649E-01
     -5.561  0.1366E+00  0.1074E+00  0.1925E-01
     -5.536  0.1525E+00  0.1336E+00  0.2090E-01
     -5.511  0.1578E+00  0.1354E+00  0.1850E-01
     -5.486  0.1656E+00  0.1464E+00  0.1892E-01
     -5.461  0.1662E+00  0.1659E+00  0.2091E-01
     -5.436  0.1779E+00  0.2177E+00  0.2788E-01
     -5.412  0.1880E+00  0.2773E+00  0.3663E-01
     -5.387  0.1656E+00  0.2501E+00  0.3150E-01
     -5.362  0.1627E+00  0.2525E+00  0.3060E-01
     -5.337  0.1575E+00  0.2560E+00  0.2994E-01
     -5.312  0.1554E+00  0.2543E+00  0.2934E-01
     -5.287  0.1746E+00  0.2324E+00  0.3056E-01
     -5.262  0.1650E+00  0.1868E+00  0.2863E-01
     -5.238  0.2093E+00  0.2037E+00  0.3609E-01
     -5.213  0.1580E+00  0.1757E+00  0.2896E-01
     -5.188  0.1437E+00  0.1651E+00  0.2722E-01
     -5.163  0.1240E+00  0.1513E+00  0.2532E-01
     -5.138  0.9006E-01  0.1254E+00  0.2178E-01
     -5.113  0.6813E-01  0.1139E+00  0.1987E-01
     -5.089  0.5549E-01  0.9869E-01  0.1575E-01
     -5.064  0.5263E-01  0.9567E-01  0.1454E-01
     -5.039  0.5104E-01  0.9561E-01  0.1460E-01
     -5.014  0.5766E-01  0.1178E+00  0.1571E-01
     -4.989  0.5368E-01  0.1083E+00  0.1565E-01
     -4.964  0.5444E-01  0.1088E+00  0.1607E-01
     -4.939  0.5341E-01  0.1079E+00  0.1597E-01
     -4.915  0.5206E-01  0.1067E+00  0.1569E-01
     -4.890  0.4725E-01  0.1031E+00  0.1509E-01
     -4.865  0.4741E-01  0.1072E+00  0.1526E-01
     -4.840  0.6855E-01  0.1728E+00  0.1902E-01
     -4.815  0.8105E-01  0.1808E+00  0.2209E-01
     -4.790  0.8923E-01  0.1698E+00  0.2032E-01
     -4.766  0.1213E+00  0.2142E+00  0.2306E-01
     -4.741  0.1515E+00  0.2390E+00  0.2466E-01
     -4.716  0.1560E+00  0.2569E+00  0.2830E-01
     -4.691  0.1424E+00  0.2433E+00  0.2521E-01
     -4.666  0.1371E+00  0.2347E+00  0.2495E-01
     -4.641  0.1457E+00  0.2376E+00  0.2543E-01
     -4.616  0.1490E+00  0.2664E+00  0.2743E-01
     -4.592  0.1584E+00  0.3079E+00  0.3101E-01
     -4.567  0.1556E+00  0.3034E+00  0.3176E-01
     -4.542  0.1406E+00  0.2796E+00  0.3150E-01
     -4.517  0.1570E+00  0.3060E+00  0.3671E-01
     -4.492  0.9741E-01  0.2366E+00  0.2687E-01
     -4.467  0.8094E-01  0.2149E+00  0.2447E-01
     -4.443  0.7554E-01  0.2198E+00  0.2430E-01
     -4.418  0.7096E-01  0.2222E+00  0.2570E-01
     -4.393  0.6538E-01  0.2171E+00  0.2560E-01
     -4.368  0.3902E-01  0.1953E+00  0.2635E-01
     -4.343  0.3819E-01  0.1951E+00  0.2756E-01
     -4.318  0.3921E-01  0.1736E+00  0.2122E-01
     -4.293  0.4044E-01  0.1742E+00  0.2183E-01
     -4.269  0.4167E-01  0.1745E+00  0.2242E-01
     -4.244  0.4420E-01  0.1823E+00  0.2400E-01
     -4.219  0.4463E-01  0.1834E+00  0.2483E-01
     -4.194  0.4549E-01  0.1845E+00  0.2554E-01
     -4.169  0.4605E-01  0.1822E+00  0.2569E-01
     -4.144  0.4343E-01  0.1687E+00  0.2446E-01
     -4.120  0.4333E-01  0.1634E+00  0.2424E-01
     -4.095  0.4316E-01  0.1599E+00  0.2437E-01
     -4.070  0.4274E-01  0.1580E+00  0.2452E-01
     -4.045  0.4285E-01  0.1578E+00  0.2468E-01
     -4.020  0.4434E-01  0.1631E+00  0.2562E-01
     -3.995  0.4848E-01  0.1775E+00  0.2862E-01
     -3.970  0.5186E-01  0.2335E+00  0.3217E-01
     -3.946  0.5440E-01  0.2608E+00  0.3507E-01
     -3.921  0.5360E-01  0.2635E+00  0.3605E-01
     -3.896  0.5238E-01  0.2484E+00  0.3583E-01
     -3.871  0.5274E-01  0.2530E+00  0.3785E-01
     -3.846  0.6262E-01  0.2970E+00  0.4739E-01
     -3.821  0.5539E-01  0.3148E+00  0.4900E-01
     -3.797  0.4801E-01  0.3023E+00  0.4523E-01
     -3.772  0.4749E-01  0.2597E+00  0.3751E-01
     -3.747  0.4874E-01  0.2525E+00  0.3778E-01
     -3.722  0.5017E-01  0.2457E+00  0.3776E-01
     -3.697  0.5367E-01  0.2138E+00  0.3680E-01
     -3.672  0.4356E-01  0.1919E+00  0.3299E-01
     -3.647  0.4023E-01  0.1821E+00  0.3001E-01
     -3.623  0.5000E-01  0.2355E+00  0.3777E-01
     -3.598  0.4730E-01  0.3117E+00  0.4060E-01
     -3.573  0.4257E-01  0.3569E+00  0.4363E-01
     -3.548  0.3970E-01  0.3208E+00  0.3894E-01
     -3.523  0.5342E-01  0.3326E+00  0.4226E-01
     -3.498  0.4150E-01  0.2720E+00  0.3625E-01
     -3.474  0.4210E-01  0.2811E+00  0.3775E-01
     -3.449  0.4539E-01  0.3163E+00  0.4214E-01
     -3.424  0.4551E-01  0.3353E+00  0.4484E-01
     -3.399  0.4861E-01  0.3277E+00  0.4524E-01
     -3.374  0.4887E-01  0.3031E+00  0.4643E-01
     -3.349  0.1200E+00  0.4394E+00  0.6768E-01
     -3.324  0.1644E+00  0.4938E+00  0.7705E-01
     -3.300  0.7537E-01  0.3520E+00  0.5798E-01
     -3.275  0.8802E-01  0.3864E+00  0.6440E-01
     -3.250  0.8601E-01  0.3910E+00  0.7109E-01
     -3.225  0.8353E-01  0.3286E+00  0.6688E-01
     -3.200  0.7468E-01  0.2848E+00  0.6170E-01
     -3.175  0.6471E-01  0.2235E+00  0.5229E-01
     -3.151  0.8365E-01  0.2537E+00  0.5653E-01
     -3.126  0.6868E-01  0.2090E+00  0.5079E-01
     -3.101  0.6705E-01  0.2009E+00  0.4945E-01
     -3.076  0.7458E-01  0.2087E+00  0.5302E-01
     -3.051  0.8164E-01  0.2142E+00  0.5623E-01
     -3.026  0.6039E-01  0.1937E+00  0.4528E-01
     -3.001  0.5669E-01  0.1928E+00  0.4545E-01
     -2.977  0.6343E-01  0.2171E+00  0.4926E-01
     -2.952  0.5233E-01  0.1675E+00  0.3773E-01
     -2.927  0.5086E-01  0.1684E+00  0.3750E-01
     -2.902  0.6468E-01  0.2775E+00  0.4431E-01
     -2.877  0.5643E-01  0.2205E+00  0.4052E-01
     -2.852  0.5422E-01  0.2205E+00  0.4024E-01
     -2.827  0.6118E-01  0.2852E+00  0.4619E-01
     -2.803  0.5634E-01  0.2380E+00  0.4388E-01
     -2.778  0.6101E-01  0.2484E+00  0.4571E-01
     -2.753  0.5371E-01  0.2397E+00  0.4430E-01
     -2.728  0.4713E-01  0.2828E+00  0.5291E-01
     -2.703  0.4382E-01  0.2690E+00  0.4531E-01
     -2.678  0.4365E-01  0.3022E+00  0.4681E-01
     -2.654  0.3927E-01  0.2756E+00  0.4940E-01
     -2.629  0.3614E-01  0.2572E+00  0.4907E-01
     -2.604  0.3344E-01  0.2585E+00  0.5475E-01
     -2.579  0.3312E-01  0.3031E+00  0.7364E-01
     -2.554  0.3478E-01  0.3229E+00  0.8720E-01
     -2.529  0.3476E-01  0.2690E+00  0.7940E-01
     -2.504  0.3366E-01  0.2718E+00  0.8441E-01
     -2.480  0.3241E-01  0.2806E+00  0.9153E-01
     -2.455  0.3249E-01  0.3060E+00  0.1086E+00
     -2.430  0.3185E-01  0.3366E+00  0.1200E+00
     -2.405  0.2658E-01  0.2694E+00  0.1026E+00
     -2.380  0.2263E-01  0.2336E+00  0.8947E-01
     -2.355  0.1800E-01  0.1777E+00  0.6094E-01
     -2.331  0.1622E-01  0.1824E+00  0.6178E-01
     -2.306  0.1461E-01  0.2083E+00  0.6833E-01
     -2.281  0.1277E-01  0.1539E+00  0.6360E-01
     -2.256  0.1098E-01  0.1520E+00  0.7121E-01
     -2.231  0.8552E-02  0.1176E+00  0.5841E-01
     -2.206  0.7521E-02  0.1072E+00  0.5565E-01
     -2.181  0.6468E-02  0.7988E-01  0.4052E-01
     -2.157  0.5549E-02  0.8429E-01  0.4595E-01
     -2.132  0.3877E-02  0.4306E-01  0.2130E-01
     -2.107  0.3105E-02  0.3095E-01  0.1433E-01
     -2.082  0.2521E-02  0.2982E-01  0.1407E-01
     -2.057  0.1834E-02  0.3116E-01  0.1513E-01
     -2.032  0.1438E-02  0.2858E-01  0.1401E-01
     -2.008  0.9840E-03  0.2445E-01  0.1202E-01
     -1.983  0.7081E-03  0.2619E-01  0.1298E-01
     -1.958  0.0000E+00  0.0000E+00  0.0000E+00
     -1.933  0.0000E+00  0.0000E+00  0.0000E+00
     -1.908  0.0000E+00  0.0000E+00  0.0000E+00
     -1.883  0.0000E+00  0.0000E+00  0.0000E+00
     -1.858  0.0000E+00  0.0000E+00  0.0000E+00
     -1.834  0.0000E+00  0.0000E+00  0.0000E+00
     -1.809  0.5640E-02  0.3454E-02  0.1100E-03
     -1.784  0.1780E-01  0.1092E-01  0.3541E-03
     -1.759  0.2991E-01  0.1837E-01  0.6064E-03
     -1.734  0.3627E-01  0.2237E-01  0.8009E-03
     -1.709  0.4239E-01  0.2623E-01  0.1001E-02
     -1.685  0.4847E-01  0.3008E-01  0.1208E-02
     -1.660  0.4466E-01  0.2683E-01  0.1289E-02
     -1.635  0.4540E-01  0.2640E-01  0.1490E-02
     -1.610  0.4934E-01  0.2806E-01  0.1759E-02
     -1.585  0.5497E-01  0.3057E-01  0.2081E-02
     -1.560  0.6028E-01  0.3271E-01  0.2412E-02
     -1.535  0.6358E-01  0.3234E-01  0.2830E-02
     -1.511  0.3058E+00  0.5419E-01  0.3110E-01
     -1.486  0.1642E+00  0.5934E-01  0.1170E-01
     -1.461  0.2167E+00  0.8056E-01  0.1360E-01
     -1.436  0.1976E+00  0.7962E-01  0.1188E-01
     -1.411  0.2013E+00  0.8642E-01  0.1196E-01
     -1.386  0.2061E+00  0.1279E+00  0.1280E-01
     -1.362  0.2056E+00  0.1336E+00  0.1257E-01
     -1.337  0.2006E+00  0.1353E+00  0.1229E-01
     -1.312  0.1995E+00  0.1378E+00  0.1229E-01
     -1.287  0.1902E+00  0.1364E+00  0.1188E-01
     -1.262  0.1813E+00  0.1417E+00  0.1147E-01
     -1.237  0.1726E+00  0.1412E+00  0.1136E-01
     -1.212  0.1701E+00  0.1429E+00  0.1161E-01
     -1.188  0.1718E+00  0.1482E+00  0.1215E-01
     -1.163  0.1733E+00  0.1533E+00  0.1281E-01
     -1.138  0.1777E+00  0.1600E+00  0.1357E-01
     -1.113  0.1821E+00  0.1658E+00  0.1433E-01
     -1.088  0.1810E+00  0.1685E+00  0.1493E-01
     -1.063  0.1833E+00  0.1725E+00  0.1572E-01
     -1.039  0.2384E+00  0.2313E+00  0.2129E-01
     -1.014  0.2284E+00  0.2181E+00  0.2106E-01
     -0.989  0.1652E+00  0.1596E+00  0.1566E-01
     -0.964  0.1551E+00  0.1505E+00  0.1541E-01
     -0.939  0.1505E+00  0.1467E+00  0.1547E-01
     -0.914  0.1489E+00  0.1455E+00  0.1603E-01
     -0.889  0.1479E+00  0.1451E+00  0.1667E-01
     -0.865  0.1461E+00  0.1438E+00  0.1727E-01
     -0.840  0.1470E+00  0.1464E+00  0.1845E-01
     -0.815  0.1510E+00  0.1508E+00  0.1992E-01
     -0.790  0.1552E+00  0.1542E+00  0.2142E-01
     -0.765  0.1604E+00  0.1596E+00  0.2343E-01
     -0.740  0.1846E+00  0.1816E+00  0.2919E-01
     -0.716  0.1803E+00  0.1706E+00  0.3093E-01
     -0.691  0.1699E+00  0.1579E+00  0.3099E-01
     -0.666  0.1641E+00  0.1488E+00  0.3138E-01
     -0.641  0.1633E+00  0.1464E+00  0.3201E-01
     -0.616  0.1820E+00  0.1643E+00  0.3593E-01
     -0.591  0.2110E+00  0.1894E+00  0.4209E-01
     -0.566  0.2486E+00  0.2097E+00  0.6035E-01
     -0.542  0.1533E+00  0.1546E+00  0.2619E-01
     -0.517  0.1362E+00  0.1406E+00  0.2467E-01
     -0.492  0.1195E+00  0.1249E+00  0.2245E-01
     -0.467  0.1446E+00  0.1505E+00  0.2467E-01
     -0.442  0.1546E+00  0.1604E+00  0.2588E-01
     -0.417  0.1292E+00  0.1337E+00  0.2354E-01
     -0.393  0.1230E+00  0.1271E+00  0.2317E-01
     -0.368  0.1154E+00  0.1190E+00  0.2276E-01
     -0.343  0.1227E+00  0.1282E+00  0.2447E-01
     -0.318  0.1351E+00  0.1439E+00  0.2776E-01
     -0.293  0.1122E+00  0.1144E+00  0.2423E-01
     -0.268  0.1204E+00  0.1182E+00  0.2674E-01
     -0.243  0.1283E+00  0.1236E+00  0.2998E-01
     -0.219  0.1294E+00  0.1249E+00  0.3517E-01
     -0.194  0.1246E+00  0.1232E+00  0.4348E-01
     -0.169  0.1442E+00  0.1507E+00  0.5480E-01
     -0.144  0.1283E+00  0.1317E+00  0.4983E-01
     -0.119  0.1381E+00  0.1393E+00  0.5440E-01
     -0.094  0.1853E+00  0.2627E+00  0.7080E-01
     -0.070  0.1458E+00  0.2343E+00  0.5637E-01
     -0.045  0.1453E+00  0.2692E+00  0.5363E-01
     -0.020  0.1387E+00  0.2998E+00  0.5315E-01
      0.005  0.1588E+00  0.4659E+00  0.6484E-01
      0.030  0.9562E-01  0.3711E+00  0.4930E-01
      0.055  0.7214E-01  0.3006E+00  0.4228E-01
      0.080  0.6370E-01  0.2682E+00  0.3895E-01
      0.104  0.5651E-01  0.1931E+00  0.3129E-01
      0.129  0.6054E-01  0.1829E+00  0.3077E-01
      0.154  0.6644E-01  0.1738E+00  0.3036E-01
      0.179  0.4771E-01  0.1459E+00  0.2566E-01
      0.204  0.2581E-01  0.1191E+00  0.1971E-01
      0.229  0.2614E-01  0.1190E+00  0.2204E-01
      0.254  0.4359E-01  0.1716E+00  0.6268E-01
      0.278  0.4225E-01  0.1689E+00  0.5745E-01
      0.303  0.4798E-01  0.1749E+00  0.5924E-01
      0.328  0.5552E-01  0.1828E+00  0.5399E-01
      0.353  0.5766E-01  0.1731E+00  0.5271E-01
      0.378  0.8758E-01  0.2406E+00  0.6901E-01
      0.403  0.8626E-01  0.2301E+00  0.7099E-01
      0.427  0.8349E-01  0.2113E+00  0.6119E-01
      0.452  0.7270E-01  0.2214E+00  0.5491E-01
      0.477  0.6726E-01  0.1809E+00  0.4707E-01
      0.502  0.6108E-01  0.1614E+00  0.4476E-01
      0.527  0.5285E-01  0.1492E+00  0.3994E-01
      0.552  0.4922E-01  0.1494E+00  0.3951E-01
      0.577  0.4682E-01  0.1489E+00  0.3958E-01
      0.601  0.6565E-01  0.1856E+00  0.5406E-01
      0.626  0.6349E-01  0.1909E+00  0.5222E-01
      0.651  0.6464E-01  0.2043E+00  0.5951E-01
      0.676  0.7243E-01  0.2185E+00  0.6541E-01
      0.701  0.6961E-01  0.2206E+00  0.7468E-01
      0.726  0.8781E-01  0.2614E+00  0.8705E-01
      0.750  0.9204E-01  0.2528E+00  0.8358E-01
      0.775  0.7784E-01  0.2132E+00  0.7374E-01
      0.800  0.8932E-01  0.2367E+00  0.8238E-01
      0.825  0.1038E+00  0.2239E+00  0.8013E-01
      0.850  0.1143E+00  0.2403E+00  0.8958E-01
      0.875  0.1025E+00  0.2323E+00  0.8761E-01
      0.900  0.8322E-01  0.2180E+00  0.8056E-01
      0.924  0.9596E-01  0.2375E+00  0.8994E-01
      0.949  0.7829E-01  0.2340E+00  0.8691E-01
      0.974  0.7133E-01  0.2736E+00  0.9294E-01
      0.999  0.6916E-01  0.2748E+00  0.9293E-01
      1.024  0.7116E-01  0.2563E+00  0.9132E-01
      1.049  0.7186E-01  0.2724E+00  0.9937E-01
      1.073  0.7634E-01  0.2906E+00  0.1070E+00
      1.098  0.7410E-01  0.3175E+00  0.1126E+00
      1.123  0.7101E-01  0.2736E+00  0.9822E-01
      1.148  0.7319E-01  0.2399E+00  0.8795E-01
      1.173  0.7372E-01  0.2525E+00  0.9264E-01
      1.198  0.7504E-01  0.2739E+00  0.9928E-01
      1.223  0.8004E-01  0.3002E+00  0.1047E+00
      1.247  0.9579E-01  0.4331E+00  0.1324E+00
      1.272  0.8990E-01  0.2167E+00  0.8734E-01
      1.297  0.6289E-01  0.1353E+00  0.6052E-01
      1.322  0.5208E-01  0.9813E-01  0.4779E-01
      1.347  0.3965E-01  0.7617E-01  0.3687E-01
      1.372  0.4380E-01  0.7360E-01  0.3603E-01
      1.396  0.4754E-01  0.7562E-01  0.3659E-01
      1.421  0.5330E-01  0.8313E-01  0.4028E-01
      1.446  0.6729E-01  0.9763E-01  0.4871E-01
      1.471  0.6508E-01  0.1078E+00  0.5081E-01
      1.496  0.6043E-01  0.1153E+00  0.5154E-01
      1.521  0.5545E-01  0.1228E+00  0.5199E-01
      1.546  0.5877E-01  0.1412E+00  0.5940E-01
      1.570  0.2132E-01  0.1120E+00  0.3197E-01
      1.595  0.2272E-01  0.1084E+00  0.2773E-01
      1.620  0.2185E-01  0.1027E+00  0.2488E-01
      1.645  0.2187E-01  0.1024E+00  0.2421E-01
      1.670  0.2210E-01  0.1068E+00  0.2481E-01
      1.695  0.2819E-01  0.1772E+00  0.4180E-01
      1.719  0.4187E-01  0.3223E+00  0.7045E-01
      1.744  0.4046E-01  0.3014E+00  0.5826E-01
      1.769  0.3457E-01  0.2420E+00  0.4656E-01
      1.794  0.3479E-01  0.2451E+00  0.4446E-01
      1.819  0.3847E-01  0.2703E+00  0.4777E-01
      1.844  0.4809E-01  0.3476E+00  0.5721E-01
      1.869  0.3447E-01  0.1968E+00  0.3172E-01
      1.893  0.2283E-01  0.1161E+00  0.1656E-01
      1.918  0.4026E-02  0.1330E-01  0.4594E-02
      1.943  0.3202E-02  0.1040E-01  0.3633E-02
      1.968  0.2358E-02  0.7532E-02  0.2661E-02
      1.993  0.1495E-02  0.4695E-02  0.1678E-02
      2.018  0.6126E-03  0.1892E-02  0.6839E-03
      2.042  0.0000E+00  0.0000E+00  0.0000E+00
      2.067  0.0000E+00  0.0000E+00  0.0000E+00
      2.092  0.0000E+00  0.0000E+00  0.0000E+00
      2.117  0.0000E+00  0.0000E+00  0.0000E+00
      2.142  0.0000E+00  0.0000E+00  0.0000E+00
      2.167  0.0000E+00  0.0000E+00  0.0000E+00
      2.192  0.0000E+00  0.0000E+00  0.0000E+00
      2.216  0.0000E+00  0.0000E+00  0.0000E+00
      2.241  0.0000E+00  0.0000E+00  0.0000E+00
      2.266  0.0000E+00  0.0000E+00  0.0000E+00
      2.291  0.0000E+00  0.0000E+00  0.0000E+00
      2.316  0.0000E+00  0.0000E+00  0.0000E+00
      2.341  0.0000E+00  0.0000E+00  0.0000E+00
      2.365  0.0000E+00  0.0000E+00  0.0000E+00
      2.390  0.0000E+00  0.0000E+00  0.0000E+00
      2.415  0.0000E+00  0.0000E+00  0.0000E+00
      2.440  0.0000E+00  0.0000E+00  0.0000E+00
      2.465  0.0000E+00  0.0000E+00  0.0000E+00
      2.490  0.0000E+00  0.0000E+00  0.0000E+00
      2.515  0.0000E+00  0.0000E+00  0.0000E+00
      2.539  0.0000E+00  0.0000E+00  0.0000E+00
      2.564  0.0000E+00  0.0000E+00  0.0000E+00
      2.589  0.0000E+00  0.0000E+00  0.0000E+00
      2.614  0.0000E+00  0.0000E+00  0.0000E+00
      2.639  0.0000E+00  0.0000E+00  0.0000E+00
      2.664  0.0000E+00  0.0000E+00  0.0000E+00
      2.688  0.0000E+00  0.0000E+00  0.0000E+00
      2.713  0.0000E+00  0.0000E+00  0.0000E+00
      2.738  0.0000E+00  0.0000E+00  0.0000E+00
      2.763  0.0000E+00  0.0000E+00  0.0000E+00
      2.788  0.0000E+00  0.0000E+00  0.0000E+00
      2.813  0.0000E+00  0.0000E+00  0.0000E+00
      2.838  0.0000E+00  0.0000E+00  0.0000E+00
      2.862  0.0000E+00  0.0000E+00  0.0000E+00
      2.887  0.0000E+00  0.0000E+00  0.0000E+00
      2.912  0.0000E+00  0.0000E+00  0.0000E+00
      2.937  0.0000E+00  0.0000E+00  0.0000E+00
