TiO2_rutile
1.0
        4.5939998627         0.0000000000         0.0000000000
        0.0000000000         4.5939998627         0.0000000000
        0.0000000000         0.0000000000         2.9590001106
   Ti    O
    2    4
Direct
     0.000000000         0.000000000         0.000000000
     0.500000000         0.500000000         0.500000000
     0.304799998         0.304799998         0.000000000
     0.695199950         0.695199950         0.000000000
     0.195200002         0.804800050         0.500000000
     0.804800050         0.195200002         0.500000000
