Transfer by qvasp
    1.0
    5.656500    0.000000    0.000000    
    0.000000    77.978200    0.000000    
    0.000000    0.000000    20.129700    
  P   
  116  
  Direct
  0.077660  0.977770  0.447120  
  0.422490  0.943280  0.447120  
  0.112140  0.874320  0.447120  
  0.767310  0.908790  0.447120  
  0.456970  0.839830  0.447120  
  0.146630  0.770870  0.447120  
  0.801800  0.805340  0.447120  
  0.491450  0.736380  0.447120  
  0.181110  0.667420  0.447120  
  0.836280  0.701890  0.447120  
  0.525940  0.632930  0.447120  
  0.215590  0.563970  0.447120  
  0.870760  0.598440  0.447120  
  0.560420  0.529480  0.447120  
  0.250070  0.460520  0.447120  
  0.905250  0.494990  0.447120  
  0.594900  0.426030  0.447120  
  0.284560  0.357080  0.447120  
  0.939730  0.391540  0.447120  
  0.629380  0.322580  0.447120  
  0.319040  0.253630  0.447120  
  0.974210  0.288090  0.447120  
  0.008690  0.184670  0.447120  
  0.663870  0.219140  0.447120  
  0.353520  0.150180  0.447120  
  0.043180  0.081220  0.447120  
  0.698350  0.115690  0.447120  
  0.388000  0.046730  0.447120  
  0.732830  0.012240  0.447120  
  0.577660  0.977760  0.552880  
  0.267310  0.908800  0.552880  
  0.922490  0.943270  0.552880  
  0.612140  0.874310  0.552880  
  0.301800  0.805350  0.552880  
  0.956970  0.839820  0.552880  
  0.646630  0.770860  0.552880  
  0.336280  0.701900  0.552880  
  0.991450  0.736370  0.552880  
  0.025940  0.632940  0.552880  
  0.681110  0.667410  0.552880  
  0.370760  0.598450  0.552880  
  0.060420  0.529490  0.552880  
  0.715590  0.563960  0.552880  
  0.405250  0.495000  0.552880  
  0.094900  0.426050  0.552880  
  0.750070  0.460510  0.552880  
  0.439730  0.391550  0.552880  
  0.129380  0.322600  0.552880  
  0.784560  0.357060  0.552880  
  0.474210  0.288110  0.552880  
  0.163870  0.219150  0.552880  
  0.819040  0.253610  0.552880  
  0.508690  0.184660  0.552880  
  0.198350  0.115700  0.552880  
  0.853520  0.150170  0.552880  
  0.543180  0.081210  0.552880  
  0.232830  0.012250  0.552880  
  0.888000  0.046720  0.552880  
  0.036000  0.949260  0.447060  
  0.691170  0.983730  0.447060  
  0.380820  0.914770  0.447060  
  0.070480  0.845810  0.447060  
  0.725650  0.880280  0.447060  
  0.415310  0.811320  0.447060  
  0.104960  0.742360  0.447060  
  0.760130  0.776830  0.447060  
  0.449790  0.707870  0.447060  
  0.139440  0.638910  0.447060  
  0.794620  0.673380  0.447060  
  0.484270  0.604420  0.447060  
  0.173930  0.535470  0.447060  
  0.829100  0.569930  0.447060  
  0.518750  0.500970  0.447060  
  0.208410  0.432020  0.447060  
  0.863580  0.466480  0.447060  
  0.553240  0.397530  0.447060  
  0.242890  0.328570  0.447060  
  0.898060  0.363040  0.447060  
  0.587720  0.294080  0.447060  
  0.277370  0.225120  0.447060  
  0.932550  0.259590  0.447060  
  0.622200  0.190630  0.447060  
  0.311860  0.121670  0.447060  
  0.967030  0.156140  0.447060  
  0.001510  0.052710  0.447060  
  0.656690  0.087180  0.447060  
  0.346340  0.018220  0.447060  
  0.191170  0.983740  0.552940  
  0.536000  0.949250  0.552940  
  0.225650  0.880290  0.552940  
  0.880820  0.914760  0.552940  
  0.570480  0.845800  0.552940  
  0.260130  0.776840  0.552940  
  0.915310  0.811310  0.552940  
  0.604960  0.742350  0.552940  
  0.294620  0.673390  0.552940  
  0.949790  0.707860  0.552940  
  0.639440  0.638900  0.552940  
  0.329100  0.569940  0.552940  
  0.984270  0.604410  0.552940  
  0.018750  0.500990  0.552940  
  0.673930  0.535450  0.552940  
  0.363580  0.466500  0.552940  
  0.053240  0.397540  0.552940  
  0.708410  0.432000  0.552940  
  0.398060  0.363050  0.552940  
  0.087720  0.294090  0.552940  
  0.742890  0.328560  0.552940  
  0.432550  0.259600  0.552940  
  0.122200  0.190640  0.552940  
  0.777370  0.225110  0.552940  
  0.467030  0.156150  0.552940  
  0.156690  0.087190  0.552940  
  0.811860  0.121660  0.552940  
  0.501510  0.052700  0.552940  
  0.846340  0.018210  0.552940  
