<?xml version="1.0" encoding="UTF-8"?>
<xrdMeasurements xmlns="http://www.xrdml.com/XRDMeasurement/1.6" xmlns:xsi="http://www.w3.org/2001/XMLSchema-instance" xsi:schemaLocation="http://www.xrdml.com/XRDMeasurement/1.6 http://www.xrdml.com/XRDMeasurement/1.6/XRDMeasurement.xsd" status="Completed">
	<comment>
		<entry>Configuration=Reflection Transmission Spinner, Owner=User-1, Creation date=2/18/2016 10:30:15 AM</entry>
		<entry>Goniometer=PW3050/60 (Theta/Theta); Minimum step size 2Theta:0.001; Minimum step size Omega:0.001</entry>
		<entry>Sample stage=Reflection-Transmission Spinner PW3064/60; Minimum step size Phi:0.1</entry>
		<entry>Diffractometer system=XPERT-3</entry>
		<entry>Measurement program=C:\PANalytical\Data Collector\Programs\10-24_GenMin_5-70.xrdmp, Identifier={59D745C8-D919-4167-85FF-AEFCA6533036}</entry>
		<entry>Batch program=C:\PANalytical\Data Collector\Programs\6-14 Mariana.xrdmp, Identifier={1F12CA5B-6AC1-4AD7-977A-35702C9468DB}</entry>
	</comment>
	<sample type="To be analyzed">
		<id>2974_RGR1_D09_003 #2</id>
		<name>2974_RGR1_D09_003 #2</name>
		<preparedBy></preparedBy>
	</sample>
	<xrdMeasurement measurementType="Scan" status="Completed" sampleMode="Reflection">
		<comment>
			<entry>PHD Lower Level = 7.24 (keV), PHD Upper Level = 12.88 (keV)</entry>
		</comment>
		<usedWavelength intended="K-Alpha 1">
			<kAlpha1 unit="Angstrom">1.5405980</kAlpha1>
			<kAlpha2 unit="Angstrom">1.5444260</kAlpha2>
			<kBeta unit="Angstrom">1.3922500</kBeta>
			<ratioKAlpha2KAlpha1>0.5000</ratioKAlpha2KAlpha1>
		</usedWavelength>
		<incidentBeamPath>
			<radius unit="mm">240.00</radius>
			<xRayTube id="1010041" name="Empyrean Cu LFF (9430 033 7300x) DK409083">
				<tension unit="kV">45.0</tension>
				<current unit="mA">40.0</current>
				<anodeMaterial>Cu</anodeMaterial>
				<focus type="Line">
					<length unit="mm">12.0</length>
					<width unit="mm">0.4</width>
					<takeOffAngle unit="deg">6.0</takeOffAngle>
				</focus>
			</xRayTube>
			<sollerSlit id="21010002" name="Soller slits 0.04 rad.">
				<opening unit="rad">0.0400</opening>
			</sollerSlit>
			<mask id="22080002" name="Fixed incident beam mask 10 mm">
				<width unit="mm">6.60</width>
			</mask>
			<antiScatterSlit id="22010005" name="Fixed slit 1/4°" xsi:type="fixedAntiScatterSlitType">
				<height unit="mm">0.38</height>
			</antiScatterSlit>
			<divergenceSlit id="22010007" name="Fixed slit 1/8°" xsi:type="fixedDivergenceSlitType">
				<distanceToSample unit="mm">140.00</distanceToSample>
				<height unit="mm">0.19</height>
			</divergenceSlit>
		</incidentBeamPath>
		<sampleMovement xsi:type="spinningSampleMovementType">
			<spinnerRevolutionTime unit="seconds">2.0</spinnerRevolutionTime>
		</sampleMovement>
		<diffractedBeamPath>
			<radius unit="mm">240.00</radius>
			<antiScatterSlit id="22090004" name="AS slit 5.5 mm (X'Celerator)" xsi:type="fixedAntiScatterSlitType">
				<height unit="mm">5.50</height>
			</antiScatterSlit>
			<sollerSlit id="21010001" name="Soller slits 0.02 rad.">
				<opening unit="rad">0.0200</opening>
			</sollerSlit>
			<monochromator id="23010036" name="1D Standard diffracted beam monochr. Cu" hybrid="false">
				<crystal type="Symmetric" shape="Flat">C</crystal>
				<numberOfReflections>1</numberOfReflections>
				<hkl>
					<h>0</h>
					<k>0</k>
					<l>2</l>
				</hkl>
			</monochromator>
			<detector id="7010012" name="X'Celerator Scientific" xsi:type="rtmsDetectorType">
				<phd>
					<lowerLevel unit="%">45.0</lowerLevel>
					<upperLevel unit="%">80.0</upperLevel>
				</phd>
				<mode>Scanning</mode>
				<activeLength unit="deg">2.122</activeLength>
			</detector>
		</diffractedBeamPath>
		<scan appendNumber="0" mode="Continuous" scanAxis="Gonio" status="Completed">
			<header>
				<startTimeStamp>2018-06-14T14:40:11-07:00</startTimeStamp>
				<endTimeStamp>2018-06-14T15:45:27-07:00</endTimeStamp>
				<author>
					<name>labuser</name>
				</author>
				<source>
					<applicationSoftware version="5.3">Data Collector</applicationSoftware>
					<instrumentControlSoftware version="7.3f 20150929">XPERT-3</instrumentControlSoftware>
					<instrumentID>0000000011178681</instrumentID>
				</source>
			</header>
			<dataPoints>
				<positions axis="2Theta" unit="deg">
					<startPosition>3.00835563</startPosition>
					<endPosition>70.00383296</endPosition>
				</positions>
				<positions axis="Omega" unit="deg">
					<startPosition>1.50417782</startPosition>
					<endPosition>35.00191648</endPosition>
				</positions>
				<positions axis="Phi" unit="deg">
					<commonPosition>137.0</commonPosition>
				</positions>
				<commonCountingTime unit="seconds">120.015</commonCountingTime>
				<intensities unit="counts">438 394 443 447 432 456 417 424 443 405 430 440 408 442 399 410 426 379 440 351 375 406 356 387 400 376 370 417 381 388 420 393 407 371 374 382 409 378 351 343 377 361 355 350 366 352 390 340 374 332 349 311 370 342 328 336 355 332 372 357 373 355 331 327 344 341 332 326 342 354 329 342 338 319 346 339 324 330 309 307 330 340 310 326 323 332 288 331 323 276 318 293 329 323 296 290 336 309 296 322 329 296 307 309 318 290 331 294 327 310 294 300 292 314 326 300 308 280 308 283 311 263 306 286 322 303 277 293 278 282 259 257 266 312 299 261 286 299 277 291 293 289 279 273 294 305 273 283 276 296 286 288 311 270 287 284 264 278 260 278 260 259 268 270 257 284 265 263 273 229 248 265 244 276 271 286 266 259 244 265 271 270 264 263 261 274 263 268 247 296 243 247 238 238 247 262 258 251 260 255 270 267 236 254 240 243 275 270 234 248 265 200 250 254 245 246 260 240 223 235 254 247 259 259 240 242 256 267 250 249 249 243 229 232 268 232 238 235 236 230 241 247 229 246 229 212 226 256 230 230 232 255 213 224 234 241 221 211 182 208 205 214 217 214 238 202 247 219 236 224 241 205 240 242 235 247 195 201 205 199 210 213 214 242 213 220 209 195 209 231 232 208 214 198 198 191 230 200 191 191 207 225 177 199 189 216 211 236 210 211 203 226 177 202 196 217 182 178 205 183 188 169 191 187 189 194 208 204 202 202 202 197 200 192 200 197 209 191 189 187 169 169 192 204 183 192 208 211 189 177 161 209 199 173 155 164 191 204 173 194 173 189 201 184 202 179 172 165 194 187 171 179 175 178 173 146 163 189 218 164 173 198 182 179 165 172 156 183 171 176 179 177 182 164 188 160 150 179 159 176 172 167 167 162 155 166 138 175 171 150 177 181 152 168 166 145 160 160 173 177 171 151 163 155 157 171 171 162 144 169 160 160 179 144 137 159 162 157 151 148 154 135 160 143 147 164 157 168 124 146 127 136 151 150 138 161 143 131 150 161 164 164 149 165 162 135 140 141 150 127 122 141 144 136 131 153 147 149 141 147 140 148 152 147 145 135 124 129 150 153 140 140 144 134 130 120 144 143 124 132 148 140 156 130 121 138 134 125 118 121 165 153 151 119 132 124 135 122 131 133 129 129 136 122 117 123 169 132 123 129 124 137 128 128 113 120 121 141 120 110 119 105 116 109 146 125 113 135 150 116 116 117 123 121 136 138 133 129 99 98 127 123 122 116 110 106 121 120 125 119 101 124 119 109 123 121 128 124 116 103 98 125 122 100 119 108 120 120 100 123 108 119 115 109 118 130 129 114 113 107 118 115 121 120 110 129 107 105 119 107 110 105 106 132 123 123 97 104 112 124 119 113 100 103 97 106 113 110 81 93 106 106 106 92 96 114 97 94 120 122 112 87 103 106 110 101 102 115 113 101 104 89 112 80 98 93 100 100 115 92 112 119 99 108 82 89 119 103 106 93 112 90 89 91 122 91 89 107 110 93 106 115 93 105 91 93 96 109 96 117 97 93 89 100 93 83 110 96 94 118 91 108 103 98 89 96 100 102 99 107 89 97 89 88 87 103 83 93 94 91 81 96 99 100 86 87 88 105 85 105 96 92 115 88 83 88 78 97 91 91 103 102 84 84 88 76 109 78 84 71 92 98 69 85 108 83 96 122 84 72 91 94 94 82 84 83 86 94 75 99 87 98 94 97 83 82 92 84 101 109 91 76 72 71 73 84 96 84 94 62 76 83 85 84 68 83 94 88 78 87 87 94 84 99 88 68 100 83 97 78 86 74 75 68 96 67 82 94 62 94 84 92 74 93 86 83 74 91 94 92 86 99 86 90 81 76 91 87 80 81 108 96 83 66 84 84 80 77 85 109 80 84 89 80 73 75 81 82 98 90 99 74 105 65 96 89 71 107 86 81 99 89 98 98 92 96 77 99 83 80 98 98 112 98 82 98 87 89 78 82 87 93 78 92 77 87 87 71 90 81 92 77 75 93 74 93 91 89 83 83 73 68 86 82 75 81 75 87 65 81 88 85 89 69 81 97 83 91 69 85 81 101 93 100 60 86 81 74 105 74 93 82 83 118 82 98 86 92 98 98 93 73 82 75 80 97 89 77 94 86 86 77 80 75 70 86 81 77 86 82 77 91 76 88 61 81 92 71 84 70 73 85 67 70 89 75 75 73 54 89 77 77 93 88 70 74 76 69 70 70 70 73 75 76 83 83 75 82 73 90 84 99 71 94 92 85 78 81 82 96 72 91 87 85 76 75 80 86 82 102 87 89 101 75 85 112 89 100 94 101 84 98 99 97 94 74 96 122 93 109 102 99 102 117 121 118 124 114 102 119 123 134 120 145 148 138 134 135 176 149 154 151 167 201 184 193 172 204 211 216 208 215 209 194 223 188 225 212 210 215 205 182 168 177 187 187 146 132 149 161 138 133 127 120 124 137 106 128 108 112 123 96 103 105 96 92 97 97 89 107 91 89 78 110 80 90 77 84 81 86 82 75 80 82 68 72 66 73 74 78 70 82 61 73 68 61 66 54 60 60 65 68 65 56 64 78 69 65 65 73 61 64 67 75 65 55 62 62 66 62 62 64 57 75 64 60 73 74 62 66 56 66 66 70 59 46 52 71 64 62 75 57 68 76 66 60 58 72 60 54 59 73 60 71 51 85 67 70 61 72 68 60 68 61 49 49 48 56 45 69 38 59 59 45 50 53 52 57 40 49 57 52 67 60 82 41 46 57 64 59 52 58 55 64 73 71 64 69 57 61 49 62 50 54 46 45 43 49 51 55 49 58 49 43 58 48 48 44 40 58 55 46 53 49 52 50 51 33 44 55 39 32 41 53 65 43 54 48 42 62 54 41 32 51 65 41 52 48 68 58 41 50 54 57 57 46 55 36 60 50 45 60 48 53 51 55 46 49 46 51 53 61 51 55 59 50 52 43 41 56 57 65 52 65 53 43 60 52 60 48 51 54 51 39 45 50 51 52 43 45 49 45 49 68 54 46 57 48 52 59 50 50 54 54 40 66 46 58 62 41 49 41 43 66 52 49 61 72 48 48 60 45 76 74 61 56 60 65 60 75 76 71 73 71 85 66 74 72 77 68 60 66 75 77 67 72 65 62 73 61 43 52 56 62 62 45 43 66 56 58 52 58 46 50 57 59 55 48 40 59 59 58 41 56 44 43 42 55 56 43 45 39 34 45 39 35 44 40 53 49 44 37 40 40 52 36 49 45 54 48 54 43 36 49 44 53 49 52 38 50 51 37 56 45 39 58 37 36 45 45 46 51 57 45 38 38 37 46 46 35 56 49 56 38 44 29 40 46 44 53 44 42 41 51 45 38 58 35 45 43 51 54 35 39 39 56 50 52 46 49 54 34 55 50 48 46 53 53 48 45 48 49 46 59 48 43 53 41 38 61 40 24 44 46 55 59 52 46 55 48 50 52 40 64 53 64 65 45 81 62 67 85 83 84 73 86 109 94 120 129 146 162 162 194 217 177 194 189 165 168 153 153 125 128 128 139 108 84 123 99 103 108 100 102 93 93 89 82 98 93 78 69 70 89 83 61 61 73 62 60 58 53 66 55 61 46 41 69 76 45 56 50 42 56 52 55 61 54 48 53 51 52 57 57 45 53 51 42 50 58 49 38 45 40 39 56 48 51 46 45 48 54 54 43 48 55 61 49 41 58 46 46 48 53 45 44 60 40 45 44 48 55 54 52 57 52 41 45 57 55 72 46 64 52 48 58 51 55 61 53 54 64 48 49 55 53 46 58 41 52 64 59 48 70 55 51 56 53 49 57 39 64 76 58 49 45 59 57 62 61 66 65 59 72 54 59 59 57 39 66 56 59 67 65 61 60 50 70 56 54 69 65 40 67 70 57 69 70 72 65 65 45 62 65 64 57 71 76 65 60 67 52 65 68 82 91 85 84 66 75 90 87 80 82 87 99 89 87 90 93 105 99 98 98 123 104 121 115 105 116 120 104 124 121 138 134 127 112 135 121 120 116 124 121 115 136 106 110 93 120 108 103 114 94 118 98 97 87 96 92 103 87 106 85 90 96 87 76 80 81 89 98 94 72 66 74 70 76 76 69 83 70 68 84 72 84 83 64 64 62 53 66 70 68 60 65 61 64 71 75 54 66 55 91 75 57 62 82 70 55 60 54 74 59 68 78 86 76 105 90 103 80 69 85 91 94 84 80 98 93 104 91 90 87 107 90 82 83 81 107 100 92 91 90 103 106 78 97 83 94 96 83 84 76 85 60 68 71 65 76 65 57 84 65 78 69 52 76 71 80 74 67 71 88 83 91 80 85 78 75 86 89 83 81 77 82 69 100 91 100 84 83 77 108 81 104 92 105 105 98 103 98 93 97 101 110 106 108 100 124 121 89 94 127 122 97 113 105 128 118 113 121 123 101 108 125 129 110 113 122 134 134 152 132 150 128 139 154 170 173 169 155 163 179 165 186 169 175 175 217 185 175 186 176 165 169 171 146 147 170 145 146 140 133 121 156 113 117 153 102 90 89 92 86 91 85 108 97 81 80 84 67 72 87 73 64 66 62 64 76 60 58 64 59 45 55 59 50 45 55 52 57 51 54 59 48 51 44 48 39 48 38 39 43 44 51 42 35 37 54 38 44 51 33 51 36 42 52 42 43 37 48 26 48 49 40 45 40 41 41 44 43 46 34 41 39 35 50 35 48 45 34 39 35 39 46 33 26 37 42 46 32 43 33 41 41 39 45 41 30 35 44 34 44 40 50 45 39 34 46 43 40 35 45 45 36 53 39 50 34 48 43 44 36 36 48 36 57 50 45 55 35 50 35 41 42 52 59 49 57 50 53 61 75 74 69 66 68 64 64 72 66 60 53 76 56 57 60 80 46 59 62 59 66 62 51 72 87 72 69 69 68 78 72 58 71 81 67 88 65 68 73 64 75 78 91 78 56 60 48 62 56 51 81 60 64 61 51 58 58 54 62 54 62 81 55 52 54 61 40 46 54 62 55 51 53 51 61 45 74 56 57 54 56 52 66 58 60 58 49 50 51 66 65 65 74 75 59 59 64 59 64 57 62 64 64 67 61 58 49 65 70 58 62 50 59 57 50 48 50 54 71 43 56 52 45 49 53 51 44 44 35 46 32 33 40 42 45 48 40 38 42 48 30 33 36 33 30 35 34 42 41 33 39 36 36 37 32 38 25 33 30 30 26 36 28 34 30 28 34 40 39 33 38 26 29 29 28 28 26 26 20 24 25 39 34 19 26 33 36 32 30 35 26 21 38 33 26 28 23 35 23 24 37 33 24 24 29 36 32 30 24 25 27 29 32 36 27 38 28 35 25 33 29 50 43 52 56 42 41 40 56 53 37 38 48 39 43 43 54 41 48 55 32 34 40 36 42 33 39 35 32 27 40 33 34 29 26 29 27 24 25 30 36 25 13 23 27 25 23 34 25 25 21 24 33 29 18 30 32 28 26 19 25 20 34 30 19 24 21 26 34 21 29 28 25 32 24 25 32 23 19 23 21 29 27 26 18 32 26 25 28 25 29 25 26 27 29 25 26 26 32 33 29 35 34 27 21 28 38 29 29 33 43 30 34 23 32 28 37 42 28 39 28 26 32 33 37 29 27 27 25 28 20 33 27 19 34 28 37 32 26 35 29 36 26 30 25 37 20 43 24 28 27 23 25 24 29 30 28 21 28 28 32 35 30 22 23 26 26 22 26 21 21 25 27 24 30 27 24 26 26 28 30 33 30 24 26 27 27 30 29 23 33 22 26 29 22 26 28 20 35 21 21 20 32 33 19 34 22 27 37 18 24 21 30 22 32 32 27 36 30 25 19 17 25 27 26 26 30 30 28 37 36 28 29 28 40 32 35 37 52 45 41 39 35 33 33 39 55 40 45 37 43 37 59 45 58 53 51 49 40 53 52 51 60 43 55 57 67 65 56 58 53 70 51 52 32 52 52 46 44 41 64 43 49 46 44 42 40 54 45 37 52 45 43 22 43 27 41 39 52 32 30 46 32 32 42 38 40 46 44 40 41 36 39 46 29 32 51 44 43 43 45 43 48 42 61 59 48 60 45 57 53 44 42 36 42 28 34 33 42 36 37 39 42 48 49 40 21 33 32 38 36 33 30 38 32 36 32 24 39 25 33 42 37 38 32 30 26 29 25 36 33 36 22 35 20 37 24 29 23 24 32 30 37 32 22 29 32 24 21 22 36 33 27 22 36 24 26 20 29 33 21 36 27 30 20 34 28 32 25 24 29 25 32 35 28 29 34 26 33 29 28 26 28 34 33 21 27 29 27 26 36 37 41 36 30 28 50 38 23 35 39 29 42 52 45 41 32 25 33 40 40 45 41 46 49 37 42 42 34 39 37 35 43 34 35 33 43 29 33 34 29 44 42 35 41 38 45 39 33 34 27 36 30 33 27 36 32 33 34 45 34 33 28 37 42 40 29 37 38 37 40 35 32 34 36 25 32 40 25 32 28 37 28 35 35 34 34 28 40 29 25 24 30 34 25 33 20 22 25 28 37 32 34 42 32 29 39 37 29 33 34 27 42 38 30 30 33 34 26 35 38 43 29 39 38 33 35 37 35 54 43 52 49 55 50 46 41 40 46 43 44 46 59 49 48 51 59 60 64 62 50 65 60 66 62 54 67 69 69 51 70 83 69 89 85 89 74 84 102 100 96 100 107 114 85 94 99 83 114 107 106 108 104 78 98 82 97 88 85 78 87 88 73 74 78 65 78 77 66 55 72 71 61 65 70 78 60 60 60 57 66 54 49 55 65 51 51 58 69 52 71 53 61 70 61 57 43 42 64 58 69 72 46 38 61 40 58 39 55 40 43 41 54 50 49 51 46 45 33 37 30 49 42 43 38 37 42 59 39 37 40 48 59 37 38 36 38 42 36 49 52 45 36 38 38 21 43 39 45 29 36 39 28 39 30 32 39 25 28 37 34 35 36 29 34 34 42 49 29 45 30 30 40 37 27 42 26 25 30 38 38 28 30 43 25 38 26 32 27 25 38 21 32 29 22 33 27 36 33 23 30 27 30 25 30 27 40 25 21 48 26 32 21 19 33 27 27 28 26 26 28 19 24 27 34 36 24 25 21 32 23 29 23 38 28 24 21 25 25 33 17 30 36 37 27 42 40 28 27 36 32 28 24 29 29 29 33 28 29 38 28 29 35 29 40 33 34 39 33 35 28 37 29 28 34 37 27 39 27 36 39 35 43 38 37 32 43 33 44 30 48 30 38 39 57 44 39 52 39 43 50 40 36 44 35 34 52 40 48 37 39 28 43 40 34 34 29 37 40 39 25 33 44 36 30 42 25 36 40 37 30 42 37 36 36 54 45 33 33 33 34 46 45 32 30 45 40 33 35 37 42 27 36 34 41 36 51 45 44 42 45 48 36 51 41 43 43 59 43 54 40 40 53 38 41 51 43 48 59 43 49 62 41 61 66 58 51 53 67 53 46 54 54 39 46 46 59 56 58 48 59 49 50 43 46 49 44 51 49 45 41 40 53 49 65 40 32 43 37 35 33 29 53 35 43 38 51 34 44 33 39 38 28 48 29 36 27 36 29 34 39 30 38 35 32 44 27 30 36 22 29 32 19 26 27 37 24 23 24 36 30 33 25 35 25 37 34 30 27 22 30 25 20 28 29 32 36 27 25 33 25 35 29 34 28 33 40 26 34 39 30 39 43 49 39 25 54 35 29 29 34 42 44 28 44 42 30 34 44 44 62 43 44 61 45 38 44 45 37 43 41 52 45 51 46 52 53 60 41 55 68 46 65 65 66 60 67 43 43 65 57 54 50 61 58 36 43 33 54 49 45 52 48 42 41 49 30 43 52 45 26 34 42 42 44 24 42 33 29 40 39 33 33 30 30 24 36 19 33 34 29 41 26 27 26 38 28 33 27 34 29 30 32 25 26 27 34 29 28 30 35 30 41 20 24 36 26 30 26 30 30 29 35 26 29 35 34 35 30 37 38 27 39 30 43 28 23 42 29 34 42 43 49 36 30 37 39 38 36 32 50 41 46 45 35 36 41 43 35 33 43 37 33 30 42 43 57 36 35 30 43 35 41 35 41 50 29 30 35 36 49 45 33 53 49 44 38 34 39 43 53 45 46 39 42 45 46 35 41 32 28 44 37 40 46 39 42 36 25 35 43 44 41 48 34 32 32 36 49 36 33 32 30 43 33 38 37 24 41 42 28 26 42 26 32 30 37 22 26 39 43 37 26 44 43 27 24 33 38 29 27 30 30 42 36 23 25 30 28 32 36 33 27 28 22 30 21 29 23 36 25 25 19 32 30 37 29 28 42 29 29 32 34 29 26 42 23 27 28 27 26 35 39 37 28 38 23 36 39 28 37 36 30 35 36 28 46 27 25 27 37 30 24 25 35 38 26 35 32 26 24 34 19 24 25 27 25 22 30 23 25 21 27 24 17 26 20 26 26 24 23 21 32 16 28 32 21 27 18 16 17 30 18 22 20 26 22 22 27 22 22 28 28 25 23 28 23 20 24 28 25 36 19 24 25 18 28 29 28 24 26 21 20 26 36 32 22 20 18 20 29 22 27 21 27 26 18 22 19 19 26 21 21 22 26 27 27 24 22 19 24 11 18 30 19 21 19 25 23 20 20 25 13 26 24 18 10 22 21 33 20 25 24 23 30 25 22 23 25 26 24 17 18 29 28 35 18 19 22 24 18 32 27 21 22 27 23 19 19 24 34 27 29 22 30 21 25 26 38 33 22 22 32 22 26 34 27 25 30 25 32 17 25 27 25 23 14 28 26 21 28 36 36 27 23 33 33 28 28 27 22 26 19 30 27 23 26 38 21 23 25 36 41 38 26 40 26 36 21 32 39 18 34 22 22 28 19 24 21 23 27 25 24 34 27 19 20 22 14 20 19 25 22 25 16 26 21 29 25 23 20 20 19 19 29 23 19 20 24 23 20 14 16 25 17 26 14</intensities>
			</dataPoints>
		</scan>
	</xrdMeasurement>
</xrdMeasurements>
