<?xml version="1.0" encoding="UTF-8"?>
<xrdMeasurements xmlns="http://www.xrdml.com/XRDMeasurement/1.6" xmlns:xsi="http://www.w3.org/2001/XMLSchema-instance" xsi:schemaLocation="http://www.xrdml.com/XRDMeasurement/1.6 http://www.xrdml.com/XRDMeasurement/1.6/XRDMeasurement.xsd" status="Completed">
	<comment>
		<entry>Configuration=Reflection Transmission Spinner, Owner=User-1, Creation date=2/18/2016 10:30:15 AM</entry>
		<entry>Goniometer=PW3050/60 (Theta/Theta); Minimum step size 2Theta:0.001; Minimum step size Omega:0.001</entry>
		<entry>Sample stage=Reflection-Transmission Spinner PW3064/60; Minimum step size Phi:0.1</entry>
		<entry>Diffractometer system=XPERT-3</entry>
		<entry>Measurement program=C:\PANalytical\Data Collector\Programs\10-24_GenMin_5-70.xrdmp, Identifier={59D745C8-D919-4167-85FF-AEFCA6533036}</entry>
		<entry>Batch program=C:\PANalytical\Data Collector\Programs\6-14 Mariana.xrdmp, Identifier={1F12CA5B-6AC1-4AD7-977A-35702C9468DB}</entry>
	</comment>
	<sample type="To be analyzed">
		<id>2975_RGR1_D09_005</id>
		<name>2975_RGR1_D09_005</name>
		<preparedBy></preparedBy>
	</sample>
	<xrdMeasurement measurementType="Scan" status="Completed" sampleMode="Reflection">
		<comment>
			<entry>PHD Lower Level = 7.24 (keV), PHD Upper Level = 12.88 (keV)</entry>
		</comment>
		<usedWavelength intended="K-Alpha 1">
			<kAlpha1 unit="Angstrom">1.5405980</kAlpha1>
			<kAlpha2 unit="Angstrom">1.5444260</kAlpha2>
			<kBeta unit="Angstrom">1.3922500</kBeta>
			<ratioKAlpha2KAlpha1>0.5000</ratioKAlpha2KAlpha1>
		</usedWavelength>
		<incidentBeamPath>
			<radius unit="mm">240.00</radius>
			<xRayTube id="1010041" name="Empyrean Cu LFF (9430 033 7300x) DK409083">
				<tension unit="kV">45.0</tension>
				<current unit="mA">40.0</current>
				<anodeMaterial>Cu</anodeMaterial>
				<focus type="Line">
					<length unit="mm">12.0</length>
					<width unit="mm">0.4</width>
					<takeOffAngle unit="deg">6.0</takeOffAngle>
				</focus>
			</xRayTube>
			<sollerSlit id="21010002" name="Soller slits 0.04 rad.">
				<opening unit="rad">0.0400</opening>
			</sollerSlit>
			<mask id="22080002" name="Fixed incident beam mask 10 mm">
				<width unit="mm">6.60</width>
			</mask>
			<antiScatterSlit id="22010005" name="Fixed slit 1/4°" xsi:type="fixedAntiScatterSlitType">
				<height unit="mm">0.38</height>
			</antiScatterSlit>
			<divergenceSlit id="22010007" name="Fixed slit 1/8°" xsi:type="fixedDivergenceSlitType">
				<distanceToSample unit="mm">140.00</distanceToSample>
				<height unit="mm">0.19</height>
			</divergenceSlit>
		</incidentBeamPath>
		<sampleMovement xsi:type="spinningSampleMovementType">
			<spinnerRevolutionTime unit="seconds">2.0</spinnerRevolutionTime>
		</sampleMovement>
		<diffractedBeamPath>
			<radius unit="mm">240.00</radius>
			<antiScatterSlit id="22090004" name="AS slit 5.5 mm (X'Celerator)" xsi:type="fixedAntiScatterSlitType">
				<height unit="mm">5.50</height>
			</antiScatterSlit>
			<sollerSlit id="21010001" name="Soller slits 0.02 rad.">
				<opening unit="rad">0.0200</opening>
			</sollerSlit>
			<monochromator id="23010036" name="1D Standard diffracted beam monochr. Cu" hybrid="false">
				<crystal type="Symmetric" shape="Flat">C</crystal>
				<numberOfReflections>1</numberOfReflections>
				<hkl>
					<h>0</h>
					<k>0</k>
					<l>2</l>
				</hkl>
			</monochromator>
			<detector id="7010012" name="X'Celerator Scientific" xsi:type="rtmsDetectorType">
				<phd>
					<lowerLevel unit="%">45.0</lowerLevel>
					<upperLevel unit="%">80.0</upperLevel>
				</phd>
				<mode>Scanning</mode>
				<activeLength unit="deg">2.122</activeLength>
			</detector>
		</diffractedBeamPath>
		<scan appendNumber="0" mode="Continuous" scanAxis="Gonio" status="Completed">
			<header>
				<startTimeStamp>2018-06-14T15:46:18-07:00</startTimeStamp>
				<endTimeStamp>2018-06-14T16:51:35-07:00</endTimeStamp>
				<author>
					<name>labuser</name>
				</author>
				<source>
					<applicationSoftware version="5.3">Data Collector</applicationSoftware>
					<instrumentControlSoftware version="7.3f 20150929">XPERT-3</instrumentControlSoftware>
					<instrumentID>0000000011178681</instrumentID>
				</source>
			</header>
			<dataPoints>
				<positions axis="2Theta" unit="deg">
					<startPosition>3.00835563</startPosition>
					<endPosition>70.00383296</endPosition>
				</positions>
				<positions axis="Omega" unit="deg">
					<startPosition>1.50417782</startPosition>
					<endPosition>35.00191648</endPosition>
				</positions>
				<positions axis="Phi" unit="deg">
					<commonPosition>262.8</commonPosition>
				</positions>
				<commonCountingTime unit="seconds">120.015</commonCountingTime>
				<intensities unit="counts">458 431 451 440 422 408 418 462 416 430 463 413 450 415 401 449 405 406 393 353 372 351 429 420 404 395 391 427 403 413 382 368 355 365 367 382 384 393 363 398 357 368 340 371 376 365 358 370 363 353 379 331 328 399 379 408 370 344 353 357 334 375 344 357 355 359 325 339 352 320 319 311 303 312 328 367 316 309 319 344 329 339 321 313 320 324 340 328 319 304 354 277 292 345 315 324 315 311 315 305 329 273 327 314 325 303 255 283 316 319 302 259 294 310 304 279 293 311 306 314 297 289 280 278 255 278 284 268 283 315 286 308 265 262 275 289 278 268 271 273 256 274 282 292 242 251 264 275 299 275 251 266 243 304 302 275 247 271 251 283 292 280 277 280 276 275 250 268 250 263 261 238 262 291 248 267 256 279 249 257 262 262 262 257 252 303 228 244 274 256 245 261 270 238 272 247 245 235 250 272 209 244 224 236 243 260 263 236 245 223 277 266 234 266 255 262 241 255 261 224 254 234 228 259 219 255 220 221 210 257 212 243 232 221 236 228 242 233 217 257 227 243 241 240 231 225 197 246 264 229 209 219 213 216 250 207 232 235 223 229 231 223 236 202 210 204 196 255 233 228 214 224 193 186 215 212 226 213 203 202 198 230 248 231 188 203 223 207 203 187 215 193 201 213 193 221 186 189 215 191 189 193 200 196 186 229 199 173 203 203 216 211 195 188 189 176 170 178 183 210 188 221 182 210 209 191 198 188 170 183 192 183 213 185 204 173 162 185 182 183 186 177 135 204 182 195 186 181 176 179 165 183 197 152 192 148 181 176 176 207 180 171 167 175 193 178 191 163 176 205 159 173 183 169 156 173 181 169 191 187 165 154 193 165 155 165 143 183 134 165 153 175 171 165 163 153 159 157 177 161 151 176 170 164 183 173 154 173 159 151 177 155 169 182 164 125 151 156 132 152 179 156 159 157 144 155 173 152 139 152 160 154 146 169 148 150 159 144 162 153 143 151 160 129 166 166 136 160 119 154 161 138 153 153 148 136 140 130 153 124 150 167 127 152 161 159 131 153 132 139 131 156 150 141 146 135 116 134 148 149 131 138 132 137 123 120 127 139 146 141 138 128 115 137 135 128 124 115 132 123 118 128 135 123 129 116 125 136 134 127 137 122 130 159 127 129 145 116 121 117 125 122 134 141 123 137 104 150 118 137 110 122 136 132 103 105 128 120 102 143 123 127 112 122 136 125 117 119 117 104 103 119 130 122 118 122 102 125 123 114 106 123 104 101 108 116 128 112 117 128 134 128 107 114 104 115 119 122 87 110 88 120 102 122 109 112 102 105 137 115 107 103 110 112 118 114 102 116 114 101 110 122 102 122 107 114 93 88 100 87 101 120 107 90 107 115 97 100 117 94 119 115 102 114 115 116 105 109 117 110 107 115 97 102 115 90 116 96 102 89 99 100 104 104 90 114 102 93 84 106 98 97 96 113 114 104 96 94 74 109 108 83 115 122 96 98 105 92 80 106 117 72 77 94 76 85 84 89 86 92 99 100 92 94 91 108 99 85 85 92 97 85 89 96 90 98 92 71 101 97 98 78 83 84 92 91 76 57 92 93 86 105 96 101 83 92 99 85 91 83 119 90 82 91 102 104 70 87 97 103 98 99 98 89 73 88 77 84 87 101 91 81 85 97 89 85 93 86 89 86 92 77 88 86 86 80 80 94 92 92 82 97 90 74 107 86 78 87 88 81 96 80 89 61 78 91 71 91 98 100 96 84 67 66 94 68 99 77 75 81 76 54 86 91 72 90 69 82 73 78 68 85 90 108 65 84 86 71 87 84 71 73 90 76 71 81 74 70 75 73 68 81 78 87 83 81 86 90 77 93 66 76 71 80 84 66 94 65 69 72 73 76 75 77 64 70 74 81 66 71 98 66 73 55 77 60 67 67 75 82 84 85 71 91 87 67 89 78 97 106 101 77 86 85 80 88 77 93 83 83 89 98 72 87 89 77 71 78 83 80 87 87 83 87 74 96 62 72 83 70 82 53 84 77 71 82 69 69 76 66 64 69 76 58 71 94 66 82 81 75 81 74 58 82 68 73 82 70 69 65 70 70 89 71 80 74 70 91 86 81 86 67 84 62 88 64 94 74 81 89 93 76 77 70 84 83 75 88 87 80 75 83 65 76 69 84 78 62 80 64 73 74 74 74 80 70 58 62 68 66 64 69 78 78 71 68 59 66 89 77 56 72 67 65 73 80 78 57 69 60 69 68 74 68 65 74 70 61 59 50 67 72 61 73 67 69 60 81 58 72 64 61 76 78 82 67 80 74 66 91 74 61 68 77 64 87 71 81 77 61 83 73 85 70 67 80 73 76 103 72 89 69 77 92 90 84 91 108 93 91 86 105 100 89 121 109 128 135 119 150 115 137 120 114 159 153 135 162 168 172 159 221 213 214 207 204 171 176 221 192 192 170 154 164 162 136 149 137 146 154 145 138 106 141 102 104 98 103 97 106 82 97 80 91 102 71 71 81 92 83 74 93 72 69 70 84 65 76 73 72 69 71 64 58 59 69 62 58 59 66 67 49 71 50 56 60 70 66 65 51 46 62 46 66 58 67 78 54 57 52 58 49 60 59 55 58 50 56 56 66 53 45 55 38 45 42 51 49 60 44 55 52 55 50 42 42 58 54 50 46 57 38 53 56 45 56 56 57 50 55 36 37 61 42 49 52 46 56 44 53 54 39 46 50 46 54 62 53 54 56 50 45 59 61 56 53 57 46 62 60 53 53 39 57 42 53 45 44 50 36 40 50 51 54 45 41 48 52 58 61 46 45 52 41 56 45 42 45 41 41 32 45 40 57 38 37 50 50 40 58 50 51 32 46 39 52 36 53 45 48 40 50 46 39 29 54 41 37 43 41 34 35 45 41 44 56 49 37 43 39 28 38 49 46 52 43 38 52 48 40 45 46 33 46 42 39 45 52 45 40 38 42 50 43 40 50 51 46 40 39 33 46 46 56 48 28 35 40 40 45 46 42 39 40 51 46 38 35 45 44 44 38 44 42 42 57 46 49 28 56 40 45 41 40 43 50 44 36 42 46 40 37 49 53 45 41 50 56 36 55 65 37 61 40 43 49 54 51 54 40 53 56 54 64 43 51 44 41 52 58 46 48 55 49 42 56 49 52 56 39 46 46 40 49 38 51 38 45 43 48 48 33 33 28 41 45 35 43 41 38 43 44 45 50 44 51 23 33 51 39 50 34 36 45 48 33 27 46 43 33 28 30 43 50 45 30 34 39 23 45 35 37 39 33 33 36 46 38 25 39 30 29 41 27 41 42 34 48 42 38 37 38 37 30 32 33 45 37 34 43 41 41 36 35 34 49 28 39 44 36 38 41 40 35 32 41 25 26 34 39 42 33 35 34 26 29 40 38 25 36 37 35 42 22 34 35 29 34 34 38 49 39 53 36 34 32 39 41 37 30 33 38 32 30 32 36 30 25 35 34 39 29 40 35 42 26 35 28 35 43 42 28 38 39 46 35 42 35 44 40 35 42 36 39 43 41 39 35 38 45 41 36 48 52 54 45 38 50 57 40 48 39 36 44 42 50 34 36 41 41 42 40 46 25 46 36 42 43 35 53 53 38 43 37 52 45 41 41 34 40 51 39 48 35 29 41 43 41 37 33 46 41 44 34 38 45 44 35 34 36 39 26 43 35 35 42 28 37 38 32 33 57 39 32 23 22 37 37 33 34 36 51 39 29 45 39 41 41 32 40 28 39 32 42 32 46 38 33 37 58 41 35 35 50 43 39 35 38 52 42 41 34 38 37 44 32 34 36 61 42 40 48 42 40 43 32 39 41 33 50 41 41 42 60 49 43 49 36 45 54 58 38 55 46 49 42 35 54 55 40 60 45 36 44 43 41 36 52 43 46 36 54 49 42 39 41 37 42 57 58 39 50 57 56 49 74 54 57 60 60 57 46 52 50 73 64 66 60 71 57 68 76 72 64 85 67 62 76 88 90 88 92 89 80 73 98 92 106 89 98 103 92 112 99 102 113 118 73 118 124 106 127 117 107 119 91 115 110 104 107 106 115 102 112 99 90 102 88 88 90 86 89 78 56 82 73 75 85 85 67 66 80 65 77 71 65 65 64 49 64 49 53 53 65 48 61 60 49 57 64 56 58 48 54 54 60 48 56 34 58 64 54 44 46 46 53 64 48 65 46 57 61 58 64 61 64 54 52 62 81 61 66 73 81 98 78 80 68 71 94 61 90 72 86 97 84 88 102 75 101 94 83 85 72 86 75 77 73 56 56 66 55 61 56 60 65 54 59 52 53 60 59 49 50 59 61 65 69 62 56 56 72 65 69 53 56 51 75 65 80 78 66 70 72 88 68 60 51 67 57 66 68 73 68 61 67 70 71 46 70 73 64 81 82 57 85 93 66 73 81 68 89 67 85 87 82 88 90 84 82 92 107 96 91 99 89 86 99 100 96 109 107 106 102 121 128 115 130 124 150 146 165 171 170 154 160 195 188 209 200 212 183 168 186 170 194 161 166 136 135 143 129 148 135 114 109 116 112 107 103 100 90 92 91 87 68 50 77 60 49 75 51 56 62 65 53 50 39 60 45 54 55 57 46 50 53 45 43 42 43 50 41 26 48 38 35 28 42 36 36 44 22 35 30 33 38 41 43 25 32 35 41 40 33 44 35 30 32 22 32 39 39 33 33 23 23 32 27 34 30 34 27 28 33 26 23 30 28 24 25 30 18 25 29 27 16 36 38 30 30 34 30 32 30 25 22 26 28 32 28 36 21 32 36 38 21 27 28 34 27 27 29 34 23 38 35 38 25 46 32 23 29 27 35 26 29 21 21 37 34 35 32 32 33 21 27 40 23 38 30 29 37 33 40 22 35 36 30 34 37 36 27 29 36 34 40 35 36 34 34 29 54 33 50 52 52 56 53 37 43 59 57 59 66 59 80 41 69 66 78 56 74 65 65 65 78 80 64 48 50 73 57 50 52 61 55 58 42 40 35 44 37 40 57 45 53 41 37 43 34 39 36 41 32 45 42 33 43 58 43 46 40 48 39 55 50 55 46 39 40 49 58 48 46 48 41 53 50 43 57 62 52 57 64 54 51 68 72 61 62 56 55 53 58 61 48 57 55 39 50 49 48 53 69 41 56 43 33 45 50 30 37 44 27 38 35 35 33 33 38 34 33 33 28 34 27 29 30 40 23 23 32 24 19 26 29 34 32 21 26 26 29 28 19 30 25 22 29 18 36 18 21 20 19 17 18 17 16 10 19 20 19 26 29 18 29 17 18 25 20 23 23 34 25 16 18 28 26 20 21 16 20 19 27 23 25 12 17 19 20 22 21 18 17 18 23 16 28 10 16 21 17 20 17 27 24 19 17 14 17 26 17 18 21 14 21 14 19 27 17 13 23 24 19 22 17 13 23 21 22 22 25 33 19 17 19 18 21 16 20 24 25 21 28 19 17 21 17 25 18 21 20 21 20 17 17 11 14 23 16 17 22 25 11 22 25 22 20 20 13 14 18 10 17 24 26 20 14 24 33 21 25 18 17 24 26 26 26 22 19 28 14 25 23 18 32 28 21 22 24 21 21 23 22 28 19 27 25 35 21 24 20 18 25 27 20 18 25 26 25 29 25 24 21 32 33 24 27 24 25 26 21 23 25 28 25 23 21 24 24 24 36 37 22 17 22 22 27 26 21 18 24 21 28 17 21 11 27 12 21 23 16 19 23 24 18 23 23 11 25 28 18 17 19 22 26 13 22 13 18 23 20 12 10 23 17 30 21 21 19 23 22 14 24 20 22 19 20 22 17 25 21 18 22 16 12 21 22 20 24 22 22 27 20 8 12 18 18 21 29 21 21 21 19 17 21 13 20 17 26 17 23 23 11 25 24 26 18 27 26 40 24 32 22 30 26 26 27 40 32 28 25 21 33 33 27 38 17 32 35 35 26 38 30 28 34 44 33 33 32 29 36 34 25 37 29 35 38 36 37 27 29 43 36 22 30 32 29 25 32 41 28 30 33 13 29 40 16 29 16 20 26 20 17 23 22 28 25 24 26 22 24 17 18 24 23 22 29 21 24 23 25 24 22 33 18 28 17 27 20 36 17 20 28 19 35 19 24 25 20 23 21 24 24 24 27 32 18 23 29 18 24 24 18 22 16 22 13 25 30 25 17 22 22 24 21 21 16 20 27 16 30 23 32 25 24 16 24 20 29 18 22 23 26 22 26 23 32 22 23 18 23 20 23 23 26 25 19 26 30 24 30 24 32 29 26 28 21 24 23 26 16 29 29 21 27 39 30 21 23 20 33 24 20 26 18 36 33 39 23 23 20 19 25 26 36 23 36 30 32 25 33 40 21 25 29 34 29 35 44 50 35 46 44 39 44 33 41 35 42 30 35 33 40 35 29 30 26 51 33 26 36 35 48 23 27 29 26 30 26 32 36 29 35 24 28 33 22 23 26 27 37 22 22 29 26 22 21 37 28 27 24 29 26 26 25 22 35 29 26 22 25 29 28 21 30 27 28 29 30 24 32 25 34 28 28 32 28 29 18 37 29 37 20 19 30 22 16 23 17 33 26 14 23 30 19 21 30 35 36 37 33 24 27 26 28 24 36 24 35 39 32 33 32 22 41 38 41 27 38 39 34 44 44 37 38 34 35 46 38 42 49 51 35 55 58 54 49 57 67 57 54 58 68 60 62 69 86 80 91 70 104 97 81 139 107 97 88 107 110 96 106 84 83 124 134 93 100 91 68 121 107 85 87 85 82 77 84 64 86 70 76 60 61 54 66 60 57 71 57 55 52 59 51 53 44 54 44 53 49 49 54 53 51 66 58 56 60 48 42 69 55 48 69 66 45 40 54 59 57 48 41 44 56 48 64 57 32 34 29 49 38 38 35 49 54 36 45 37 37 40 43 26 35 48 29 37 39 40 58 49 36 32 35 38 23 42 24 23 35 38 20 39 24 41 42 32 42 36 29 28 20 28 25 25 29 33 30 27 23 24 21 22 23 23 37 25 20 24 37 29 30 32 25 28 29 32 16 22 36 21 29 23 33 28 14 21 16 23 29 24 32 21 17 23 19 26 25 24 26 26 22 28 18 28 20 20 24 29 23 18 17 22 26 23 26 23 19 20 25 28 17 21 20 25 17 25 24 19 23 16 27 28 19 29 24 36 25 28 18 24 18 12 21 24 17 30 22 32 25 24 25 29 27 22 28 23 22 25 23 24 28 30 21 22 34 26 16 26 20 38 28 27 27 22 37 26 30 30 27 33 38 38 32 26 30 34 36 51 23 25 39 32 35 28 32 34 26 34 27 27 25 25 30 32 35 32 41 24 26 29 27 26 22 36 25 26 37 32 26 28 33 25 22 33 19 26 34 28 27 25 25 26 12 29 35 30 28 25 27 25 18 26 26 29 35 39 25 22 28 39 37 26 26 30 36 33 33 44 29 49 46 34 30 46 45 42 44 46 42 35 35 58 51 48 65 70 55 59 62 62 43 55 57 61 59 69 42 60 42 58 61 57 53 66 52 49 43 62 46 50 51 30 42 51 43 43 44 46 42 51 39 35 39 32 40 38 42 44 36 37 30 37 36 43 23 23 28 27 35 26 27 30 28 30 18 17 16 19 32 28 28 29 28 22 24 21 26 21 28 26 22 35 21 22 26 29 26 25 23 30 21 27 30 32 23 18 25 21 26 20 13 29 30 25 34 25 25 21 29 17 23 26 20 17 30 35 21 26 28 25 24 40 30 20 33 26 25 28 30 37 30 24 38 42 36 42 51 49 43 41 39 38 53 38 43 38 40 48 48 46 54 48 53 50 46 52 58 65 59 58 39 59 67 46 56 48 52 54 35 50 52 41 41 46 55 38 37 39 43 34 37 37 38 40 28 28 24 33 23 27 30 40 18 26 35 28 35 25 35 23 29 26 30 23 28 27 24 32 29 28 26 19 24 20 34 29 26 30 35 22 27 28 28 24 22 25 29 24 26 32 23 25 32 28 30 30 30 24 26 32 25 39 28 32 42 34 37 35 30 29 33 30 33 33 35 39 29 36 44 35 39 32 33 32 36 50 27 30 27 29 40 36 32 38 37 43 32 43 43 51 45 45 39 41 37 37 37 36 33 42 40 41 39 44 34 36 49 33 45 49 29 42 33 53 37 37 33 33 39 57 48 38 43 65 53 51 38 40 44 29 40 41 27 34 46 41 28 49 24 48 41 26 40 33 37 35 34 22 38 32 29 34 28 30 26 30 27 29 32 21 29 25 24 20 34 23 24 29 26 25 14 26 22 26 18 23 24 35 34 23 19 21 27 26 23 30 23 37 25 25 24 21 23 21 22 21 17 25 17 29 19 26 21 20 17 27 22 27 25 25 24 23 30 25 28 21 22 22 21 26 29 24 32 38 23 33 29 24 25 20 22 32 32 34 29 22 29 26 19 26 24 23 14 24 27 24 17 23 25 20 27 19 27 21 18 24 18 22 17 29 27 27 12 32 19 22 16 14 19 18 21 19 20 16 13 16 23 23 19 16 25 23 21 16 34 20 22 14 30 18 39 29 23 28 18 21 25 25 33 30 20 22 20 23 22 29 36 30 25 26 23 37 25 36 25 20 22 19 18 27 28 22 20 24 20 23 25 20 23 23 36 16 27 20 20 24 24 11 18 25 13 14 20 21 16 23 21 12 17 20 20 24 21 24 13 22 24 26 17 27 23 22 19 21 17 28 13 30 25 22 16 25 22 25 33 21 23 27 12 27 23 24 25 24 28 19 32 36 24 25 28 37 28 18 28 22 22 26 19 23 26 25 30 25 28 32 22 21 19 20 26 27 33 24 29 34 28 23 25 39 24 28 38 29 30 22 32 25 32 28 26 33 28 36 30 22 23 25 32 27 33 24 19 20 20 23 33 30 23 29 21 27 21 23 24 17 24 7 22 16 19 19 13 28 25 30 24 22 30 24 18 24 19 26 20 20 17 16 25 25 20 23 11 14 25 26 21 19 22</intensities>
			</dataPoints>
		</scan>
	</xrdMeasurement>
</xrdMeasurements>
