alpha                                 
1.0
        3.2986199856         0.0000000000         0.0000000000
        0.0000000000        69.4546508789         0.0000000000
        0.0000000000         0.0000000000        20.0000000000
    P
   60
Direct
     0.500000000         0.056836601         0.447577000
     0.500000000         0.123503268         0.447577000
     0.500000000         0.190169930         0.447577000
     0.500000000         0.256836593         0.447577000
     0.500000000         0.323503256         0.447577000
     0.500000000         0.390169948         0.447577000
     0.500000000         0.456836611         0.447577000
     0.500000000         0.523503244         0.447577000
     0.500000000         0.590169907         0.447577000
     0.500000000         0.656836629         0.447577000
     0.500000000         0.723503292         0.447577000
     0.500000000         0.790169954         0.447577000
     0.500000000         0.856836617         0.447577000
     0.500000000         0.923503280         0.447577000
     0.500000000         0.990169942         0.447577000
     0.000000000         0.023503266         0.552423000
     0.000000000         0.090169936         0.552423000
     0.000000000         0.156836599         0.552423000
     0.000000000         0.223503262         0.552423000
     0.000000000         0.290169924         0.552423000
     0.000000000         0.356836587         0.552423000
     0.000000000         0.423503280         0.552423000
     0.000000000         0.490169942         0.552423000
     0.000000000         0.556836605         0.552423000
     0.000000000         0.623503268         0.552423000
     0.000000000         0.690169930         0.552423000
     0.000000000         0.756836593         0.552423000
     0.000000000         0.823503256         0.552423000
     0.000000000         0.890169919         0.552423000
     0.000000000         0.956836581         0.552423000
     0.000000000         0.035430066         0.447385997
     0.000000000         0.102096736         0.447385997
     0.000000000         0.168763399         0.447385997
     0.000000000         0.235430062         0.447385997
     0.000000000         0.302096725         0.447385997
     0.000000000         0.368763387         0.447385997
     0.000000000         0.435430080         0.447385997
     0.000000000         0.502096713         0.447385997
     0.000000000         0.568763375         0.447385997
     0.000000000         0.635430038         0.447385997
     0.000000000         0.702096760         0.447385997
     0.000000000         0.768763423         0.447385997
     0.000000000         0.835430086         0.447385997
     0.000000000         0.902096748         0.447385997
     0.000000000         0.968763411         0.447385997
     0.500000000         0.002096734         0.552613974
     0.500000000         0.068763398         0.552613974
     0.500000000         0.135430068         0.552613974
     0.500000000         0.202096730         0.552613974
     0.500000000         0.268763393         0.552613974
     0.500000000         0.335430056         0.552613974
     0.500000000         0.402096748         0.552613974
     0.500000000         0.468763411         0.552613974
     0.500000000         0.535430074         0.552613974
     0.500000000         0.602096736         0.552613974
     0.500000000         0.668763399         0.552613974
     0.500000000         0.735430062         0.552613974
     0.500000000         0.802096725         0.552613974
     0.500000000         0.868763387         0.552613974
     0.500000000         0.935430050         0.552613974
