nanto
               1.00000000000
    3.2986199856000000    0.0000000000000000    0.0000000000000000
    0.0000000000000000   54.1136644933260866    0.0000000000000000
    0.0000000000000000    0.0000000000000000   54.1847304807189613
 P
 60
Cartesian
    1.6493099928000000   30.5890393503630340   36.4537819987029516
    1.6493099928000000   34.0995343811198622   34.2206949541331567
    1.6493099928000000   36.3982538918997141   30.7528225282943569
    1.6493099928000000   37.0877293747980910   26.6497901592644416
    1.6493099928000000   36.0487444127729808   22.6210482574406390
    1.6493099928000000   33.4609472334822084   19.3632005537019756
    1.6493099928000000   29.7717929369178281   17.4395603485269636
    1.6493099928000000   25.6191697854207665   17.1827400344656199
    1.6493099928000000   21.7210991450398038   18.6371458737777224
    1.6493099928000000   18.7515914651857172   21.5513019080288356
    1.6493099928000000   17.2241059075949214   25.4213198581392385
    1.6493099928000000   17.4027550079785209   29.5780415291277080
    1.6493099928000000   19.2566487716567955   33.3027333252123171
    1.6493099928000000   22.4652326797276252   35.9513632290860370
    1.6493099928000000   26.4737143050767329   37.0659598423823539
    0.0000000000000000   28.8721120839036853   39.0502354478101616
    0.0000000000000000   33.5871151966085336   37.2910101467316897
    0.0000000000000000   37.1789443031961669   33.7661149083809387
    0.0000000000000000   39.0265411018698332   29.0850350285018597
    0.0000000000000000   38.8104398829045266   24.0571704433327456
    0.0000000000000000   36.5680064404172385   19.5518829909838365
    0.0000000000000000   32.6869751944511008   16.3481754981917148
    0.0000000000000000   27.8384140831819440   15.0000000000000000
    0.0000000000000000   22.8606803842157105   15.7404660657004156
    0.0000000000000000   18.6144680807880167   18.4415406382543080
    0.0000000000000000   15.8339846365324491   22.6361841081879297
    0.0000000000000000   15.0000000000000000   27.5991058684321664
    0.0000000000000000   16.2567175006797126   32.4721730643328395
    0.0000000000000000   19.3868396349002813   36.4127895385840937
    0.0000000000000000   23.8491406954879000   38.7395880404562889
    0.0000000000000000   29.2995450118582852   36.8344153374604889
    0.0000000000000000   33.0763400700206401   35.0929049537554755
    0.0000000000000000   35.8182787291338403   31.9657963629863973
    0.0000000000000000   37.0512561196997654   27.9937940337883760
    0.0000000000000000   36.5620796117850964   23.8636920867529673
    0.0000000000000000   34.4353321666207140   20.2896215023930926
    0.0000000000000000   31.0387453185973979   17.8895696546854928
    0.0000000000000000   26.9596237105637334   17.0785287699994956
    0.0000000000000000   22.9032784879512471   17.9967328173052256
    0.0000000000000000   19.5710890114239521   20.4854170160982376
    0.0000000000000000   17.5392190983767800   24.1142695306069537
    0.0000000000000000   17.1590004626114972   28.2558235309573115
    0.0000000000000000   18.4961738042993782   32.1939707099084144
    0.0000000000000000   21.3195300462484057   35.2477707637015943
    0.0000000000000000   25.1408861575589384   36.8891949073496971
    1.6493099928000000   27.2508444678466329   39.1847304807189613
    1.6493099928000000   32.1607169260230101   38.0733061596311504
    1.6493099928000000   36.1940529800213715   35.0609455657997431
    1.6493099928000000   38.6534525879766761   30.6685130225243382
    1.6493099928000000   39.1136644933260866   25.6554983776100970
    1.6493099928000000   37.4951139617625143   20.8886959897692431
    1.6493099928000000   34.0776608073182513   17.1923266238302316
    1.6493099928000000   29.4522156528107744   15.2055282066290065
    1.6493099928000000   24.4185574997139734   15.2718337547535238
    1.6493099928000000   19.8470501545327795   17.3797784105236748
    1.6493099928000000   16.5281472902368893   21.1648800743259200
    1.6493099928000000   15.0357164627280887   25.9726613768657295
    1.6493099928000000   15.6278120820423327   30.9718146657276415
    1.6493099928000000   18.2020555588491654   35.2979423338568447
    1.6493099928000000   22.3133376419286061   38.2030190043252792
