Create by qvasp
1.00000000
 10.20991544     0.00000000      0.00000000
-1.39650287      5.15423438      0.00000000
 0.00000000      0.00000000      22.03556966
O Ti
 7   4
Direct
 0.53891678      0.01945839      0.09201590
 0.19273072      0.09636536      0.07265415
 0.27056427      0.63528214      0.06285664
 0.92437822      0.21218911      0.04349489
 0.00221177      0.75110588      0.03369738
 0.65602571      0.82801286      0.01433563
 0.73385926      0.36692963      0.00453812
 0.00000000      0.00000000      0.09691466
 0.73164750      0.11582375      0.06775540
 0.46329499      0.73164750      0.03859613
 0.19494249      0.84747124      0.00943687
