C
1.0
       10.7004003525         0.0000000000         0.0000000000
        0.0000000000         7.1336002350         0.0000000000
        0.0000000000         0.0000000000         3.5668001175
    C
   48
Direct
     0.000000000         0.000000000         0.000000000
     0.000000000         0.250000000         0.500000000
     0.166669995         0.000000000         0.500000000
     0.166669995         0.250000000         0.000000000
     0.250000000         0.125000000         0.750000000
     0.083329998         0.125000000         0.250000000
     0.083329998         0.375000000         0.750000000
     0.250000000         0.375000000         0.250000000
     0.333330005         0.000000000         0.000000000
     0.333330005         0.250000000         0.500000000
     0.500000000         0.000000000         0.500000000
     0.500000000         0.250000000         0.000000000
     0.583329976         0.125000000         0.750000000
     0.416669995         0.125000000         0.250000000
     0.416669995         0.375000000         0.750000000
     0.583329976         0.375000000         0.250000000
     0.666670024         0.000000000         0.000000000
     0.666670024         0.250000000         0.500000000
     0.833329976         0.000000000         0.500000000
     0.833329976         0.250000000         0.000000000
     0.916670024         0.125000000         0.750000000
     0.750000000         0.125000000         0.250000000
     0.750000000         0.375000000         0.750000000
     0.916670024         0.375000000         0.250000000
     0.000000000         0.500000000         0.000000000
     0.000000000         0.750000000         0.500000000
     0.166669995         0.500000000         0.500000000
     0.166669995         0.750000000         0.000000000
     0.250000000         0.625000000         0.750000000
     0.083329998         0.625000000         0.250000000
     0.083329998         0.875000000         0.750000000
     0.250000000         0.875000000         0.250000000
     0.333330005         0.500000000         0.000000000
     0.333330005         0.750000000         0.500000000
     0.500000000         0.500000000         0.500000000
     0.500000000         0.750000000         0.000000000
     0.583329976         0.625000000         0.750000000
     0.416669995         0.625000000         0.250000000
     0.416669995         0.875000000         0.750000000
     0.583329976         0.875000000         0.250000000
     0.666670024         0.500000000         0.000000000
     0.666670024         0.750000000         0.500000000
     0.833329976         0.500000000         0.500000000
     0.833329976         0.750000000         0.000000000
     0.916670024         0.625000000         0.750000000
     0.750000000         0.625000000         0.250000000
     0.750000000         0.875000000         0.750000000
     0.916670024         0.875000000         0.250000000
