  Supercell 224 from POSCAR
 1.000000
     10.223999977200      0.000000000000      0.000000000000
     -0.000017698400     10.223999977000      0.000000000000
     -0.000106786000     -0.000106786000     61.688400268400
   Cu   C    O    H 
  256   16   16   16
 Direct
    0.000015000000    0.000665000000    0.044947501250
    0.500015000000    0.000665000000    0.044947501250
    0.000015000000    0.500665000000    0.044947501250
    0.500015000000    0.500665000000    0.044947501250
    0.000015000000    0.000665000000    0.294947501250
    0.500015000000    0.000665000000    0.294947501250
    0.000015000000    0.500665000000    0.294947501250
    0.500015000000    0.500665000000    0.294947501250
    0.000015000000    0.000665000000    0.544947501250
    0.500015000000    0.000665000000    0.544947501250
    0.000015000000    0.500665000000    0.544947501250
    0.500015000000    0.500665000000    0.544947501250
    0.000015000000    0.000665000000    0.794947501250
    0.500015000000    0.000665000000    0.794947501250
    0.000015000000    0.500665000000    0.794947501250
    0.500015000000    0.500665000000    0.794947501250
    0.000291069500    0.002285663000    0.103618532500
    0.500291069500    0.002285663000    0.103618532500
    0.000291069500    0.502285663000    0.103618532500
    0.500291069500    0.502285663000    0.103618532500
    0.000291069500    0.002285663000    0.353618532500
    0.500291069500    0.002285663000    0.353618532500
    0.000291069500    0.502285663000    0.353618532500
    0.500291069500    0.502285663000    0.353618532500
    0.000291069500    0.002285663000    0.603618532500
    0.500291069500    0.002285663000    0.603618532500
    0.000291069500    0.502285663000    0.603618532500
    0.500291069500    0.502285663000    0.603618532500
    0.000291069500    0.002285663000    0.853618532500
    0.500291069500    0.002285663000    0.853618532500
    0.000291069500    0.502285663000    0.853618532500
    0.500291069500    0.502285663000    0.853618532500
    0.125000000000    0.125000000000    0.016209999000
    0.625000000000    0.125000000000    0.016209999000
    0.125000000000    0.625000000000    0.016209999000
    0.625000000000    0.625000000000    0.016209999000
    0.125000000000    0.125000000000    0.266209999000
    0.625000000000    0.125000000000    0.266209999000
    0.125000000000    0.625000000000    0.266209999000
    0.625000000000    0.625000000000    0.266209999000
    0.125000000000    0.125000000000    0.516209999000
    0.625000000000    0.125000000000    0.516209999000
    0.125000000000    0.625000000000    0.516209999000
    0.625000000000    0.625000000000    0.516209999000
    0.125000000000    0.125000000000    0.766209999000
    0.625000000000    0.125000000000    0.766209999000
    0.125000000000    0.625000000000    0.766209999000
    0.625000000000    0.625000000000    0.766209999000
    0.126354545500    0.125100642500    0.074013263000
    0.626354545500    0.125100642500    0.074013263000
    0.126354545500    0.625100642500    0.074013263000
    0.626354545500    0.625100642500    0.074013263000
    0.126354545500    0.125100642500    0.324013263000
    0.626354545500    0.125100642500    0.324013263000
    0.126354545500    0.625100642500    0.324013263000
    0.626354545500    0.625100642500    0.324013263000
    0.126354545500    0.125100642500    0.574013263000
    0.626354545500    0.125100642500    0.574013263000
    0.126354545500    0.625100642500    0.574013263000
    0.626354545500    0.625100642500    0.574013263000
    0.126354545500    0.125100642500    0.824013263000
    0.626354545500    0.125100642500    0.824013263000
    0.126354545500    0.625100642500    0.824013263000
    0.626354545500    0.625100642500    0.824013263000
    0.250005007000    0.000210000000    0.044827498500
    0.750005007000    0.000210000000    0.044827498500
    0.250005007000    0.500210000000    0.044827498500
    0.750005007000    0.500210000000    0.044827498500
    0.250005007000    0.000210000000    0.294827498500
    0.750005007000    0.000210000000    0.294827498500
    0.250005007000    0.500210000000    0.294827498500
    0.750005007000    0.500210000000    0.294827498500
    0.250005007000    0.000210000000    0.544827498500
    0.750005007000    0.000210000000    0.544827498500
    0.250005007000    0.500210000000    0.544827498500
    0.750005007000    0.500210000000    0.544827498500
    0.250005007000    0.000210000000    0.794827498500
    0.750005007000    0.000210000000    0.794827498500
    0.250005007000    0.500210000000    0.794827498500
    0.750005007000    0.500210000000    0.794827498500
    0.248806104000    0.499935955000    0.106092773500
    0.748806104000    0.499935955000    0.106092773500
    0.248806104000    0.999935955000    0.106092773500
    0.748806104000    0.999935955000    0.106092773500
    0.248806104000    0.499935955000    0.356092773500
    0.748806104000    0.499935955000    0.356092773500
    0.248806104000    0.999935955000    0.356092773500
    0.748806104000    0.999935955000    0.356092773500
    0.248806104000    0.499935955000    0.606092773500
    0.748806104000    0.499935955000    0.606092773500
    0.248806104000    0.999935955000    0.606092773500
    0.748806104000    0.999935955000    0.606092773500
    0.248806104000    0.499935955000    0.856092773500
    0.748806104000    0.499935955000    0.856092773500
    0.248806104000    0.999935955000    0.856092773500
    0.748806104000    0.999935955000    0.856092773500
    0.375000000000    0.125000000000    0.016209999000
    0.875000000000    0.125000000000    0.016209999000
    0.375000000000    0.625000000000    0.016209999000
    0.875000000000    0.625000000000    0.016209999000
    0.375000000000    0.125000000000    0.266209999000
    0.875000000000    0.125000000000    0.266209999000
    0.375000000000    0.625000000000    0.266209999000
    0.875000000000    0.625000000000    0.266209999000
    0.375000000000    0.125000000000    0.516209999000
    0.875000000000    0.125000000000    0.516209999000
    0.375000000000    0.625000000000    0.516209999000
    0.875000000000    0.625000000000    0.516209999000
    0.375000000000    0.125000000000    0.766209999000
    0.875000000000    0.125000000000    0.766209999000
    0.375000000000    0.625000000000    0.766209999000
    0.875000000000    0.625000000000    0.766209999000
    0.370022505500    0.125256717000    0.075220503000
    0.870022505500    0.125256717000    0.075220503000
    0.370022505500    0.625256717000    0.075220503000
    0.870022505500    0.625256717000    0.075220503000
    0.370022505500    0.125256717000    0.325220503000
    0.870022505500    0.125256717000    0.325220503000
    0.370022505500    0.625256717000    0.325220503000
    0.870022505500    0.625256717000    0.325220503000
    0.370022505500    0.125256717000    0.575220503000
    0.870022505500    0.125256717000    0.575220503000
    0.370022505500    0.625256717000    0.575220503000
    0.870022505500    0.625256717000    0.575220503000
    0.370022505500    0.125256717000    0.825220503000
    0.870022505500    0.125256717000    0.825220503000
    0.370022505500    0.625256717000    0.825220503000
    0.870022505500    0.625256717000    0.825220503000
    0.000010000000    0.249990001500    0.045227501500
    0.500010000000    0.249990001500    0.045227501500
    0.000010000000    0.749990001500    0.045227501500
    0.500010000000    0.749990001500    0.045227501500
    0.000010000000    0.249990001500    0.295227501500
    0.500010000000    0.249990001500    0.295227501500
    0.000010000000    0.749990001500    0.295227501500
    0.500010000000    0.749990001500    0.295227501500
    0.000010000000    0.249990001500    0.545227501500
    0.500010000000    0.249990001500    0.545227501500
    0.000010000000    0.749990001500    0.545227501500
    0.500010000000    0.749990001500    0.545227501500
    0.000010000000    0.249990001500    0.795227501500
    0.500010000000    0.249990001500    0.795227501500
    0.000010000000    0.749990001500    0.795227501500
    0.500010000000    0.749990001500    0.795227501500
    0.000233348500    0.247692302000    0.103729389500
    0.500233348500    0.247692302000    0.103729389500
    0.000233348500    0.747692302000    0.103729389500
    0.500233348500    0.747692302000    0.103729389500
    0.000233348500    0.247692302000    0.353729389500
    0.500233348500    0.247692302000    0.353729389500
    0.000233348500    0.747692302000    0.353729389500
    0.500233348500    0.747692302000    0.353729389500
    0.000233348500    0.247692302000    0.603729389500
    0.500233348500    0.247692302000    0.603729389500
    0.000233348500    0.747692302000    0.603729389500
    0.500233348500    0.747692302000    0.603729389500
    0.000233348500    0.247692302000    0.853729389500
    0.500233348500    0.247692302000    0.853729389500
    0.000233348500    0.747692302000    0.853729389500
    0.500233348500    0.747692302000    0.853729389500
    0.125000000000    0.375000000000    0.016209999000
    0.625000000000    0.375000000000    0.016209999000
    0.125000000000    0.875000000000    0.016209999000
    0.625000000000    0.875000000000    0.016209999000
    0.125000000000    0.375000000000    0.266209999000
    0.625000000000    0.375000000000    0.266209999000
    0.125000000000    0.875000000000    0.266209999000
    0.625000000000    0.875000000000    0.266209999000
    0.125000000000    0.375000000000    0.516209999000
    0.625000000000    0.375000000000    0.516209999000
    0.125000000000    0.875000000000    0.516209999000
    0.625000000000    0.875000000000    0.516209999000
    0.125000000000    0.375000000000    0.766209999000
    0.625000000000    0.375000000000    0.766209999000
    0.125000000000    0.875000000000    0.766209999000
    0.625000000000    0.875000000000    0.766209999000
    0.125629052500    0.374863684000    0.074463412250
    0.625629052500    0.374863684000    0.074463412250
    0.125629052500    0.874863684000    0.074463412250
    0.625629052500    0.874863684000    0.074463412250
    0.125629052500    0.374863684000    0.324463412250
    0.625629052500    0.374863684000    0.324463412250
    0.125629052500    0.874863684000    0.324463412250
    0.625629052500    0.874863684000    0.324463412250
    0.125629052500    0.374863684000    0.574463412250
    0.625629052500    0.374863684000    0.574463412250
    0.125629052500    0.874863684000    0.574463412250
    0.625629052500    0.874863684000    0.574463412250
    0.125629052500    0.374863684000    0.824463412250
    0.625629052500    0.374863684000    0.824463412250
    0.125629052500    0.874863684000    0.824463412250
    0.625629052500    0.874863684000    0.824463412250
    0.250010013500    0.250400007000    0.044955000250
    0.750010013500    0.250400007000    0.044955000250
    0.250010013500    0.750400007000    0.044955000250
    0.750010013500    0.750400007000    0.044955000250
    0.250010013500    0.250400007000    0.294955000250
    0.750010013500    0.250400007000    0.294955000250
    0.250010013500    0.750400007000    0.294955000250
    0.750010013500    0.750400007000    0.294955000250
    0.250010013500    0.250400007000    0.544955000250
    0.750010013500    0.250400007000    0.544955000250
    0.250010013500    0.750400007000    0.544955000250
    0.750010013500    0.750400007000    0.544955000250
    0.250010013500    0.250400007000    0.794955000250
    0.750010013500    0.250400007000    0.794955000250
    0.250010013500    0.750400007000    0.794955000250
    0.750010013500    0.750400007000    0.794955000250
    0.249084383000    0.250924796000    0.106692947500
    0.749084383000    0.250924796000    0.106692947500
    0.249084383000    0.750924796000    0.106692947500
    0.749084383000    0.750924796000    0.106692947500
    0.249084383000    0.250924796000    0.356692947500
    0.749084383000    0.250924796000    0.356692947500
    0.249084383000    0.750924796000    0.356692947500
    0.749084383000    0.750924796000    0.356692947500
    0.249084383000    0.250924796000    0.606692947500
    0.749084383000    0.250924796000    0.606692947500
    0.249084383000    0.750924796000    0.606692947500
    0.749084383000    0.750924796000    0.606692947500
    0.249084383000    0.250924796000    0.856692947500
    0.749084383000    0.250924796000    0.856692947500
    0.249084383000    0.750924796000    0.856692947500
    0.749084383000    0.750924796000    0.856692947500
    0.375000000000    0.375000000000    0.016209999000
    0.875000000000    0.375000000000    0.016209999000
    0.375000000000    0.875000000000    0.016209999000
    0.875000000000    0.875000000000    0.016209999000
    0.375000000000    0.375000000000    0.266209999000
    0.875000000000    0.375000000000    0.266209999000
    0.375000000000    0.875000000000    0.266209999000
    0.875000000000    0.875000000000    0.266209999000
    0.375000000000    0.375000000000    0.516209999000
    0.875000000000    0.375000000000    0.516209999000
    0.375000000000    0.875000000000    0.516209999000
    0.875000000000    0.875000000000    0.516209999000
    0.375000000000    0.375000000000    0.766209999000
    0.875000000000    0.375000000000    0.766209999000
    0.375000000000    0.875000000000    0.766209999000
    0.875000000000    0.875000000000    0.766209999000
    0.375144958500    0.375091731500    0.075160451250
    0.875144958500    0.375091731500    0.075160451250
    0.375144958500    0.875091731500    0.075160451250
    0.875144958500    0.875091731500    0.075160451250
    0.375144958500    0.375091731500    0.325160451250
    0.875144958500    0.375091731500    0.325160451250
    0.375144958500    0.875091731500    0.325160451250
    0.875144958500    0.875091731500    0.325160451250
    0.375144958500    0.375091731500    0.575160451250
    0.875144958500    0.375091731500    0.575160451250
    0.375144958500    0.875091731500    0.575160451250
    0.875144958500    0.875091731500    0.575160451250
    0.375144958500    0.375091731500    0.825160451250
    0.875144958500    0.375091731500    0.825160451250
    0.375144958500    0.875091731500    0.825160451250
    0.875144958500    0.875091731500    0.825160451250
    0.256697625000    0.375275314000    0.131359130250
    0.756697625000    0.375275314000    0.131359130250
    0.256697625000    0.875275314000    0.131359130250
    0.756697625000    0.875275314000    0.131359130250
    0.256697625000    0.375275314000    0.381359130250
    0.756697625000    0.375275314000    0.381359130250
    0.256697625000    0.875275314000    0.381359130250
    0.756697625000    0.875275314000    0.381359130250
    0.256697625000    0.375275314000    0.631359130250
    0.756697625000    0.375275314000    0.631359130250
    0.256697625000    0.875275314000    0.631359130250
    0.756697625000    0.875275314000    0.631359130250
    0.256697625000    0.375275314000    0.881359130250
    0.756697625000    0.375275314000    0.881359130250
    0.256697625000    0.875275314000    0.881359130250
    0.756697625000    0.875275314000    0.881359130250
    0.258644730000    0.382223427500    0.150264650500
    0.758644730000    0.382223427500    0.150264650500
    0.258644730000    0.882223427500    0.150264650500
    0.758644730000    0.882223427500    0.150264650500
    0.258644730000    0.382223427500    0.400264650500
    0.758644730000    0.382223427500    0.400264650500
    0.258644730000    0.882223427500    0.400264650500
    0.758644730000    0.882223427500    0.400264650500
    0.258644730000    0.382223427500    0.650264650500
    0.758644730000    0.382223427500    0.650264650500
    0.258644730000    0.882223427500    0.650264650500
    0.758644730000    0.882223427500    0.650264650500
    0.258644730000    0.382223427500    0.900264650500
    0.758644730000    0.382223427500    0.900264650500
    0.258644730000    0.882223427500    0.900264650500
    0.758644730000    0.882223427500    0.900264650500
    0.123829484000    0.124688580500    0.113771237500
    0.623829484000    0.124688580500    0.113771237500
    0.123829484000    0.624688580500    0.113771237500
    0.623829484000    0.624688580500    0.113771237500
    0.123829484000    0.124688580500    0.363771237500
    0.623829484000    0.124688580500    0.363771237500
    0.123829484000    0.624688580500    0.363771237500
    0.623829484000    0.624688580500    0.363771237500
    0.123829484000    0.124688580500    0.613771237500
    0.623829484000    0.124688580500    0.613771237500
    0.123829484000    0.624688580500    0.613771237500
    0.623829484000    0.624688580500    0.613771237500
    0.123829484000    0.124688580500    0.863771237500
    0.623829484000    0.124688580500    0.863771237500
    0.123829484000    0.624688580500    0.863771237500
    0.623829484000    0.624688580500    0.863771237500
