  Supercell 231 from POSCAR
 1.000000
     10.223999977200      0.000000000000      0.000000000000
     -0.000026547600     15.335999965500      0.000000000000
     -0.000026696500     -0.000026696500     15.422100067100
   Cu   C    O    H 
   96    6    6    6
 Direct
    0.000015000000    0.000443333333    0.179790005000
    0.500015000000    0.000443333333    0.179790005000
    0.000015000000    0.333776676601    0.179790005000
    0.500015000000    0.333776676601    0.179790005000
    0.000015000000    0.667110019868    0.179790005000
    0.500015000000    0.667110019868    0.179790005000
    0.000291069500    0.001523775333    0.414474130000
    0.500291069500    0.001523775333    0.414474130000
    0.000291069500    0.334857118601    0.414474130000
    0.500291069500    0.334857118601    0.414474130000
    0.000291069500    0.668190461868    0.414474130000
    0.500291069500    0.668190461868    0.414474130000
    0.125000000000    0.083333333333    0.064839996000
    0.625000000000    0.083333333333    0.064839996000
    0.125000000000    0.416666676601    0.064839996000
    0.625000000000    0.416666676601    0.064839996000
    0.125000000000    0.750000019868    0.064839996000
    0.625000000000    0.750000019868    0.064839996000
    0.126354545500    0.083400428333    0.296053052000
    0.626354545500    0.083400428333    0.296053052000
    0.126354545500    0.416733771601    0.296053052000
    0.626354545500    0.416733771601    0.296053052000
    0.126354545500    0.750067114868    0.296053052000
    0.626354545500    0.750067114868    0.296053052000
    0.250005007000    0.000140000000    0.179309994000
    0.750005007000    0.000140000000    0.179309994000
    0.250005007000    0.333473343267    0.179309994000
    0.750005007000    0.333473343267    0.179309994000
    0.250005007000    0.666806686535    0.179309994000
    0.750005007000    0.666806686535    0.179309994000
    0.248806104000    0.333290636667    0.424371094000
    0.748806104000    0.333290636667    0.424371094000
    0.248806104000    0.666623979934    0.424371094000
    0.748806104000    0.666623979934    0.424371094000
    0.248806104000    0.999957323202    0.424371094000
    0.748806104000    0.999957323202    0.424371094000
    0.375000000000    0.083333333333    0.064839996000
    0.875000000000    0.083333333333    0.064839996000
    0.375000000000    0.416666676601    0.064839996000
    0.875000000000    0.416666676601    0.064839996000
    0.375000000000    0.750000019868    0.064839996000
    0.875000000000    0.750000019868    0.064839996000
    0.370022505500    0.083504478000    0.300882012000
    0.870022505500    0.083504478000    0.300882012000
    0.370022505500    0.416837821267    0.300882012000
    0.870022505500    0.416837821267    0.300882012000
    0.370022505500    0.750171164535    0.300882012000
    0.870022505500    0.750171164535    0.300882012000
    0.000010000000    0.166660001000    0.180910006000
    0.500010000000    0.166660001000    0.180910006000
    0.000010000000    0.499993344267    0.180910006000
    0.500010000000    0.499993344267    0.180910006000
    0.000010000000    0.833326687535    0.180910006000
    0.500010000000    0.833326687535    0.180910006000
    0.000233348500    0.165128201333    0.414917558000
    0.500233348500    0.165128201333    0.414917558000
    0.000233348500    0.498461544601    0.414917558000
    0.500233348500    0.498461544601    0.414917558000
    0.000233348500    0.831794887868    0.414917558000
    0.500233348500    0.831794887868    0.414917558000
    0.125000000000    0.250000000000    0.064839996000
    0.625000000000    0.250000000000    0.064839996000
    0.125000000000    0.583333343267    0.064839996000
    0.625000000000    0.583333343267    0.064839996000
    0.125000000000    0.916666686535    0.064839996000
    0.625000000000    0.916666686535    0.064839996000
    0.125629052500    0.249909122667    0.297853649000
    0.625629052500    0.249909122667    0.297853649000
    0.125629052500    0.583242465934    0.297853649000
    0.625629052500    0.583242465934    0.297853649000
    0.125629052500    0.916575809202    0.297853649000
    0.625629052500    0.916575809202    0.297853649000
    0.250010013500    0.166933338000    0.179820001000
    0.750010013500    0.166933338000    0.179820001000
    0.250010013500    0.500266681267    0.179820001000
    0.750010013500    0.500266681267    0.179820001000
    0.250010013500    0.833600024535    0.179820001000
    0.750010013500    0.833600024535    0.179820001000
    0.249084383000    0.167283197333    0.426771790000
    0.749084383000    0.167283197333    0.426771790000
    0.249084383000    0.500616540601    0.426771790000
    0.749084383000    0.500616540601    0.426771790000
    0.249084383000    0.833949883868    0.426771790000
    0.749084383000    0.833949883868    0.426771790000
    0.375000000000    0.250000000000    0.064839996000
    0.875000000000    0.250000000000    0.064839996000
    0.375000000000    0.583333343267    0.064839996000
    0.875000000000    0.583333343267    0.064839996000
    0.375000000000    0.916666686535    0.064839996000
    0.875000000000    0.916666686535    0.064839996000
    0.375144958500    0.250061154333    0.300641805000
    0.875144958500    0.250061154333    0.300641805000
    0.375144958500    0.583394497601    0.300641805000
    0.875144958500    0.583394497601    0.300641805000
    0.375144958500    0.916727840868    0.300641805000
    0.875144958500    0.916727840868    0.300641805000
    0.256697625000    0.250183542667    0.525436521000
    0.756697625000    0.250183542667    0.525436521000
    0.256697625000    0.583516885934    0.525436521000
    0.756697625000    0.583516885934    0.525436521000
    0.256697625000    0.916850229202    0.525436521000
    0.756697625000    0.916850229202    0.525436521000
    0.258644730000    0.254815618333    0.601058602000
    0.758644730000    0.254815618333    0.601058602000
    0.258644730000    0.588148961601    0.601058602000
    0.758644730000    0.588148961601    0.601058602000
    0.258644730000    0.921482304868    0.601058602000
    0.758644730000    0.921482304868    0.601058602000
    0.123829484000    0.083125720333    0.455084950000
    0.623829484000    0.083125720333    0.455084950000
    0.123829484000    0.416459063601    0.455084950000
    0.623829484000    0.416459063601    0.455084950000
    0.123829484000    0.749792406868    0.455084950000
    0.623829484000    0.749792406868    0.455084950000
